75
-123.96756620
C          0.0039178604        3.9325306216        0.3445626327
C         -0.7703756620        4.5400593100        1.3294629470
C         -0.7723336935        5.9137395851        1.4588693531
C          0.0065971880        6.6956092896        0.6128411454
C          0.7849749616        6.0931876194       -0.3675258446
C          0.7786449744        4.7187938160       -0.5027673039
S         -0.0293454720        8.4509327652        0.8274141964
N          0.0035357681        2.5345201895        0.2063927913
C          1.1214076101        1.7303660680        0.1516863133
C          0.7216164065        0.3802578221        0.0115987419
C         -0.7129289342        0.3822872083       -0.0126074501
C         -1.1137632507        1.7343426517        0.1098541585
C          1.6723072874       -0.6276505644       -0.0680467596
C          3.0097699534       -0.2793292819        0.0240327151
C          3.3950679122        1.0549356248        0.2012110965
C          2.4636032263        2.0702479511        0.2625323857
C         -2.4565984029        2.0882314183        0.0781778015
C         -3.3891730453        1.0776849352       -0.0309754626
C         -3.0011987218       -0.2636190239       -0.1226268387
C         -1.6638426934       -0.6218405959       -0.1281990632
N          4.0100389327       -1.2822769578       -0.0498869665
C          4.1412336422       -2.2315364480        0.9614201827
C          5.1537617298       -3.1968416401        0.8735581029
O          6.0480510569       -3.2358702782       -0.1752299158
C          5.9028901864       -2.2856403008       -1.1635797532
C          4.8937476085       -1.3139668148       -1.1262281556
N         -4.0014466490       -1.2685352941       -0.2092966848
C         -4.2870544059       -2.0715915683        0.8909289977
C         -5.3108177055       -3.0246844345        0.8014210869
O         -6.0603405789       -3.1966270433       -0.3437655331
C         -5.7656866113       -2.3842157292       -1.4188834256
C         -4.7467903869       -1.4229795813       -1.3736340129
C          3.3165371166       -2.2446718434        2.0798569865
C          3.4716349291       -3.2067293023        3.0664574726
C          4.4569243275       -4.1665611935        2.9577102833
C          5.3040746610       -4.1542028821        1.8579794071
C          6.7971267172       -2.3346163353       -2.2153205621
C          6.7000339718       -1.4247889092       -3.2594773783
C          5.6940824202       -0.4803842965       -3.2462112520
C          4.7952436735       -0.4270857592       -2.1916536857
C         -6.5179303924       -2.5590935952       -2.5638081388
C         -6.2673074620       -1.7863695404       -3.6901995513
C         -5.2559470728       -0.8481055845       -3.6611801692
C         -4.4985280994       -0.6683512203       -2.5134499066
C         -3.6017517611       -1.9498481537        2.0933822360
C         -3.9116836822       -2.7642816347        3.1722336151
C         -4.9130780751       -3.7079052544        3.0695064970
C         -5.6161678939       -3.8334387893        1.8785654996
H         -1.3590019925        3.9335252728        1.9999209539
H         -1.3708601935        6.3884544376        2.2211500333
H          1.3892117876        6.6934516925       -1.0305037996
H          1.3670059750        4.2520025743       -1.2773253911
H          0.8215870168        8.7325430666       -0.1544321883
H          1.3815358039       -1.6595361972       -0.1904162509
H          4.4466676727        1.2819034039        0.2894487328
H          2.7729561175        3.0925515672        0.4106414982
H         -2.7663060823        3.1196721661        0.1339836940
H         -4.4422965398        1.3139163613       -0.0495297589
H         -1.3751189325       -1.6578753470       -0.2148444328
H          2.5504430450       -1.4926193200        2.1812556132
H          2.8136590801       -3.1953116030        3.9213396561
H          4.5805126615       -4.9197608262        3.7192228191
H          6.0938811099       -4.8803920667        1.7480378133
H          7.5617462150       -3.0951216113       -2.2011658482
H          7.4049689787       -1.4691144007       -4.0740787009
H          5.5969860786        0.2236710602       -4.0578353654
H          4.0055959246        0.3071532963       -2.1961877091
H         -7.2949676806       -3.3070306080       -2.5566635012
H         -6.8610913999       -1.9299545461       -4.5786465113
H         -5.0444309890       -0.2477412195       -4.5322267865
H         -3.7040973510        0.0610636977       -2.4996272652
H         -2.8229279822       -1.2093840713        2.1841669883
H         -3.3623825310       -2.6504793873        4.0937780601
H         -5.1587235134       -4.3447232842        3.9041655784
H         -6.4104365529       -4.5546590160        1.7680714779
