75
-123.96764080
C          0.0080985958        3.9353929265        0.3662535361
C         -0.7378060788        4.5436260461        1.3723788761
C         -0.7380860867        5.9175593641        1.4992106540
C          0.0141571593        6.6989784537        0.6289538111
C          0.7644542065        6.0957804811       -0.3726256515
C          0.7564678588        4.7211161481       -0.5048988448
S         -0.0186126018        8.4547427184        0.8405135700
N          0.0048720493        2.5371578909        0.2298209050
C          1.1209641685        1.7336361498        0.1441549196
C          0.7177765255        0.3834422062        0.0130159233
C         -0.7169303355        0.3858941104        0.0189631106
C         -1.1146405777        1.7370168596        0.1584059053
C          1.6664680246       -0.6249722319       -0.0818390467
C          3.0051915392       -0.2756462135       -0.0221613494
C          3.3954839728        1.0592099017        0.1354665372
C          2.4654866569        2.0744821823        0.2182497534
C         -2.4579979866        2.0900034054        0.1628894420
C         -3.3925068432        1.0802606143        0.0637524034
C         -3.0073018304       -0.2598708865       -0.0577266690
C         -1.6696629035       -0.6168398378       -0.0924632091
N          4.0032410331       -1.2813231629       -0.1068638758
C          4.8286519754       -1.3588485484       -1.2251113760
C          5.8369484919       -2.3309402982       -1.2735661014
O          6.0402422515       -3.2332337759       -0.2506938748
C          5.2052764244       -3.1453951340        0.8434664626
C          4.1926062382       -2.1809940638        0.9389215828
N         -4.0087863881       -1.2611268283       -0.1514015910
C         -4.8136265905       -1.3475516688       -1.2840942461
C         -5.8267732039       -2.3142489335       -1.3394486339
O         -6.0548005080       -3.2025984029       -0.3096445180
C         -5.2362298382       -3.1100642522        0.7963890636
C         -4.2193875650       -2.1508251361        0.8989759000
C          4.6715293417       -0.5168001142       -2.3192438969
C          5.5103220471       -0.6178693435       -3.4188977265
C          6.5135185274       -1.5648673834       -3.4470729846
C          6.6708844592       -2.4274589415       -2.3703896285
C          5.4144706639       -4.0517540310        1.8645592978
C          4.6261746690       -4.0134735067        3.0068925637
C          3.6386600200       -3.0563900041        3.1194013435
C          3.4246639791       -2.1449177524        2.0963905644
C         -5.4666173025       -4.0061595385        1.8219925956
C         -4.6959676781       -3.9624115960        2.9760950879
C         -3.7043847247       -3.0103789662        3.0953874688
C         -3.4690826205       -2.1093635341        2.0678048274
C         -4.6308102670       -0.5204540299       -2.3856447633
C         -5.4499242913       -0.6301151794       -3.4992281470
C         -6.4584326216       -1.5712390073       -3.5343411846
C         -6.6408252229       -2.4195401211       -2.4503287892
H         -1.3056084412        3.9373835898        2.0608253529
H         -1.3146136655        6.3929051009        2.2778815206
H          1.3479287066        6.6956498234       -1.0543109678
H          1.3226224476        4.2537337425       -1.2955002964
H          0.8009026867        8.7355470152       -0.1679797448
H          1.3739995641       -1.6580532835       -0.1891568056
H          4.4491887902        1.2862184463        0.1932118731
H          2.7780138915        3.0974315340        0.3547970366
H         -2.7670745947        3.1204567463        0.2372889266
H         -4.4456438803        1.3169382376        0.0732554503
H         -1.3814674085       -1.6509704060       -0.2012901686
H          3.8833858259        0.2191725597       -2.3092630881
H          5.3685517129        0.0506124866       -4.2537068804
H          7.1710904043       -1.6470186336       -4.2975778422
H          7.4368343711       -3.1867498451       -2.3654419416
H          6.2026415012       -4.7788994852        1.7493020330
H          4.7962567333       -4.7266236978        3.7974638303
H          3.0252526236       -3.0075739803        4.0055425070
H          2.6570399643       -1.3943447462        2.1980926830
H         -6.2573319319       -4.7295643179        1.7008210742
H         -4.8826845928       -4.6674126868        3.7702079378
H         -3.1043539851       -2.9574476926        3.9904079570
H         -2.6981126670       -1.3629750321        2.1745995346
H         -3.8386131932        0.2111550619       -2.3706530679
H         -5.2885087475        0.0273955545       -4.3391714817
H         -7.1008380851       -1.6597402639       -4.3957219850
H         -7.4113874676       -3.1741596154       -2.4501471791
