75
-123.96748894
C         -0.0059823886        3.9387595001       -0.0597550696
C          0.7564063966        4.6454718963        0.8663900694
C          0.7549346966        6.0252077732        0.8548993048
C         -0.0156550854        6.7146571853       -0.0750054845
C         -0.7821187731        6.0133570090       -0.9972994135
C         -0.7722723155        4.6323583304       -0.9914179672
S          0.0150806388        8.4827532524       -0.0401844292
N         -0.0034713942        2.5336949134       -0.0542288626
C          1.1144720635        1.7289427816       -0.0629386278
C          0.7146424650        0.3709612834       -0.0557358445
C         -0.7199523686        0.3703644179       -0.0334493073
C         -1.1208545330        1.7275071459       -0.0340280243
C          1.6666430747       -0.6389437254       -0.0693247771
C          3.0030101168       -0.2798155690       -0.1011957054
C          3.3904753944        1.0641142810       -0.1326147621
C          2.4573926465        2.0799461045       -0.1166136789
C         -2.4634213849        2.0770292305        0.0349453784
C         -3.3944638316        1.0606218402        0.0842854871
C         -3.0071689307       -0.2841902304        0.0610204621
C         -1.6702358512       -0.6405292427        0.0021928840
N          4.0057671676       -1.2875257469       -0.1105513090
C          4.7357806378       -1.5580316911        1.0416001268
C          5.7565569832       -2.5175111623        1.0028563867
O          6.0685362877       -3.2145644933       -0.1461236707
C          5.3400575195       -2.9205062043       -1.2803796309
C          4.3139131470       -1.9657210793       -1.2848822801
N         -4.0049220124       -1.2918170598        0.1217957305
C         -4.1624849471       -2.0595606918        1.2730697204
C         -5.1821825883       -3.0197283646        1.3269107575
O         -6.0544588949       -3.2296248121        0.2795905081
C         -5.8889697503       -2.4494337132       -0.8454272367
C         -4.8758602098       -1.4864386390       -0.9465048198
C          4.4723443928       -0.9193956054        2.2468657204
C          5.2138914527       -1.2138317911        3.3812325472
C          6.2249241034       -2.1514106809        3.3297974499
C          6.4930235262       -2.8064950251        2.1347312353
C          5.6668560438       -3.6068910618       -2.4332622028
C          4.9819611148       -3.3553739175       -3.6150899936
C          3.9761298972       -2.4109937762       -3.6319307198
C          3.6445726758       -1.7186621962       -2.4768048127
C         -6.7667718396       -2.6614250858       -1.8905539911
C         -6.6494920789       -1.9264173137       -3.0627470568
C         -5.6425717465       -0.9903430351       -3.1808115031
C         -4.7598414207       -0.7734606725       -2.1335165595
C         -3.3547760220       -1.8936945932        2.3915178120
C         -3.5373927764       -2.6758394936        3.5220013044
C         -4.5328440088       -3.6306198095        3.5573523895
C         -5.3603911975       -3.7967532011        2.4549347865
H          1.3383622725        4.1121278758        1.6017207076
H          1.3441510765        6.5768398431        1.5712601631
H         -1.3798606283        6.5412358173       -1.7246263608
H         -1.3514512255        4.0873463166       -1.7204844375
H         -0.8253892711        8.6604533674       -1.0548141445
H          1.3792570481       -1.6788794430       -0.0609540916
H          4.4436752516        1.2975934536       -0.1701630844
H          2.7662051957        3.1123245749       -0.1571327706
H         -2.7730326169        3.1092975369        0.0705824113
H         -4.4464317955        1.2946413479        0.1456736631
H         -1.3799974665       -1.6797468952       -0.0020963995
H          3.6787961952       -0.1903667165        2.2935931503
H          4.9906755450       -0.7033014303        4.3050738813
H          6.8061733337       -2.3841075539        4.2076234517
H          7.2719395388       -3.5490904509        2.0634847814
H          6.4623890828       -4.3337895414       -2.3885224499
H          5.2446142145       -3.8972522099       -4.5094986113
H          3.4401580959       -2.2018456866       -4.5445867477
H          2.8616056490       -0.9770492206       -2.4972421444
H         -7.5348209688       -3.4089401169       -1.7699119206
H         -7.3409720618       -2.0981796198       -3.8719836076
H         -5.5321742183       -0.4209056230       -4.0904442964
H         -3.9691841304       -0.0474567805       -2.2371941586
H         -2.5803000489       -1.1434294494        2.3780083392
H         -2.8930662310       -2.5279364378        4.3745955963
H         -4.6787854629       -4.2435719997        4.4322629249
H         -6.1555901522       -4.5253532871        2.4535169538
