73
Coordinates from ORCA-job Combo10_Cf1Opt
  C   -0.03861787899600      3.92887434344608      0.25697724779398
  C   -0.64023901484613      4.67680701794912     -0.74193596798239
  C   -0.64645316492663      6.05270049966669     -0.65850099253618
  C   -0.04465648229146      6.69863426929650      0.41853277645737
  C   0.56200596026382      5.93603831187275      1.41188734306212
  C   0.56348374620197      4.55891274371193      1.33340962189012
  S   -0.08940126942519      8.45053291938658      0.44612422941052
  N   -0.03258021434336      2.51153696454629      0.17617840318834
  C   1.11334342228383      1.71641098746319      0.13461844989714
  C   0.73029241164555      0.37299459998045      0.03853828969169
  C   -0.71887712236824      0.36136933890370      0.02778760802813
  C   -1.12926931903581      1.71587576075927      0.11050603722660
  C   1.68421801909036     -0.61658290484688     -0.04059690513739
  C   3.02900013220082     -0.25420214389728     -0.00825722788766
  C   3.39185599981916      1.09388404933826      0.08377517396477
  C   2.44394560189642      2.09378353833064      0.14505790589935
  C   -2.48290843146474      2.06551391176615      0.14304907128805
  C   -3.40742611647994      1.06235496159659      0.06813457914042
  C   -3.01419278039599     -0.29171372732823     -0.01479324256089
  C   -1.65162603057873     -0.63530814172963     -0.02779019560932
  N   4.01051878185921     -1.24215822225177     -0.07559877262228
  C   4.01667696403581     -2.42954618544867      0.65833404135923
  C   5.13470369672992     -3.18733234364798      0.28575115966266
  C   5.84110768922489     -2.42916695062512     -0.72186901252167
  C   5.12606013153275     -1.24052125493446     -0.91815296433042
  N   -3.96643679340496     -1.28417057747094     -0.07340891469752
  C   -5.15270521094052     -1.25193663885490     -0.82749921538400
  C   -5.83646654684423     -2.45889676093181     -0.64068530989552
  C   -5.04586502471055     -3.26287872528833      0.27260719748877
  C   -3.90831725825678     -2.51614221097096      0.60006998981446
  C   5.51697185278053     -0.30783494906942     -1.86595841319270
  C   6.65828728351006     -0.57618675192393     -2.59745541881751
  C   7.39081344892723     -1.74395357141419     -2.39875159231271
  C   6.98287605490324     -2.67823499554425     -1.46768205094227
  C   5.37549446674523     -4.40672338175397      0.89926392303718
  C   4.50428092192903     -4.84985611903066      1.87526377838322
  C   3.41030354058527     -4.07491953159718      2.25199851134438
  C   3.15287541330983     -2.85489525000103      1.65587545463073
  C   -7.01650433547683     -2.69438054694715     -1.31697378752319
  C   -7.49634909647451     -1.72116301417347     -2.17881943669860
  C   -6.79138448057165     -0.54081282683003     -2.38094991331189
  C   -5.60343076077123     -0.29076491244652     -1.71709695965306
  C   -2.98736016551832     -2.96465139206284      1.53279983059864
  C   -3.19581233491224     -4.21494261746026      2.08760484048914
  C   -4.30200083991169     -4.98166510558686      1.74221818362645
  C   -5.24261342088416     -4.50423540831454      0.84308344257641
  H   -1.08741597142287      4.18186171983560     -1.59319458343815
  H   -1.11207732313718      6.63327198538489     -1.44343605367140
  H   1.02943455242541      6.41768213383262      2.25942244950166
  H   1.02210539636891      3.97091855551391      2.11667899486075
  H   0.57019132747877      8.61315267870583      1.59880730196134
  H   1.41198866210077     -1.65590537426089     -0.15344640352061
  H   4.44014935353542      1.34929564110000      0.12611863436753
  H   2.73964420579097      3.13026050608476      0.21385209833120
  H   -2.79064531241220      3.09469285863229      0.25619964388167
  H   -4.45833298754494      1.29638107953090      0.14001350900503
  H   -1.35951868961764     -1.66924337813114     -0.13323545927229
  H   4.95193163544311      0.59422218239619     -2.04708710687503
  H   6.98527374901123      0.13653149026170     -3.34216745707373
  H   8.28014987785452     -1.92170192307479     -2.98687353356487
  H   7.54256410524901     -3.59330031917614     -1.32757470840306
  H   6.23727043962768     -4.99981781591181      0.62394903884089
  H   4.67876126827083     -5.79881998863781      2.36263154635908
  H   2.75294766832976     -4.42846502301488      3.03469744914783
  H   2.31751103417211     -2.25265122236567      1.98150400982512
  H   -7.55225653818843     -3.62487869492537     -1.18841457713981
  H   -8.42006934128871     -1.88802050445581     -2.71476506792698
  H   -7.17010531172211      0.19423313656160     -3.07712504291907
  H   -5.05093232389769      0.61440983417475     -1.91449442635848
  H   -2.14820629683326     -2.36423410227969      1.84791668572298
  H   -2.49024819517959     -4.59315719777924      2.81391714990874
  H   -4.43977372365384     -5.95249610228230      2.19710276323070
  H   -6.11988023540509     -5.09010652345040      0.60539909538623
