75
-122.29904364
C          0.0677281486        4.0711741954        0.3893284932
C         -0.7361796559        4.8887953912       -0.4004523672
C         -0.7232604237        6.2587253239       -0.2285107697
C          0.1034728727        6.8276383746        0.7318449790
C          0.9100852391        6.0162390416        1.5218418635
C          0.8888644938        4.6466884095        1.3561747388
S          0.1661428467        8.5768578416        0.9908542495
N          0.0445965686        2.6808763376        0.2124417111
C         -1.0945043289        1.8969037053        0.1459814891
C         -0.7280033075        0.5481101287       -0.0426648274
C          0.7060251514        0.5216416169       -0.0941043958
C          1.1398485857        1.8604815331        0.0714162221
C         -1.6896050068       -0.4474056891       -0.1245408328
C         -3.0350164931       -0.1010694766       -0.0307511050
C         -3.3758102925        1.2391732677        0.2273359557
C         -2.4277204794        2.2362649420        0.3159603827
C          2.4905598110        2.1842446337        0.0274095975
C          3.3973694281        1.1600091642       -0.1497795412
C          2.9750378753       -0.1657202846       -0.2982205442
C          1.6317165731       -0.4952749862       -0.2800187840
N         -4.0287797626       -1.0746763949       -0.0981285908
C         -5.3961367743       -0.7870506626        0.0751065405
C         -6.1365981850       -1.4903627772        1.0236762726
S         -5.3301683437       -2.7475943949        1.9872462569
C         -4.2750861298       -3.3527348348        0.6918071400
C         -3.7396901964       -2.4474446787       -0.2229323058
N          3.9461692815       -1.1998904212       -0.4786720114
C          4.4271771189       -1.8281296458        0.6641351564
C          5.3283303971       -2.8959909589        0.6282254054
S          5.9101734393       -3.6036388136       -0.8911463999
C          5.3915819280       -2.3803161069       -2.0675907807
C          4.4726153284       -1.3747891903       -1.7530878707
C         -6.0534442298        0.1387811577       -0.7309375429
C         -7.3966427066        0.4046023146       -0.5384466386
C         -8.1109841824       -0.2690654619        0.4398698685
C         -7.4847956761       -1.2321738830        1.2100486540
C         -4.0099446045       -4.7087309067        0.5916765709
C         -3.2091589026       -5.1764208205       -0.4344079335
C         -2.7104916136       -4.2925721319       -1.3784033350
C         -2.9851831788       -2.9405107163       -1.2841059410
C          5.9140972724       -2.5003387637       -3.3440836120
C          5.5201053752       -1.6405075821       -4.3544863429
C          4.5891298150       -0.6593550918       -4.0702684638
C          4.0780824654       -0.5275548502       -2.7919187567
C          4.0059262412       -1.3939020261        1.9237388945
C          4.4569960488       -1.9919894664        3.0862332253
C          5.3575809513       -3.0389546800        3.0306963991
C          5.7911471076       -3.4829101390        1.7936338942
H         -1.3629734979        4.4477700887       -1.1598395052
H         -1.3501618770        6.8820794491       -0.8478902030
H          1.5450327257        6.4645386859        2.2707356544
H          1.4977177705        4.0176714794        1.9867653950
H         -0.7242679575        8.8918050391        0.0552456476
H         -1.3802188326       -1.4744319448       -0.2270483156
H         -4.4082520118        1.4994925801        0.3952723545
H         -2.7271095829        3.2493310783        0.5346887856
H          2.8263130956        3.2051342295        0.1182179334
H          4.4552976646        1.3734380985       -0.1833396617
H          1.3185709657       -1.5201233004       -0.4070552667
H         -5.4985290767        0.6484966123       -1.5036213874
H         -7.8888281181        1.1362220702       -1.1600997883
H         -9.1574176004       -0.0579405453        0.5933434059
H         -8.0272592775       -1.7834580525        1.9623290864
H         -4.4275663573       -5.3826259525        1.3235829859
H         -2.9901068823       -6.2301284463       -0.5052312197
H         -2.1097904584       -4.6576535848       -2.1970322310
H         -2.6152757769       -2.2537176835       -2.0299458856
H          6.6261417471       -3.2890238171       -3.5357262644
H          5.9306283953       -1.7469292711       -5.3457935484
H          4.2540839707        0.0152945789       -4.8429756599
H          3.3525109775        0.2446922600       -2.5930250794
H          3.3071368432       -0.5753783778        1.9899337213
H          4.0994177287       -1.6295496155        4.0377125482
H          5.7183823381       -3.5098803952        3.9310420081
H          6.4888860903       -4.3030656850        1.7141742569
