75
-122.29885971
C         -0.0411616453        4.0837569252       -0.4634644226
C         -0.7631680252        4.9103030145        0.3930257259
C         -0.7746763659        6.2776624790        0.2000279053
C         -0.0530248930        6.8346034976       -0.8479593201
C          0.6735299374        6.0141423959       -1.7036840151
C          0.6754817350        4.6472997753       -1.5165661155
S         -0.0253125179        8.5798058809       -1.1377154285
N         -0.0328740930        2.6953562715       -0.2666460839
C         -1.1390866373        1.8954692111       -0.0967950686
C         -0.7251298210        0.5494941312        0.0655380049
C          0.7087070760        0.5527844069       -0.0026835479
C          1.0940955754        1.8930917747       -0.2134034324
C         -1.6660267197       -0.4532049670        0.2459626322
C         -3.0064037291       -0.1031803820        0.2571008264
C         -3.4092960019        1.2212170411        0.0693280298
C         -2.4866928344        2.2311662821       -0.1148086571
C          2.4373239011        2.2225717547       -0.3051423161
C          3.3711329739        1.2156243251       -0.1812887682
C          3.0074844184       -0.1231212884        0.0511084217
C          1.6561946009       -0.4528108518        0.1142743585
N         -4.0142318166       -1.0979159016        0.4554644249
C         -4.3191197470       -1.4557395733        1.7633349090
C         -5.3701953435       -2.3168955618        2.0917829892
S         -6.4830881613       -2.9709870179        0.8735676936
C         -5.6013935508       -2.6200118382       -0.6258031017
C         -4.5224134141       -1.7325996625       -0.6713737114
N          3.9887259324       -1.1072649699        0.1459189762
C          3.6840123032       -2.4789393445        0.2449704508
C          4.2370088594       -3.3767325111       -0.6667359177
S          5.3354096300       -2.7633638760       -1.9218055359
C          6.1261523894       -1.5299861711       -0.9152701589
C          5.3640210701       -0.8323265543        0.0201534473
C         -3.5633419190       -0.9429050613        2.8207700685
C         -3.8310915285       -1.2809372569        4.1348175705
C         -4.8595943807       -2.1530330784        4.4379540159
C         -5.6259407166       -2.6672463794        3.4065130113
C         -6.0650016110       -3.2440416306       -1.7713019446
C         -5.4832674439       -2.9885688236       -3.0009106461
C         -4.4246286891       -2.1024322515       -3.0681198569
C         -3.9491572190       -1.4909125612       -1.9224284974
C          7.4824152601       -1.2850561707       -1.0550137657
C          8.0945098745       -0.3411863119       -0.2504104225
C          7.3571158958        0.3261858596        0.7150642308
C          6.0054967272        0.0735112090        0.8608738229
C          2.8976900675       -2.9794117462        1.2791573606
C          2.6088906513       -4.3301684944        1.3473986899
C          3.1248792614       -5.2055416681        0.4048371717
C          3.9575530316       -4.7314885683       -0.5925586440
H         -1.3055422706        4.4800444452        1.2206358696
H         -1.3381231886        6.9081880644        0.8710086174
H          1.2277526495        6.4533030379       -2.5191038569
H          1.2214642334        4.0100561730       -2.1946694234
H         -0.8177515349        8.9063717648       -0.1215000542
H         -1.3682050819       -1.4829382361        0.3739609010
H         -4.4652031789        1.4451087832        0.0664896791
H         -2.8093531488        3.2472532162       -0.2773624252
H          2.7589380877        3.2395272990       -0.4663254703
H          4.4128753952        1.4699031820       -0.2905980165
H          1.3318069929       -1.4734605929        0.2320517533
H         -2.7556348256       -0.2616186275        2.6067293377
H         -3.2257272959       -0.8570255479        4.9211750327
H         -5.0733345236       -2.4269426241        5.4586741882
H         -6.4467280161       -3.3387554697        3.6092582799
H         -6.9000748763       -3.9230464305       -1.6852340710
H         -5.8590869885       -3.4732244950       -3.8877438962
H         -3.9570096111       -1.8817864193       -4.0153270474
H         -3.1191095711       -0.8064783790       -1.9959883790
H          8.0424612186       -1.8312803045       -1.7980392376
H          9.1476991591       -0.1403107899       -0.3670167917
H          7.8374775478        1.0424706062        1.3632902714
H          5.4320426314        0.5783191759        1.6232702366
H          2.5157226903       -2.2998594871        2.0255508315
H          1.9838085128       -4.7010069068        2.1449233645
H          2.8949764356       -6.2581059711        0.4553486209
H          4.3896683242       -5.3993116881       -1.3215901251
