75
-122.29902158
C         -0.0363003141        4.1048565165        0.3429496135
C         -0.7269061741        4.8598036806       -0.6024823130
C         -0.7281789237        6.2371272345       -0.5238467262
C         -0.0305796834        6.8787696330        0.4934123077
C          0.6657640982        6.1315071259        1.4346691614
C          0.6578375110        4.7526417389        1.3611942282
S         -0.0606837445        8.6472678240        0.5427216034
N         -0.0352949647        2.7053440972        0.2681784849
C         -1.1395581019        1.9013310283        0.1023730877
C         -0.7303173762        0.5452483773        0.0548835666
C          0.6963601962        0.5437576669        0.2119809868
C          1.0844343181        1.8939119540        0.3377919830
C         -1.6691874029       -0.4634289124       -0.1011773741
C         -3.0065574138       -0.1107854873       -0.1806441275
C         -3.4066876479        1.2254825508       -0.0978260603
C         -2.4847002390        2.2427066247        0.0436543226
C          2.4283103433        2.2225309252        0.4258234820
C          3.3531457360        1.2007407022        0.4716969049
C          2.9779144696       -0.1545155442        0.4353981745
C          1.6351363008       -0.4754431840        0.2529984009
N         -4.0141417362       -1.1098957986       -0.3506078042
C         -4.3881584755       -1.8642464231        0.7554528962
C         -5.4525828416       -2.7706564209        0.7297135100
S         -6.5120031406       -2.9571620756       -0.6821415549
C         -5.5412689419       -2.1760948500       -1.9449495564
C         -4.4519352062       -1.3527194106       -1.6478004066
N          3.9475638626       -1.1524360191        0.4892534008
C          5.3249441770       -0.8832620249        0.5999378772
C          6.2148076331       -1.4590446151       -0.3054345060
S          5.5791809469       -2.5306643825       -1.5734243960
C          4.3201862008       -3.2946236844       -0.5786882490
C          3.6387898246       -2.5202421529        0.3588090828
C         -3.6989778825       -1.7291024218        1.9633163180
C         -4.0323906610       -2.4785985005        3.0768116980
C         -5.0635129959       -3.3972300684        3.0203949267
C         -5.7726370517       -3.5335400464        1.8397641925
C         -5.9387396125       -2.3954552328       -3.2528719813
C         -5.2754743573       -1.7880901779       -4.3048038678
C         -4.1974886003       -0.9674376197       -4.0306474123
C         -3.7885149674       -0.7609735560       -2.7258500705
C          4.0423303392       -4.6436314148       -0.7267381563
C          3.0808962383       -5.2366953196        0.0712822526
C          2.4309901183       -4.4887693444        1.0404918621
C          2.7173852445       -3.1448343494        1.1952594827
C          5.8383629638       -0.1143619028        1.6412164773
C          7.1964032186        0.1318028519        1.7249724673
C          8.0656891264       -0.4087728467        0.7904898819
C          7.5765724149       -1.2217320717       -0.2158906183
H         -1.2493595679        4.3650305335       -1.4064115718
H         -1.2621007539        6.8240027940       -1.2556124573
H          1.2069779583        6.6222004872        2.2293478827
H          1.1814037417        4.1715352125        2.1042476424
H          0.7013024471        8.7729541570        1.6248224640
H         -1.3715553534       -1.4998494337       -0.1537149142
H         -4.4604372373        1.4537732987       -0.1496047502
H         -2.8070793170        3.2690169762        0.1203009870
H          2.7567681382        3.2499613293        0.4403955003
H          4.3990423576        1.4591713022        0.5069586082
H          1.3154510405       -1.4955319706        0.1175739389
H         -2.8932637751       -1.0161972797        2.0322269471
H         -3.4758794053       -2.3388933080        3.9907598399
H         -5.3256497429       -3.9923546785        3.8804460792
H         -6.5993547054       -4.2242548974        1.7678009979
H         -6.7866418568       -3.0394739043       -3.4318256183
H         -5.6015364142       -1.9563358752       -5.3186921967
H         -3.6625354880       -0.4831098312       -4.8330188532
H         -2.9393254551       -0.1246383312       -2.5340975564
H          4.5772275688       -5.2131867892       -1.4708337641
H          2.8533589248       -6.2836954740       -0.0524338997
H          1.7018977440       -4.9549564307        1.6849896071
H          2.2280360852       -2.5662728012        1.9637375238
H          5.1618162545        0.2885231794        2.3792373884
H          7.5778957267        0.7422382978        2.5286048276
H          9.1243788874       -0.2130070281        0.8536678157
H          8.2381033331       -1.6712183026       -0.9400687011
