75
-122.29869932
C         -0.0343348919        4.1045564491        0.3278164000
C          0.8072147389        4.8485219456       -0.4945681610
C          0.8103468046        6.2277451042       -0.4270797161
C         -0.0383838930        6.8790255457        0.4588352312
C         -0.8840582295        6.1411142524        1.2795153843
C         -0.8787286578        4.7627791564        1.2188328223
S         -0.0818207984        8.6435315715        0.5822254949
N         -0.0308286654        2.7039938455        0.2578488487
C         -1.1372374599        1.8988872252        0.1144007184
C         -0.7276666098        0.5431586297        0.0615039196
C          0.7007321278        0.5427114320        0.2024511811
C          1.0904801329        1.8938623674        0.3114471656
C         -1.6654838639       -0.4644800354       -0.1066997670
C         -3.0011992056       -0.1105721223       -0.2074292437
C         -3.3970621561        1.2291428742       -0.1689217129
C         -2.4756100626        2.2455389308       -0.0187346656
C          2.4281677005        2.2184766837        0.4741246098
C          3.3498229437        1.1949253436        0.5427715149
C          2.9763530010       -0.1592931979        0.4730150190
C          1.6364610563       -0.4781510634        0.2678582278
N         -4.0093821571       -1.1083959119       -0.3776384518
C         -4.3737456415       -1.8759811876        0.7229453204
C         -5.4460525275       -2.7732576793        0.6973234107
S         -6.5308760977       -2.9204191635       -0.6997669890
C         -5.5585215235       -2.1494554142       -1.9673563383
C         -4.4565511744       -1.3419207209       -1.6738167966
N          3.9440653306       -1.1588743995        0.5383170985
C          5.3206744347       -0.8917838825        0.6654829992
C          6.2182707642       -1.4523750876       -0.2418122063
S          5.5940730381       -2.5079319802       -1.5287520110
C          4.3277656901       -3.2864941390       -0.5548783653
C          3.6372762547       -2.5250069128        0.3864824512
C         -3.6691960261       -1.7646263770        1.9243523957
C         -3.9928991665       -2.5308533587        3.0292955699
C         -5.0296201451       -3.4430365929        2.9707638077
C         -5.7559430983       -3.5537429306        1.7979789178
C         -5.9664981456       -2.3595039146       -3.2735860118
C         -5.3007879662       -1.7579185498       -4.3272171675
C         -4.2087307621       -0.9546983576       -4.0567668074
C         -3.7890499228       -0.7584652193       -2.7538242494
C          4.0527837795       -4.6337722359       -0.7227733598
C          3.0846312531       -5.2378021791        0.0587383742
C          2.4247380224       -4.5029412986        1.0312070763
C          2.7085546975       -3.1609007508        1.2061062815
C          5.8250580385       -0.1398817911        1.7234255788
C          7.1819674146        0.1082042532        1.8203759135
C          8.0588148277       -0.4145014008        0.8828109390
C          7.5788082828       -1.2132322075       -0.1392473608
H          1.4499003063        4.3431269948       -1.1986435738
H          1.4666741151        6.7935998856       -1.0707578263
H         -1.5373716164        6.6537689027        1.9689262731
H         -1.5199738361        4.1912826970        1.8717413284
H          0.8417931735        8.8747899176       -0.3455319035
H         -1.3674060147       -1.5007693535       -0.1600631032
H         -4.4463838213        1.4611408183       -0.2707881882
H         -2.7913377179        3.2767666790       -0.0140910791
H          2.7541161224        3.2436523895        0.5531341921
H          4.3924554834        1.4528421927        0.6323445631
H          1.3148357830       -1.4989961607        0.1435939685
H         -2.8590714586       -1.0571084849        1.9960314854
H         -3.4240923847       -2.4094448483        3.9383039882
H         -5.2834752523       -4.0517262098        3.8237799238
H         -6.5888720946       -4.2369033611        1.7256970948
H         -6.8244685484       -2.9908607565       -3.4495528837
H         -5.6354344245       -1.9175073024       -5.3397064853
H         -3.6709245874       -0.4762572968       -4.8607265130
H         -2.9287337278       -0.1362764589       -2.5651244668
H          4.5950951275       -5.1934180803       -1.4690195932
H          2.8594779007       -6.2834086448       -0.0802448016
H          1.6899596459       -4.9780102350        1.6626494862
H          2.2118512705       -2.5925491243        1.9775374473
H          5.1428028728        0.2483656240        2.4641215979
H          7.5562879656        0.7063041360        2.6365843726
H          9.1164485002       -0.2165033684        0.9560044239
H          8.2465226286       -1.6500448978       -0.8654968228
