75
-122.29912982
C          0.0598541720        4.0880025302        0.4509008830
C          0.8801203614        4.6520488361        1.4242079722
C          0.8937238486        6.0188662371        1.6205775958
C          0.0763617594        6.8368811710        0.8512131124
C         -0.7494826496        6.2784076417       -0.1180018956
C         -0.7545726207        4.9138811581       -0.3205977437
S          0.0478140253        8.5931098614        1.0649963007
N          0.0474647263        2.7007025934        0.2517053006
C         -1.0848896077        1.9078402536        0.1766476815
C         -0.7071752249        0.5633890618       -0.0212146096
C          0.7276207567        0.5485813725       -0.0657909680
C          1.1499869996        1.8910445409        0.1045149680
C         -1.6611004401       -0.4376264478       -0.1234550751
C         -3.0099339966       -0.1009326039       -0.0415905859
C         -3.3617307771        1.2326434826        0.2353625060
C         -2.4214042695        2.2350539988        0.3442141061
C          2.4965532192        2.2278289498        0.0543064649
C          3.4129408496        1.2122044063       -0.1291785362
C          3.0043393909       -0.1164430854       -0.2682715514
C          1.6624198464       -0.4598277791       -0.2467285348
N         -3.9966825989       -1.0789243423       -0.1386806733
C         -5.3688128840       -0.8025878523        0.0142627267
C         -6.1238232758       -1.5373242785        0.9269113498
S         -5.3292407993       -2.8204799259        1.8656768373
C         -4.2509890011       -3.3818716399        0.5693847447
C         -3.7003673095       -2.4456098772       -0.3043017324
N          4.0078472885       -1.1201471695       -0.4417987852
C          4.5081599217       -1.7293177227        0.7026466889
C          5.5844376522       -2.6209447275        0.6843816108
S          6.4717121514       -3.0132618718       -0.8014884470
C          5.3732993041       -2.3763198074       -2.0415650757
C          4.3229153812       -1.5047648771       -1.7393023570
C         -6.0161490258        0.1417516208       -0.7783431188
C         -7.3642114887        0.3952434702       -0.6040585786
C         -8.0933001695       -0.3092681511        0.3410688957
C         -7.4767086990       -1.2914726957        1.0947022586
C         -3.9837541621       -4.7336658582        0.4273112719
C         -3.1645289560       -5.1658975720       -0.5997716511
C         -2.6488492624       -4.2499932262       -1.5032325621
C         -2.9260641568       -2.9020068449       -1.3677055360
C          5.6394547016       -2.7523846129       -3.3470746637
C          4.8841390324       -2.2551781295       -4.3948933492
C          3.8558010713       -1.3742829930       -4.1176783011
C          3.5776932315       -1.0102025642       -2.8127458779
C          3.9299330562       -1.4549557715        1.9447122034
C          4.3977350437       -2.0393784741        3.1075637666
C          5.4540871929       -2.9298190388        3.0675506369
C          6.0408112758       -3.2173647623        1.8474203385
H          1.4973163700        4.0152491707        2.0387974064
H          1.5337942070        6.4439662698        2.3787966579
H         -1.3791966894        6.9205303240       -0.7146512560
H         -1.3808516296        4.4837869275       -1.0865122270
H          0.9447662409        8.6328902375        2.0452481496
H         -1.3444319458       -1.4614857934       -0.2356568854
H         -4.3969799030        1.4836220366        0.4000831769
H         -2.7296877140        3.2430798756        0.5737985611
H          2.8223151229        3.2520555252        0.1421475441
H          4.4681695529        1.4356396047       -0.1696998327
H          1.3583905714       -1.4881090694       -0.3717174422
H         -5.4503591486        0.6754947289       -1.5265361838
H         -7.8484329021        1.1416426411       -1.2143250930
H         -9.1435458162       -0.1075465025        0.4804560238
H         -8.0305385181       -1.8675449871        1.8196166780
H         -4.4147532021       -5.4322834062        1.1275610028
H         -2.9444474108       -6.2166535562       -0.7034624034
H         -2.0332437459       -4.5866489808       -2.3229646763
H         -2.5436084137       -2.1902919482       -2.0832156341
H          6.4595635200       -3.4304862281       -3.5297608665
H          5.1061118608       -2.5490999918       -5.4082579212
H          3.2586586248       -0.9637936917       -4.9173284569
H          2.7706070410       -0.3221314964       -2.6185420267
H          3.1014276164       -0.7668568396        1.9973600367
H          3.9260142297       -1.7941748861        4.0466663082
H          5.8241749214       -3.3934688830        3.9679179485
H          6.8740108601       -3.9009575795        1.7821654424
