75
-122.30323445
C          0.0065094615        4.0954355053       -0.0108658738
C          0.7506546994        4.7950829814        0.9351210001
C          0.7574351167        6.1747759211        0.9270677903
C          0.0136984127        6.8708671463       -0.0197365008
C         -0.7344810282        6.1761756637       -0.9619058988
C         -0.7331976446        4.7950554780       -0.9590832796
S          0.0548428220        8.6384259673        0.0199050547
N          0.0031660712        2.6897288630       -0.0084983069
C         -1.1161022495        1.8869204007       -0.0124445039
C         -0.7180907014        0.5280146816       -0.0048253598
C          0.7166081190        0.5254373716        0.0010722302
C          1.1194739043        1.8829186681        0.0008458596
C         -1.6714409902       -0.4800468538        0.0056461403
C         -3.0081040164       -0.1174631312        0.0159828200
C         -3.3940706945        1.2255394569        0.0308707305
C         -2.4586776555        2.2403242141        0.0208673390
C          2.4632391405        2.2314905560       -0.0347821263
C          3.3949988163        1.2133544772       -0.0394741398
C          3.0043111822       -0.1281679243       -0.0169199946
C          1.6663925370       -0.4860226002       -0.0036230054
N         -4.0289373635       -1.1178170415        0.0220808788
C         -4.4358139594       -1.6145560553        1.2551147539
C         -5.5037865662       -2.5040395325        1.4028550443
S         -6.5035634603       -3.0297220802        0.0341273505
C         -5.5043012106       -2.5204688739       -1.3413014681
C         -4.4370474487       -1.6282784995       -1.2049410101
N          4.0220345502       -1.1316448657       -0.0182098136
C          4.4389944081       -1.6265624399        1.2121703504
C          5.5086596295       -2.5152799777        1.3521050107
S          6.4996045890       -3.0379997763       -0.0242023809
C          5.4843714762       -2.5380792528       -1.3913008936
C          4.4169617884       -1.6472907949       -1.2474004246
C         -3.7684529380       -1.2217974198        2.4179610101
C         -4.1406262291       -1.6958220861        3.6628079620
C         -5.1874105720       -2.5896778951        3.7871316169
C         -5.8638873550       -2.9903359281        2.6480901491
C         -5.8650964049       -3.0215935431       -2.5804576255
C         -5.1906695646       -2.6330070104       -3.7248902949
C         -4.1460177416       -1.7351361182       -3.6122441099
C         -3.7731638927       -1.2462660732       -2.3733555557
C          5.8321626024       -3.0448272383       -2.6318614580
C          5.1437576576       -2.6635093694       -3.7703959916
C          4.0980413719       -1.7678170905       -3.6503171779
C          3.7381128050       -1.2734396343       -2.4097992352
C          3.7813747778       -1.2324200586        2.3800699754
C          4.1632070593       -1.7058721053        3.6222073152
C          5.2103854635       -2.6003332729        3.7386890919
C          5.8782146512       -3.0013179122        2.5946546440
H          1.3123130267        4.2564386425        1.6823298355
H          1.3325520004        6.7212555261        1.6586164918
H         -1.3112391100        6.7092388286       -1.7022351038
H         -1.2979920657        4.2553053668       -1.7032213414
H         -0.7583714453        8.8238854129       -1.0153095724
H         -1.3860983939       -1.5208138842        0.0091417679
H         -4.4471848952        1.4598092198        0.0544474494
H         -2.7660072523        3.2733276992        0.0495595567
H          2.7742737082        3.2633159532       -0.0683651305
H          4.4489176347        1.4439372610       -0.0642848417
H          1.3774613704       -1.5258095578       -0.0008360471
H         -2.9469698140       -0.5274376435        2.3439892922
H         -3.6020615786       -1.3616514440        4.5361346841
H         -5.4826236395       -2.9687754343        4.7523928042
H         -6.6938071458       -3.6780834763        2.7113880197
H         -6.6940718609       -3.7112299712       -2.6347619356
H         -5.4861659246       -3.0240434078       -4.6852877446
H         -3.6097145855       -1.4095254942       -4.4901818874
H         -2.9535045744       -0.5489393047       -2.3083861865
H          6.6621496701       -3.7327375501       -2.6921851901
H          5.4293199618       -3.0584799656       -4.7321827634
H          3.5507433067       -1.4480906397       -4.5236069452
H          2.9175918587       -0.5776429429       -2.3390370318
H          2.9597070626       -0.5377058401        2.3119724886
H          3.6318451605       -1.3710247846        4.4996878034
H          5.5127766718       -2.9793372892        4.7017618390
H          6.7087950067       -3.6887813977        2.6518325251
