75
-121.22937621
C          3.2774486119        0.3201514225       -0.3012414344
C          3.9835705513        1.2240464925        0.4959075799
C          5.3450151112        1.3571643171        0.3531023165
C          6.0505411082        0.5780855680       -0.5717965230
C          5.3359390799       -0.3219228926       -1.3708186300
C          3.9702631970       -0.4429117262       -1.2431950763
C          7.4818687128        0.7632004709       -0.7001758883
S          8.2163184211        2.2104232224       -0.4190778359
S          8.4923830633       -0.5824652283       -1.1829264844
N          1.8983799544        0.1861741367       -0.1636654405
C          0.9871492597        1.2241467564       -0.0741423282
C         -0.3155209239        0.6922520987        0.0563695613
C         -0.1769138220       -0.7377094919        0.0506461177
C          1.2027098232       -1.0085668666       -0.0931631354
C         -1.4147345104        1.5323683249        0.1463588246
C         -1.2060629176        2.9021175211        0.0752459054
C          0.0840001723        3.4193886128       -0.0946661443
C          1.1878815928        2.5944319618       -0.1689084717
C          1.6740764912       -2.3139790830       -0.0814937213
C          0.7533795244       -3.3371615317        0.0221384003
C         -0.6172743525       -3.0779315919        0.1408677575
C         -1.0899757946       -1.7736881057        0.1712850302
N         -2.2971769479        3.7831819383        0.1528138839
C         -2.3950141583        4.8746822151        0.9905994215
C         -3.6347111846        5.5207876096        0.7754902576
C         -4.3097683509        4.7751073283       -0.2490357653
C         -3.4493785988        3.7095506778       -0.6026591857
N         -1.5190088679       -4.1507254862        0.2335896278
C         -2.6460413223       -4.3208201200       -0.5439412246
C         -3.2952213617       -5.5208993513       -0.1714256605
C         -2.5155614313       -6.0927515488        0.8899783834
C         -1.4279218332       -5.2147587509        1.1068379420
C         -3.9697574246        6.6458750491        1.5178547731
C         -3.0756025774        7.1045999316        2.4644365772
C         -1.8661906774        6.4481213467        2.6851344680
C         -1.5103524087        5.3276876785        1.9595496288
C         -3.7939532859        2.8149239982       -1.6064760669
C         -5.0167443738        2.9810311868       -2.2275672390
C         -5.8802647131        4.0150114994       -1.8706138049
C         -5.5341382159        4.9213057830       -0.8884387352
C         -4.4532477120       -5.9171373189       -0.8281364287
C         -4.9422848130       -5.1220280467       -1.8452733534
C         -4.2844913511       -3.9516119445       -2.2190693439
C         -3.1313269395       -3.5367328910       -1.5814122253
C         -0.4991908870       -5.4600300797        2.1089072990
C         -0.6534451946       -6.6056310715        2.8654755443
C         -1.7085006699       -7.4886502754        2.6431479277
C         -2.6488054745       -7.2384575879        1.6637779510
H          3.4612722087        1.8006897398        1.2425520572
H          5.8936938106        2.0485034656        0.9741831714
H          5.8432531839       -0.8857647220       -2.1390480519
H          3.4258844852       -1.1071810506       -1.8953568114
H          7.5747964243       -1.5468085037       -1.0799349054
H         -2.4090285823        1.1341548141        0.2729588725
H          0.2069958171        4.4875307493       -0.1857522659
H          2.1698579003        3.0125107818       -0.3226716106
H          2.7271775387       -2.5348573068       -0.1460491663
H          1.0882215112       -4.3626019977        0.0034115297
H         -2.1419932387       -1.5744428627        0.3013707315
H         -4.9131044491        7.1459096089        1.3570797188
H         -3.3160589034        7.9791818623        3.0504734891
H         -1.1938701170        6.8224957145        3.4429224170
H         -0.5786176270        4.8170523567        2.1490281899
H         -3.1253845028        2.0211576108       -1.9027003113
H         -5.3094454199        2.2962368735       -3.0097155943
H         -6.8287880286        4.1097301973       -2.3780490621
H         -6.1965233405        5.7312522910       -0.6219843930
H         -4.9552491741       -6.8309987099       -0.5477200951
H         -5.8427223821       -5.4110720123       -2.3666829048
H         -4.6843906530       -3.3574729613       -3.0274671860
H         -2.6208975381       -2.6368828268       -1.8890482254
H          0.3112277788       -4.7737837110        2.3012414392
H          0.0572550920       -6.8205742629        3.6497479217
H         -1.7928876515       -8.3750276185        3.2541999483
H         -3.4751166516       -7.9143333810        1.5018529671
