75
-121.22635915
C          3.2754867354        0.3026158451       -0.2273442173
C          4.1125069141       -0.3854030989        0.6528120863
C          5.4790106843       -0.2586443666        0.5504781051
C          6.0524619484        0.5397899175       -0.4453921298
C          5.2074650504        1.2308235751       -1.3200650887
C          3.8386308442        1.1197896462       -1.2080560991
C          7.4974543337        0.6599850120       -0.5064947182
S          8.4491319599        0.5789044818        0.8341311059
S          8.2819153116        0.9142131822       -2.0499374285
N          1.8898564391        0.1792175214       -0.1225224772
C          0.9792222250        1.2214145528       -0.1263521733
C         -0.3273654675        0.6999327285        0.0089130680
C         -0.1920210614       -0.7277450963        0.0899493895
C          1.1920740532       -1.0066731077        0.0082557488
C         -1.4230088471        1.5483382381        0.0573120315
C         -1.2047237743        2.9151316568       -0.0378186476
C          0.0950379216        3.4243345320       -0.1480934322
C          1.1950785956        2.5915373356       -0.1794869187
C          1.6578346936       -2.3145647618       -0.0070531638
C          0.7316245752       -3.3325387388        0.1008642025
C         -0.6350447956       -3.0617906381        0.2136878914
C         -1.1105721953       -1.7614608534        0.2005175869
N         -2.2948702559        3.8004775338       -0.0216081802
C         -2.4292882416        4.9084957567        0.7891744254
C         -3.6554816913        5.5526381467        0.5020827722
C         -4.2839834544        4.7873229299       -0.5375086982
C         -3.4111753721        3.7130440592       -0.8280314027
N         -1.5435250634       -4.1415846491        0.3255797954
C         -2.1076188918       -4.8258337815       -0.7242747853
C         -2.9441080471       -5.8506508007       -0.2214456635
C         -2.8673425905       -5.7684746851        1.2099915286
C         -1.9893784120       -4.6971476659        1.5007023998
C         -4.0222190670        6.6936017498        1.2040897593
C         -3.1730774431        7.1699563438        2.1828620570
C         -1.9782931819        6.5148699597        2.4754443257
C         -1.5914449338        5.3788577305        1.7909888047
C         -3.7110006972        2.7971986077       -1.8270029392
C         -4.9029799013        2.9521804026       -2.5080237078
C         -5.7791448224        3.9953548160       -2.2140943003
C         -5.4768979012        4.9218386681       -1.2362408198
C         -3.6261415855       -6.6768456621       -1.1059395025
C         -3.4665112389       -6.4702053577       -2.4618729654
C         -2.6406241464       -5.4556727415       -2.9444026886
C         -1.9507955287       -4.6206282979       -2.0874571336
C         -1.6861812737       -4.3417143640        2.8071250673
C         -2.2730562600       -5.0716219868        3.8221936754
C         -3.1404072863       -6.1287628007        3.5491823746
C         -3.4446347569       -6.4856546220        2.2504225290
H          3.6848659371       -0.9964581835        1.4317728504
H          6.1278968790       -0.7805424827        1.2368513960
H          5.6212482660        1.8906136207       -2.0676402314
H          3.1982284129        1.6493673571       -1.8952994550
H          7.2216088191        0.6979047804       -2.8321978870
H         -2.4214328387        1.1594872563        0.1805155429
H          0.2300621275        4.4924252334       -0.2186604006
H          2.1889380615        3.0050249043       -0.2389802161
H          2.7069919479       -2.5388032224       -0.1136777774
H          1.0560431444       -4.3619038224        0.0950504723
H         -2.1693985276       -1.5656542358        0.2676011111
H         -4.9553418899        7.1919837065        0.9880529271
H         -3.4385402385        8.0570748097        2.7384733090
H         -1.3423818889        6.9026499413        3.2575420117
H         -0.6725285064        4.8693898711        2.0376364637
H         -3.0326076556        1.9945851804       -2.0729303715
H         -5.1610548207        2.2507830959       -3.2876682013
H         -6.7028177067        4.0806368181       -2.7670554248
H         -6.1491167864        5.7381210946       -1.0180840824
H         -4.2673074446       -7.4633979702       -0.7366852148
H         -3.9887857464       -7.1025878665       -3.1645582953
H         -2.5397986853       -5.3214325245       -4.0113481944
H         -1.3111583047       -3.8342970075       -2.4596943380
H         -1.0144502191       -3.5227770569        3.0174835098
H         -2.0565910944       -4.8199498483        4.8500265877
H         -3.5792605016       -6.6751035322        4.3710344123
H         -4.1166597984       -7.3053112928        2.0437053733
