75
-121.23381502
C          3.2669210549        0.3021315816        0.4074062539
C          3.9410415433       -0.4880598233        1.3425818582
C          5.2986560598       -0.3561853114        1.5108114411
C          6.0327303319        0.5674011926        0.7533050688
C          5.3478330218        1.3543076810       -0.1823142006
C          3.9894746699        1.2251989567       -0.3533403818
C          7.4577662671        0.6900878186        0.9456371318
S          8.3367173366       -0.2845823940        1.9440850517
S          8.2606773528        1.9665373108        0.0468646625
N          1.8925455852        0.1718380439        0.2354568302
C          0.9831910814        1.2127643768        0.1499325252
C         -0.3169677306        0.6846247241       -0.0166630559
C         -0.1787589607       -0.7455401456       -0.0410225081
C          1.1976706648       -1.0206038513        0.1234414247
C         -1.4154567822        1.5264646550       -0.0940692733
C         -1.2057868501        2.8956675834       -0.0094044569
C          0.0828633005        3.4094838138        0.1785102116
C          1.1826468885        2.5807407488        0.2734108634
C          1.6699316831       -2.3251088017        0.0835648406
C          0.7521624154       -3.3446494606       -0.0700122095
C         -0.6157710948       -3.0820130794       -0.2106202137
C         -1.0885856779       -1.7772933353       -0.2113205536
N         -2.2943989618        3.7775297612       -0.1060484259
C         -3.2388004051        3.7801033889       -1.1120583868
C         -4.1685253356        4.8200531956       -0.8788008667
C         -3.7588496596        5.4675106438        0.3355269998
C         -2.5967706420        4.7929877487        0.7775399973
N         -1.5134788453       -4.1517922239       -0.3583562535
C         -2.6552920068       -4.3511878413        0.3903529336
C         -3.2914024044       -5.5410725798       -0.0337417432
C         -2.4876946871       -6.0757489337       -1.0966451435
C         -1.3994284955       -5.1875385984       -1.2625472397
C         -5.2111551975        5.0329072746       -1.7714909404
C         -5.3090755896        4.2173857781       -2.8811478566
C         -4.3765089287        3.2080498566       -3.1131679100
C         -3.3309985047        2.9767801375       -2.2401718107
C         -1.9691125301        5.1504723741        1.9628776873
C         -2.4973127183        6.2067867326        2.6797470582
C         -3.6281008531        6.8923581330        2.2397979797
C         -4.2706698435        6.5267885695        1.0738398318
C         -4.4605161952       -5.9628801467        0.5863579860
C         -4.9732506366       -5.2030324004        1.6186949233
C         -4.3284525858       -4.0427078977        2.0431146002
C         -3.1647642286       -3.6026894704        1.4423364834
C         -0.4490604192       -5.3973492361       -2.2522778681
C         -0.5827113415       -6.5187688973       -3.0480437063
C         -1.6385158469       -7.4120577875       -2.8761569291
C         -2.6000417288       -7.1965848703       -1.9091958332
H          3.3869007163       -1.1815383148        1.9550520522
H          5.8149104242       -0.9561266931        2.2445033437
H          5.8946239998        2.0597314586       -0.7896576004
H          3.4815606151        1.8160542865       -1.0988785191
H          9.4841855091        1.7082179736        0.5007213088
H         -2.4128466888        1.1299586423       -0.2005036596
H          0.2117654493        4.4787788775        0.2419428640
H          2.1627514621        2.9957564104        0.4448674181
H          2.7217230259       -2.5481528651        0.1639515588
H          1.0877704653       -4.3700612188       -0.0750090610
H         -2.1377157521       -1.5744097148       -0.3579125405
H         -5.9257150942        5.8236994547       -1.5989077121
H         -6.1135963556        4.3649432479       -3.5862263101
H         -4.4721395965        2.5948841009       -3.9970697737
H         -2.6052101929        2.2025698721       -2.4370568372
H         -1.1031738854        4.6152388119        2.3213440801
H         -2.0256855379        6.5062747913        3.6040212643
H         -4.0087389200        7.7146653035        2.8272201143
H         -5.1557961855        7.0478265430        0.7409323466
H         -4.9524786598       -6.8692420133        0.2666633368
H         -5.8823562049       -5.5124660718        2.1125838925
H         -4.7467936324       -3.4765428515        2.8621655650
H         -2.6646974390       -2.7112284523        1.7890023342
H          0.3628812395       -4.7028873516       -2.4049546883
H          0.1454035641       -6.7061252624       -3.8233780235
H         -1.7062633946       -8.2788363778       -3.5166427222
H         -3.4265880993       -7.8802596232       -1.7860996281
