73
-115.84910502
C         -0.0363263607        3.9166321841        0.1056047711
C         -0.7520072063        4.6388918272       -0.8444797024
C         -0.7680505395        6.0193252444       -0.8050433750
C         -0.0584091523        6.6917575350        0.1818759140
C          0.6617034114        5.9740196925        1.1306026087
C          0.6692122942        4.5947226238        1.0962107430
S         -0.0378729782        8.4579664794        0.2764629107
N         -0.0242971047        2.5127428419        0.0649081143
C          1.1012207622        1.7161947795        0.0936068052
C          0.7149090153        0.3565757533        0.0379364231
C         -0.7187821236        0.3440787752       -0.0215005360
C         -1.1325474702        1.6979935490       -0.0062416153
C          1.6742281949       -0.6456427039        0.0262905425
C          3.0107212584       -0.2806024868        0.0783901658
C          3.3840326525        1.0689028006        0.1222638271
C          2.4419844595        2.0763263473        0.1189829925
C         -2.4798692112        2.0356276816       -0.0156218987
C         -3.4027012181        1.0114792613       -0.0700783901
C         -2.9999195833       -0.3273266932       -0.1056500539
C         -1.6603345742       -0.6740504762       -0.0744603850
N          4.0086562576       -1.2711165126        0.0831782046
C          4.0734951377       -2.3443321135        0.9465030257
C          5.2255780978       -3.1116458885        0.6545609142
C          5.8780635137       -2.4623480514       -0.4470953074
C          5.0929088063       -1.3297432309       -0.7665436587
N         -3.9873474676       -1.3408249992       -0.1635927847
C         -4.5551395460       -1.9703817092        0.9174964176
C         -5.5129778363       -2.9090659304        0.4649097874
C         -5.5102780322       -2.8290100627       -0.9686143716
C         -4.5521613948       -1.8447748397       -1.3101011202
C          5.4308646879       -0.5001611852       -1.8270366119
C          6.5750209637       -0.7992361889       -2.5409607838
C          7.3669649375       -1.9002040581       -2.2194499796
C          7.0246059712       -2.7415265802       -1.1798506715
C          5.5147552884       -4.2434789977        1.4060578123
C          4.6625239104       -4.5901110174        2.4352999364
C          3.5398082841       -3.8175141330        2.7272829046
C          3.2309617499       -2.6877118003        1.9948268177
C         -6.2214130572       -3.6676880984        1.3883496600
C         -5.9675173039       -3.4808484338        2.7326919342
C         -5.0211963825       -2.5527031598        3.1656572020
C         -4.3027884151       -1.7859473778        2.2693503596
C         -4.2923790279       -1.5132937433       -2.6321544687
C         -5.0041262515       -2.1782781465       -3.6112114104
C         -5.9511577461       -3.1493906655       -3.2879687494
C         -6.2121583702       -3.4827460380       -1.9736661549
H         -1.2859496259        4.1168782489       -1.6232672584
H         -1.3259607702        6.5694577705       -1.5474253633
H          1.2069230119        6.5031152920        1.8970855073
H          1.2115590833        4.0384182958        1.8447735912
H         -0.8197353129        8.6668789259       -0.7782519716
H          1.3913986066       -1.6848523778       -0.0360771944
H          4.4336910401        1.3154681467        0.1664501193
H          2.7444694934        3.1114597637        0.1338286358
H         -2.8001801395        3.0643398607        0.0303548910
H         -4.4589986180        1.2335680502       -0.0816313222
H         -1.3635965014       -1.7114862166       -0.0876505651
H          4.8149548328        0.3453209151       -2.0932322987
H          6.8610663962       -0.1680330364       -3.3693279178
H          8.2554676483       -2.0988033444       -2.8001951853
H          7.6302269841       -3.6026681288       -0.9400987605
H          6.3912932841       -4.8350426484        1.1880322212
H          4.8683736584       -5.4676539376        3.0300563319
H          2.8984424479       -4.1078125283        3.5463672127
H          2.3670111174       -2.0876372057        2.2371835049
H         -6.9554279011       -4.3873858668        1.0575865727
H         -6.5089949228       -4.0610028969        3.4652768516
H         -4.8480566700       -2.4318619331        4.2249383570
H         -3.5699087565       -1.0662114550        2.6028074816
H         -3.5574037031       -0.7620945625       -2.8805360336
H         -4.8242993974       -1.9430202096       -4.6499286200
H         -6.4867437127       -3.6472257157       -4.0827983858
H         -6.9458608502       -4.2360557234       -1.7279899997
