
                                 *****************
                                 * O   R   C   A *
                                 *****************

                                            #,                                       
                                            ###                                      
                                            ####                                     
                                            #####                                    
                                            ######                                   
                                           ########,                                 
                                     ,,################,,,,,                         
                               ,,#################################,,                 
                          ,,##########################################,,             
                       ,#########################################, ''#####,          
                    ,#############################################,,   '####,        
                  ,##################################################,,,,####,       
                ,###########''''           ''''###############################       
              ,#####''   ,,,,##########,,,,          '''####'''          '####       
            ,##' ,,,,###########################,,,                        '##       
           ' ,,###''''                  '''############,,,                           
         ,,##''                                '''############,,,,        ,,,,,,###''
      ,#''                                            '''#######################'''  
     '                                                          ''''####''''         
             ,#######,   #######,   ,#######,      ##                                
            ,#'     '#,  ##    ##  ,#'     '#,    #''#        ######   ,####,        
            ##       ##  ##   ,#'  ##            #'  '#       #        #'  '#        
            ##       ##  #######   ##           ,######,      #####,   #    #        
            '#,     ,#'  ##    ##  '#,     ,#' ,#      #,         ##   #,  ,#        
             '#######'   ##     ##  '#######'  #'      '#     #####' # '####'        



                  #######################################################
                  #                        -***-                        #
                  #          Department of theory and spectroscopy      #
                  #    Directorship and core code : Frank Neese         #
                  #        Max Planck Institute fuer Kohlenforschung    #
                  #                Kaiser Wilhelm Platz 1               #
                  #                 D-45470 Muelheim/Ruhr               #
                  #                      Germany                        #
                  #                                                     #
                  #                  All rights reserved                #
                  #                        -***-                        #
                  #######################################################


                         Program Version 5.0.3 -  RELEASE  -


 With contributions from (in alphabetic order):
   Daniel Aravena         : Magnetic Suceptibility
   Michael Atanasov       : Ab Initio Ligand Field Theory (pilot matlab implementation)
   Alexander A. Auer      : GIAO ZORA, VPT2 properties, NMR spectrum
   Ute Becker             : Parallelization
   Giovanni Bistoni       : ED, misc. LED, open-shell LED, HFLD
   Martin Brehm           : Molecular dynamics
   Dmytro Bykov           : SCF Hessian
   Vijay G. Chilkuri      : MRCI spin determinant printing, contributions to CSF-ICE
   Dipayan Datta          : RHF DLPNO-CCSD density
   Achintya Kumar Dutta   : EOM-CC, STEOM-CC
   Dmitry Ganyushin       : Spin-Orbit,Spin-Spin,Magnetic field MRCI
   Miquel Garcia          : C-PCM and meta-GGA Hessian, CC/C-PCM, Gaussian charge scheme
   Yang Guo               : DLPNO-NEVPT2, F12-NEVPT2, CIM, IAO-localization
   Andreas Hansen         : Spin unrestricted coupled pair/coupled cluster methods
   Benjamin Helmich-Paris : MC-RPA, TRAH-SCF, COSX integrals
   Lee Huntington         : MR-EOM, pCC
   Robert Izsak           : Overlap fitted RIJCOSX, COSX-SCS-MP3, EOM
   Marcus Kettner         : VPT2
   Christian Kollmar      : KDIIS, OOCD, Brueckner-CCSD(T), CCSD density, CASPT2, CASPT2-K
   Simone Kossmann        : Meta GGA functionals, TD-DFT gradient, OOMP2, MP2 Hessian
   Martin Krupicka        : Initial AUTO-CI
   Lucas Lang             : DCDCAS
   Marvin Lechner         : AUTO-CI (C++ implementation), FIC-MRCC
   Dagmar Lenk            : GEPOL surface, SMD
   Dimitrios Liakos       : Extrapolation schemes; Compound Job, initial MDCI parallelization
   Dimitrios Manganas     : Further ROCIS development; embedding schemes
   Dimitrios Pantazis     : SARC Basis sets
   Anastasios Papadopoulos: AUTO-CI, single reference methods and gradients
   Taras Petrenko         : DFT Hessian,TD-DFT gradient, ASA, ECA, R-Raman, ABS, FL, XAS/XES, NRVS
   Peter Pinski           : DLPNO-MP2, DLPNO-MP2 Gradient
   Christoph Reimann      : Effective Core Potentials
   Marius Retegan         : Local ZFS, SOC
   Christoph Riplinger    : Optimizer, TS searches, QM/MM, DLPNO-CCSD(T), (RO)-DLPNO pert. Triples
   Tobias Risthaus        : Range-separated hybrids, TD-DFT gradient, RPA, STAB
   Michael Roemelt        : Original ROCIS implementation
   Masaaki Saitow         : Open-shell DLPNO-CCSD energy and density
   Barbara Sandhoefer     : DKH picture change effects
   Avijit Sen             : IP-ROCIS
   Kantharuban Sivalingam : CASSCF convergence, NEVPT2, FIC-MRCI
   Bernardo de Souza      : ESD, SOC TD-DFT
   Georgi Stoychev        : AutoAux, RI-MP2 NMR, DLPNO-MP2 response
   Willem Van den Heuvel  : Paramagnetic NMR
   Boris Wezisla          : Elementary symmetry handling
   Frank Wennmohs         : Technical directorship


 We gratefully acknowledge several colleagues who have allowed us to
 interface, adapt or use parts of their codes:
   Stefan Grimme, W. Hujo, H. Kruse, P. Pracht,  : VdW corrections, initial TS optimization,
                  C. Bannwarth, S. Ehlert          DFT functionals, gCP, sTDA/sTD-DF
   Ed Valeev, F. Pavosevic, A. Kumar             : LibInt (2-el integral package), F12 methods
   Garnet Chan, S. Sharma, J. Yang, R. Olivares  : DMRG
   Ulf Ekstrom                                   : XCFun DFT Library
   Mihaly Kallay                                 : mrcc  (arbitrary order and MRCC methods)
   Jiri Pittner, Ondrej Demel                    : Mk-CCSD
   Frank Weinhold                                : gennbo (NPA and NBO analysis)
   Christopher J. Cramer and Donald G. Truhlar   : smd solvation model
   Lars Goerigk                                  : TD-DFT with DH, B97 family of functionals
   V. Asgeirsson, H. Jonsson                     : NEB implementation
   FAccTs GmbH                                   : IRC, NEB, NEB-TS, DLPNO-Multilevel, CI-OPT
                                                   MM, QMMM, 2- and 3-layer-ONIOM, Crystal-QMMM,
                                                   LR-CPCM, SF, NACMEs, symmetry and pop. for TD-DFT,
                                                   nearIR, NL-DFT gradient (VV10), updates on ESD,
                                                   ML-optimized integration grids
   S Lehtola, MJT Oliveira, MAL Marques          : LibXC Library
   Liviu Ungur et al                             : ANISO software


 Your calculation uses the libint2 library for the computation of 2-el integrals
 For citations please refer to: http://libint.valeyev.net

 Your ORCA version has been built with support for libXC version: 5.1.0
 For citations please refer to: https://tddft.org/programs/libxc/

 This ORCA versions uses:
   CBLAS   interface :  Fast vector & matrix operations
   LAPACKE interface :  Fast linear algebra routines
   SCALAPACK package :  Parallel linear algebra routines
   Shared memory     :  Shared parallel matrices
   BLAS/LAPACK       :  OpenBLAS 0.3.15  USE64BITINT DYNAMIC_ARCH NO_AFFINITY Prescott SINGLE_THREADED
        Core in use  :  Prescott
   Copyright (c) 2011-2014, The OpenBLAS Project


Your calculation utilizes the atom-pairwise dispersion correction
based on tight binding partial charges (D4)
Cite in your paper:
E.Caldeweyher, C.Bannwarth, S.Grimme, J.Chem.Phys., (2017), 147, 034112.
E.Caldeweyher, S.Ehlert, A.Hansen, H.Neugebauer, S.Grimme, J.Chem.Phys., (2018), in progress.
   

XCFun DFT library Copyright 2009-2010 Ulf Ekstrom and contributors.
See http://admol.org/xcfun for more information.
This is free software; see the source code for copying conditions.
There is ABSOLUTELY NO WARRANTY; not even for MERCHANTABILITY or FITNESS FOR A PARTICULAR PURPOSE.
For details see the documentation.
Scientific users of this library should cite U. Ekstrom, L. Visscher, R. Bast, A. J. Thorvaldsen and K. Ruud;
J.Chem.Theor.Comp. 2010, DOI: 10.1021/ct100117s
XCFun Version 0.99 

================================================================================

----- Orbital basis set information -----
Your calculation utilizes the basis: def2-TZVP
   F. Weigend and R. Ahlrichs, Phys. Chem. Chem. Phys. 7, 3297 (2005).

----- AuxJ basis set information -----
Your calculation utilizes the auxiliary basis: def2/J
   F. Weigend, Phys. Chem. Chem. Phys. 8, 1057 (2006).

================================================================================
                                        WARNINGS
                       Please study these warnings very carefully!
================================================================================


WARNING: Geometry Optimization
  ===> : Switching off AutoStart
         For restart on a previous wavefunction, please use MOREAD

INFO   : the flag for use of the SHARK integral package has been found!

================================================================================
                                       INPUT FILE
================================================================================
NAME = Combo62_Cf15tc_-0.21702_0.21702_ck-1.inp
|  1> ## Generated with Autochar
|  2> ! UKS OPT CAM-B3LYP D4 def2-TZVP  CHELPG
|  3> % pointcharges "pointcharges.pc"
|  4> %scf
|  5> 	SCFMode Direct
|  6> 	MaxIter 500
|  7> end
|  8> %pal
|  9> 	nprocs 36
| 10> end
| 11> %elprop
| 12>     Dipole true
| 13> end
| 14> %chelpg
| 15> 	GRID 0.3
| 16> 	RMAX 4
| 17> end
| 18> * xyz 1 2
| 19>  C -8.33702534 1.20602822 -0.03673110
| 20>  C -6.96029050 1.20412172 -0.02706716
| 21>  C -6.25779639 0.00367012 -0.02163038
| 22>  C -6.96225200 -1.19279768 -0.01814887
| 23>  C -8.34113512 -1.19134940 -0.01046444
| 24>  C -9.04780352 0.00857331 -0.02457037
| 25>  C -4.78222462 0.00245747 -0.02457037
| 26>  N -4.15577602 1.16631974 -0.02853815
| 27>  C -2.82314503 1.13732202 -0.03974674
| 28>  N -2.12442427 -0.00496104 -0.04780101
| 29>  C -2.83769661 -1.11323605 -0.03686170
| 30>  N -4.15862564 -1.17716027 -0.02450288
| 31>  C -2.09598862 -2.40162629 -0.03403580
| 32>  C -0.70861766 -2.40875230 -0.09704354
| 33>  C -0.01521498 -3.60335912 -0.08930815
| 34>  C -0.72229538 -4.78741054 -0.01453794
| 35>  C -2.10168267 -4.80397506 0.04861803
| 36>  C -2.78659376 -3.60455857 0.03646256
| 37>  C -2.09613616 2.39863971 -0.04105993
| 38>  C -2.77222020 3.61674265 -0.03059750
| 39>  C -2.09345824 4.81020039 -0.02438019
| 40>  C -0.69245434 4.83815776 -0.02321360
| 41>  C -0.01208445 3.61322579 -0.05454154
| 42>  C -0.70385037 2.42730555 -0.06207971
| 43>  C -10.52847250 0.03053440 -0.03899120
| 44>  S -11.39229960 1.19572985 -0.76429357
| 45>  S -11.24566320 -1.31401420 0.81473797
| 46>  N 0.00000000 6.03965300 -0.00000000
| 47>  C -0.66638914 7.27316663 -0.24503874
| 48>  C -0.44274531 7.91759812 -1.45486764
| 49>  S 0.68703925 7.20730741 -2.60687421
| 50>  C 1.85799029 6.58264364 -1.44708442
| 51>  C 1.40220646 6.07631236 -0.23682265
| 52>  C 3.21770132 6.61157653 -1.71749327
| 53>  C 4.11527935 6.13453448 -0.78094352
| 54>  C 3.66272638 5.66320717 0.44148025
| 55>  C 2.30849547 5.64839755 0.71838158
| 56>  C -1.49526890 7.85001999 0.70193988
| 57>  C -2.15280669 9.03169064 0.41537654
| 58>  C -1.95597822 9.65674812 -0.80584504
| 59>  C -1.08745369 9.11281902 -1.73326383
| 60>  N 0.00000000 -6.03965300 0.00000000
| 61>  C 0.25288769 -6.64264190 -1.21729901
| 62>  C 0.95602936 -7.85695950 -1.32129038
| 63>  S 1.57072754 -8.71440858 0.03003787
| 64>  C 1.09372185 -7.74604265 1.36169387
| 65>  C 0.38047311 -6.54025575 1.23045099
| 66>  C -0.19851463 -6.03927279 -2.40433922
| 67>  C 0.03929585 -6.62115948 -3.61871042
| 68>  C 0.73908695 -7.82746936 -3.71204389
| 69>  C 1.19077548 -8.43457413 -2.57317223
| 70>  C 1.45681411 -8.22052459 2.62609693
| 71>  C 1.12386557 -7.51888736 3.75136612
| 72>  C 0.41682434 -6.31920756 3.63104570
| 73>  C 0.05289095 -5.83828523 2.40372826
| 74>  H -8.88336926 2.13750130 -0.05130460
| 75>  H -6.41173710 2.13365963 -0.02604613
| 76>  H -6.41860068 -2.12491139 -0.02496931
| 77>  H -8.87272366 -2.13219437 -0.02287740
| 78>  H -0.18613523 -1.46555600 -0.15118556
| 79>  H 1.06534507 -3.61674161 -0.13922277
| 80>  H -2.63260762 -5.74464147 0.10716941
| 81>  H -3.86484837 -3.58300957 0.08361161
| 82>  H -3.85197401 3.61684556 -0.03175029
| 83>  H -2.65153884 5.73207813 -0.03284178
| 84>  H 1.06506936 3.59507833 -0.08666304
| 85>  H -0.16041725 1.49462008 -0.08877434
| 86>  H -12.51195653 -0.99281204 0.52092308
| 87>  H 3.56756709 7.02204268 -2.65499586
| 88>  H 5.17486433 6.15676723 -0.99562299
| 89>  H 4.36769559 5.31895600 1.18549002
| 90>  H 1.93897095 5.29152529 1.67006764
| 91>  H -1.62964167 7.35614915 1.65456492
| 92>  H -2.81094594 9.47252641 1.15116757
| 93>  H -2.46247850 10.58600386 -1.02741708
| 94>  H -0.89694038 9.61829124 -2.67028052
| 95>  H -0.73904526 -5.10898399 -2.35533174
| 96>  H -0.32090271 -6.13670734 -4.51525483
| 97>  H 0.92214960 -8.27894087 -4.67645087
| 98>  H 1.73382556 -9.36893207 -2.62641004
| 99>  H 2.00413057 -9.15099238 2.69997552
|100>  H 1.40615928 -7.89071788 4.72575172
|101>  H 0.15048007 -5.75986175 4.51668944
|102>  H -0.49236865 -4.91205629 2.33416732
|103>   
|104> *
|105> 
|106> 
|107>                          ****END OF INPUT****
================================================================================

                       *****************************
                       * Geometry Optimization Run *
                       *****************************

Geometry optimization settings:
Update method            Update   .... BFGS
Choice of coordinates    CoordSys .... Z-matrix Internals
Initial Hessian          InHess   .... Almoef's Model

Convergence Tolerances:
Energy Change            TolE     ....  5.0000e-06 Eh
Max. Gradient            TolMAXG  ....  3.0000e-04 Eh/bohr
RMS Gradient             TolRMSG  ....  1.0000e-04 Eh/bohr
Max. Displacement        TolMAXD  ....  4.0000e-03 bohr
RMS Displacement         TolRMSD  ....  2.0000e-03 bohr
Strict Convergence                ....  False
------------------------------------------------------------------------------
                        ORCA OPTIMIZATION COORDINATE SETUP
------------------------------------------------------------------------------

The optimization will be done in new redundant internal coordinates
Making redundant internal coordinates   ...  (new redundants) done
Evaluating the initial hessian          ...  (Almloef) done
Evaluating the coordinates              ...  done
Calculating the B-matrix                .... done
Calculating the G-matrix                .... done
Diagonalizing the G-matrix              .... done
Small eigenvalue found = 3.209e-04
Small eigenvalue found = 8.033e-04
Small eigenvalue found = 1.070e-03
Small eigenvalue found = 1.844e-03
Small eigenvalue found = 2.235e-03
Small eigenvalue found = 3.045e-03
Small eigenvalue found = 5.234e-03
Small eigenvalue found = 7.586e-03
Small eigenvalue found = 1.050e-02
Small eigenvalue found = 1.416e-02
Small eigenvalue found = 1.765e-02
Small eigenvalue found = 2.318e-02
Small eigenvalue found = 2.396e-02
The first mode is                       ....  227
The number of degrees of freedom        ....  246

    -----------------------------------------------------------------
                    Redundant Internal Coordinates


    -----------------------------------------------------------------
         Definition                    Initial Value    Approx d2E/dq
    -----------------------------------------------------------------
      1. B(C   1,C   0)                  1.3768         0.655913   
      2. B(C   2,C   1)                  1.3909         0.622727   
      3. B(C   3,C   2)                  1.3885         0.628355   
      4. B(C   4,C   3)                  1.3789         0.650788   
      5. B(C   5,C   4)                  1.3926         0.618809   
      6. B(C   5,C   0)                  1.3926         0.618925   
      7. B(C   6,C   2)                  1.4756         0.456256   
      8. B(N   7,C   6)                  1.3218         0.719052   
      9. B(C   8,N   7)                  1.3330         0.689963   
     10. B(N   9,C   8)                  1.3391         0.674752   
     11. B(C  10,N   9)                  1.3180         0.729005   
     12. B(N  11,C   6)                  1.3343         0.686643   
     13. B(N  11,C  10)                  1.3225         0.716994   
     14. B(C  12,C  10)                  1.4866         0.438088   
     15. B(C  13,C  12)                  1.3888         0.627512   
     16. B(C  14,C  13)                  1.3813         0.645120   
     17. B(C  15,C  14)                  1.3811         0.645481   
     18. B(C  16,C  15)                  1.3809         0.645961   
     19. B(C  17,C  16)                  1.3812         0.645207   
     20. B(C  17,C  12)                  1.3889         0.627402   
     21. B(C  18,C   8)                  1.4558         0.490566   
     22. B(C  19,C  18)                  1.3932         0.617521   
     23. B(C  20,C  19)                  1.3730         0.665088   
     24. B(C  21,C  20)                  1.4013         0.599428   
     25. B(C  22,C  21)                  1.4016         0.598840   
     26. B(C  23,C  22)                  1.3730         0.665172   
     27. B(C  23,C  18)                  1.3927         0.618540   
     28. B(C  24,C   5)                  1.4809         0.447415   
     29. B(S  25,C  24)                  1.6217         0.719165   
     30. B(S  26,C  24)                  1.7467         0.454343   
     31. B(N  27,C  21)                  1.3869         0.565908   
     32. B(C  28,N  27)                  1.4233         0.495232   
     33. B(C  29,C  28)                  1.3889         0.627367   
     34. B(S  30,C  29)                  1.7630         0.428021   
     35. B(C  31,S  30)                  1.7625         0.428736   
     36. B(C  32,C  31)                  1.3888         0.627492   
     37. B(C  32,N  27)                  1.4225         0.496552   
     38. B(C  33,C  31)                  1.3866         0.632555   
     39. B(C  34,C  33)                  1.3822         0.643075   
     40. B(C  35,C  34)                  1.3861         0.633812   
     41. B(C  36,C  35)                  1.3823         0.642653   
     42. B(C  36,C  32)                  1.3845         0.637510   
     43. B(C  37,C  28)                  1.3844         0.637777   
     44. B(C  38,C  37)                  1.3823         0.642665   
     45. B(C  39,C  38)                  1.3859         0.634193   
     46. B(C  40,C  39)                  1.3821         0.643110   
     47. B(C  40,C  29)                  1.3863         0.633449   
     48. B(N  41,C  15)                  1.4457         0.456056   
     49. B(C  42,N  41)                  1.3818         0.576716   
     50. B(C  43,C  42)                  1.4070         0.586863   
     51. B(S  44,C  43)                  1.7144         0.511623   
     52. B(C  45,S  44)                  1.7142         0.511944   
     53. B(C  46,C  45)                  1.4071         0.586801   
     54. B(C  46,N  41)                  1.3818         0.576710   
     55. B(C  47,C  42)                  1.4060         0.589095   
     56. B(C  48,C  47)                  1.3674         0.678828   
     57. B(C  49,C  48)                  1.3977         0.607341   
     58. B(C  50,C  49)                  1.3673         0.679025   
     59. B(C  50,C  43)                  1.3986         0.605469   
     60. B(C  51,C  45)                  1.3985         0.605682   
     61. B(C  52,C  51)                  1.3673         0.679251   
     62. B(C  53,C  52)                  1.3977         0.607330   
     63. B(C  54,C  46)                  1.4059         0.589272   
     64. B(C  54,C  53)                  1.3675         0.678647   
     65. B(H  55,C   0)                  1.0800         0.373609   
     66. B(H  56,C   1)                  1.0793         0.374496   
     67. B(H  57,C   3)                  1.0791         0.374823   
     68. B(H  58,C   4)                  1.0807         0.372604   
     69. B(H  59,C  13)                  1.0796         0.374123   
     70. B(H  60,C  14)                  1.0818         0.371119   
     71. B(H  61,C  16)                  1.0817         0.371194   
     72. B(H  62,C  17)                  1.0795         0.374261   
     73. B(H  63,C  19)                  1.0798         0.373912   
     74. B(H  64,C  20)                  1.0777         0.376779   
     75. B(H  65,C  22)                  1.0778         0.376626   
     76. B(H  66,C  23)                  1.0798         0.373871   
     77. B(H  67,S  26)                  1.3390         0.388940   
     78. B(H  68,C  33)                  1.0816         0.371423   
     79. B(H  69,C  34)                  1.0813         0.371737   
     80. B(H  70,C  35)                  1.0812         0.371901   
     81. B(H  71,C  36)                  1.0815         0.371541   
     82. B(H  72,C  37)                  1.0814         0.371638   
     83. B(H  73,C  38)                  1.0811         0.372008   
     84. B(H  74,C  39)                  1.0813         0.371831   
     85. B(H  75,C  40)                  1.0816         0.371424   
     86. B(H  76,C  47)                  1.0770         0.377661   
     87. B(H  77,C  48)                  1.0808         0.372415   
     88. B(H  78,C  49)                  1.0805         0.372928   
     89. B(H  79,C  50)                  1.0820         0.370816   
     90. B(H  80,C  51)                  1.0820         0.370802   
     91. B(H  81,C  52)                  1.0805         0.372956   
     92. B(H  82,C  53)                  1.0808         0.372451   
     93. B(H  83,C  54)                  1.0771         0.377639   
     94. A(C   1,C   0,H  55)          120.4750         0.358531   
     95. A(C   5,C   0,H  55)          118.9181         0.355013   
     96. A(C   1,C   0,C   5)          120.6067         0.438355   
     97. A(C   0,C   1,C   2)          120.4159         0.438839   
     98. A(C   0,C   1,H  56)          120.4666         0.358676   
     99. A(C   2,C   1,H  56)          119.1173         0.355525   
    100. A(C   3,C   2,C   6)          120.4418         0.411904   
    101. A(C   1,C   2,C   3)          119.1758         0.435457   
    102. A(C   1,C   2,C   6)          120.3821         0.411247   
    103. A(C   2,C   3,H  57)          119.2568         0.356121   
    104. A(C   4,C   3,H  57)          120.3140         0.358251   
    105. A(C   2,C   3,C   4)          120.4288         0.438931   
    106. A(C   3,C   4,H  58)          119.3999         0.357889   
    107. A(C   5,C   4,H  58)          120.0264         0.354840   
    108. A(C   3,C   4,C   5)          120.5492         0.437720   
    109. A(C   0,C   5,C   4)          118.8157         0.433780   
    110. A(C   4,C   5,C  24)          121.3479         0.409365   
    111. A(C   0,C   5,C  24)          119.8341         0.409379   
    112. A(N   7,C   6,N  11)          123.8455         0.448195   
    113. A(C   2,C   6,N   7)          118.2445         0.419171   
    114. A(C   2,C   6,N  11)          117.9100         0.415742   
    115. A(C   6,N   7,C   8)          117.0453         0.448587   
    116. A(N   7,C   8,N   9)          122.7016         0.443449   
    117. A(N   7,C   8,C  18)          118.7115         0.421511   
    118. A(N   9,C   8,C  18)          118.5868         0.419838   
    119. A(C   8,N   9,C  10)          115.7769         0.447892   
    120. A(N  11,C  10,C  12)          117.1554         0.415936   
    121. A(N   9,C  10,N  11)          125.5377         0.452859   
    122. A(N   9,C  10,C  12)          117.3067         0.417168   
    123. A(C   6,N  11,C  10)          115.0912         0.447962   
    124. A(C  10,C  12,C  17)          120.1747         0.408838   
    125. A(C  13,C  12,C  17)          119.6423         0.435939   
    126. A(C  10,C  12,C  13)          120.1826         0.408851   
    127. A(C  14,C  13,H  59)          120.8581         0.357604   
    128. A(C  12,C  13,H  59)          118.7669         0.355927   
    129. A(C  12,C  13,C  14)          120.3750         0.438132   
    130. A(C  13,C  14,C  15)          118.9956         0.440370   
    131. A(C  15,C  14,H  60)          120.2162         0.357149   
    132. A(C  13,C  14,H  60)          120.7881         0.357115   
    133. A(C  14,C  15,C  16)          121.6106         0.440474   
    134. A(C  16,C  15,N  41)          119.2230         0.411224   
    135. A(C  14,C  15,N  41)          119.1664         0.411170   
    136. A(C  15,C  16,C  17)          118.9791         0.440440   
    137. A(C  15,C  16,H  61)          120.2095         0.357206   
    138. A(C  17,C  16,H  61)          120.8114         0.357135   
    139. A(C  12,C  17,H  62)          118.7898         0.355939   
    140. A(C  12,C  17,C  16)          120.3969         0.438129   
    141. A(C  16,C  17,H  62)          120.8132         0.357635   
    142. A(C   8,C  18,C  19)          121.0083         0.415957   
    143. A(C  19,C  18,C  23)          117.8551         0.433569   
    144. A(C   8,C  18,C  23)          121.1351         0.416079   
    145. A(C  20,C  19,H  63)          119.6229         0.359430   
    146. A(C  18,C  19,H  63)          119.0356         0.354926   
    147. A(C  18,C  19,C  20)          121.3409         0.439275   
    148. A(C  19,C  20,H  64)          119.1783         0.359898   
    149. A(C  19,C  20,C  21)          120.7715         0.436925   
    150. A(C  21,C  20,H  64)          120.0458         0.353599   
    151. A(C  22,C  21,N  27)          121.0063         0.421604   
    152. A(C  20,C  21,N  27)          121.0953         0.421678   
    153. A(C  20,C  21,C  22)          117.8973         0.428760   
    154. A(C  23,C  22,H  65)          119.2650         0.359880   
    155. A(C  21,C  22,H  65)          120.0356         0.353516   
    156. A(C  21,C  22,C  23)          120.6942         0.436858   
    157. A(C  18,C  23,H  66)          119.0590         0.355018   
    158. A(C  22,C  23,H  66)          119.5155         0.359431   
    159. A(C  18,C  23,C  22)          121.4251         0.439415   
    160. A(S  25,C  24,S  26)          123.5701         0.469945   
    161. A(C   5,C  24,S  26)          113.2257         0.408701   
    162. A(C   5,C  24,S  25)          123.2019         0.443720   
    163. A(C  24,S  26,H  67)           95.5317         0.382970   
    164. A(C  28,N  27,C  32)          114.2378         0.395770   
    165. A(C  21,N  27,C  32)          120.7750         0.405175   
    166. A(C  21,N  27,C  28)          120.9407         0.404984   
    167. A(N  27,C  28,C  29)          118.4708         0.415128   
    168. A(C  29,C  28,C  37)          119.9287         0.437211   
    169. A(N  27,C  28,C  37)          121.5803         0.416345   
    170. A(C  28,C  29,S  30)          119.0424         0.429491   
    171. A(C  28,C  29,C  40)          120.0066         0.436674   
    172. A(S  30,C  29,C  40)          120.9428         0.430235   
    173. A(C  29,S  30,C  31)           97.9643         0.423311   
    174. A(C  32,C  31,C  33)          119.9570         0.436579   
    175. A(S  30,C  31,C  33)          121.0473         0.430255   
    176. A(S  30,C  31,C  32)          118.9868         0.429635   
    177. A(C  31,C  32,C  36)          119.9386         0.437193   
    178. A(N  27,C  32,C  36)          121.4942         0.416511   
    179. A(N  27,C  32,C  31)          118.5521         0.415339   
    180. A(C  31,C  33,H  68)          119.6137         0.355973   
    181. A(C  31,C  33,C  34)          119.8317         0.438514   
    182. A(C  34,C  33,H  68)          120.5480         0.356972   
    183. A(C  35,C  34,H  69)          120.1326         0.356144   
    184. A(C  33,C  34,H  69)          119.6512         0.357023   
    185. A(C  33,C  34,C  35)          120.1937         0.438671   
    186. A(C  36,C  35,H  70)          119.8352         0.357010   
    187. A(C  34,C  35,H  70)          120.1490         0.356171   
    188. A(C  34,C  35,C  36)          120.0107         0.438619   
    189. A(C  35,C  36,H  71)          120.9671         0.356951   
    190. A(C  32,C  36,H  71)          119.0414         0.356464   
    191. A(C  32,C  36,C  35)          119.9848         0.439080   
    192. A(C  28,C  37,H  72)          119.1221         0.356506   
    193. A(C  28,C  37,C  38)          119.9466         0.439115   
    194. A(C  38,C  37,H  72)          120.9245         0.356968   
    195. A(C  37,C  38,C  39)          120.0428         0.438668   
    196. A(C  39,C  38,H  73)          120.1484         0.356225   
    197. A(C  37,C  38,H  73)          119.8044         0.357029   
    198. A(C  38,C  39,C  40)          120.1995         0.438723   
    199. A(C  40,C  39,H  74)          119.6744         0.357042   
    200. A(C  38,C  39,H  74)          120.1080         0.356196   
    201. A(C  29,C  40,C  39)          119.7887         0.438630   
    202. A(C  39,C  40,H  75)          120.5366         0.356975   
    203. A(C  29,C  40,H  75)          119.6705         0.356059   
    204. A(C  42,N  41,C  46)          125.1681         0.417471   
    205. A(C  15,N  41,C  46)          117.4082         0.400475   
    206. A(C  15,N  41,C  42)          117.4236         0.400476   
    207. A(C  43,C  42,C  47)          117.9301         0.425881   
    208. A(N  41,C  42,C  47)          119.8499         0.421793   
    209. A(N  41,C  42,C  43)          122.2200         0.421507   
    210. A(S  44,C  43,C  50)          116.0281         0.440683   
    211. A(C  42,C  43,C  50)          120.4291         0.427978   
    212. A(C  42,C  43,S  44)          123.5428         0.438207   
    213. A(C  43,S  44,C  45)          103.2976         0.451347   
    214. A(C  46,C  45,C  51)          120.4439         0.427997   
    215. A(S  44,C  45,C  51)          116.0049         0.440761   
    216. A(S  44,C  45,C  46)          123.5512         0.438248   
    217. A(C  45,C  46,C  54)          117.9132         0.425896   
    218. A(N  41,C  46,C  54)          119.8725         0.421815   
    219. A(N  41,C  46,C  45)          122.2142         0.421498   
    220. A(C  42,C  47,C  48)          120.7516         0.437166   
    221. A(C  48,C  47,H  76)          119.6859         0.361298   
    222. A(C  42,C  47,H  76)          119.5625         0.352699   
    223. A(C  47,C  48,C  49)          120.9064         0.439578   
    224. A(C  49,C  48,H  77)          119.8875         0.353686   
    225. A(C  47,C  48,H  77)          119.2062         0.360438   
    226. A(C  48,C  49,C  50)          119.5362         0.439601   
    227. A(C  50,C  49,H  78)          120.1286         0.360540   
    228. A(C  48,C  49,H  78)          120.3351         0.353769   
    229. A(C  43,C  50,C  49)          120.4465         0.439356   
    230. A(C  49,C  50,H  79)          120.5456         0.360191   
    231. A(C  43,C  50,H  79)          119.0079         0.353244   
    232. A(C  45,C  51,C  52)          120.4497         0.439411   
    233. A(C  52,C  51,H  80)          120.5490         0.360209   
    234. A(C  45,C  51,H  80)          119.0013         0.353263   
    235. A(C  51,C  52,C  53)          119.5247         0.439626   
    236. A(C  53,C  52,H  81)          120.3435         0.353772   
    237. A(C  51,C  52,H  81)          120.1318         0.360565   
    238. A(C  52,C  53,C  54)          120.9130         0.439556   
    239. A(C  54,C  53,H  82)          119.1986         0.360427   
    240. A(C  52,C  53,H  82)          119.8884         0.353691   
    241. A(C  46,C  54,C  53)          120.7554         0.437169   
    242. A(C  53,C  54,H  83)          119.6781         0.361278   
    243. A(C  46,C  54,H  83)          119.5664         0.352713   
    244. D(H  56,C   1,C   0,C   5)   -179.3544         0.029994   
    245. D(H  56,C   1,C   0,H  55)      0.4868         0.029994   
    246. D(C   2,C   1,C   0,H  55)   -179.3631         0.029994   
    247. D(C   2,C   1,C   0,C   5)      0.7957         0.029994   
    248. D(C   3,C   2,C   1,H  56)    179.7737         0.026848   
    249. D(C   6,C   2,C   1,C   0)    179.4015         0.026848   
    250. D(C   3,C   2,C   1,C   0)     -0.3744         0.026848   
    251. D(C   6,C   2,C   1,H  56)     -0.4504         0.026848   
    252. D(C   4,C   3,C   2,C   1)     -0.4622         0.027367   
    253. D(C   4,C   3,C   2,C   6)    179.7621         0.027367   
    254. D(H  57,C   3,C   2,C   1)    179.3281         0.027367   
    255. D(H  57,C   3,C   2,C   6)     -0.4476         0.027367   
    256. D(H  58,C   4,C   3,C   2)    179.0856         0.029494   
    257. D(C   5,C   4,C   3,H  57)   -178.9048         0.029494   
    258. D(C   5,C   4,C   3,C   2)      0.8833         0.029494   
    259. D(H  58,C   4,C   3,H  57)     -0.7025         0.029494   
    260. D(C   4,C   5,C   0,C   1)     -0.3762         0.026502   
    261. D(C   0,C   5,C   4,H  58)   -178.6525         0.026491   
    262. D(C  24,C   5,C   4,C   3)    178.9869         0.026491   
    263. D(C  24,C   5,C   4,H  58)      0.7959         0.026491   
    264. D(C  24,C   5,C   0,H  55)      0.3233         0.026502   
    265. D(C   0,C   5,C   4,C   3)     -0.4615         0.026491   
    266. D(C   4,C   5,C   0,H  55)    179.7802         0.026502   
    267. D(C  24,C   5,C   0,C   1)   -179.8331         0.026502   
    268. D(N  11,C   6,C   2,C   1)   -179.7372         0.014184   
    269. D(N   7,C   6,C   2,C   3)    179.9656         0.014184   
    270. D(N  11,C   6,C   2,C   3)      0.0358         0.014184   
    271. D(N   7,C   6,C   2,C   1)      0.1926         0.014184   
    272. D(C   8,N   7,C   6,N  11)      0.3413         0.038924   
    273. D(C   8,N   7,C   6,C   2)   -179.5841         0.038924   
    274. D(N   9,C   8,N   7,C   6)      0.0474         0.035552   
    275. D(C  18,C   8,N   7,C   6)   -179.8479         0.035552   
    276. D(C  10,N   9,C   8,C  18)    179.5521         0.033864   
    277. D(C  10,N   9,C   8,N   7)     -0.3433         0.033864   
    278. D(C  12,C  10,N   9,C   8)   -179.5106         0.040122   
    279. D(N  11,C  10,N   9,C   8)      0.2941         0.040122   
    280. D(C   6,N  11,C  10,C  12)    179.8569         0.038679   
    281. D(C  10,N  11,C   6,N   7)     -0.3874         0.035179   
    282. D(C  10,N  11,C   6,C   2)    179.5381         0.035179   
    283. D(C   6,N  11,C  10,N   9)      0.0520         0.038679   
    284. D(C  17,C  12,C  10,N  11)     -2.6450         0.013098   
    285. D(C  13,C  12,C  10,N  11)    177.5857         0.013098   
    286. D(C  13,C  12,C  10,N   9)     -2.5929         0.013098   
    287. D(C  17,C  12,C  10,N   9)    177.1763         0.013098   
    288. D(H  59,C  13,C  12,C  17)   -179.9838         0.027289   
    289. D(H  59,C  13,C  12,C  10)     -0.2134         0.027289   
    290. D(C  14,C  13,C  12,C  17)     -0.0285         0.027289   
    291. D(C  14,C  13,C  12,C  10)    179.7420         0.027289   
    292. D(C  15,C  14,C  13,H  59)    179.7867         0.028947   
    293. D(H  60,C  14,C  13,H  59)     -0.1132         0.028947   
    294. D(C  15,C  14,C  13,C  12)     -0.1677         0.028947   
    295. D(H  60,C  14,C  13,C  12)    179.9324         0.028947   
    296. D(N  41,C  15,C  14,H  60)      0.1818         0.028982   
    297. D(N  41,C  15,C  14,C  13)   -179.7186         0.028982   
    298. D(C  16,C  15,C  14,C  13)      0.1847         0.028982   
    299. D(C  16,C  15,C  14,H  60)   -179.9149         0.028982   
    300. D(H  61,C  16,C  15,N  41)     -0.0632         0.029028   
    301. D(H  61,C  16,C  15,C  14)   -179.9665         0.029028   
    302. D(C  17,C  16,C  15,N  41)    179.9014         0.029028   
    303. D(C  17,C  16,C  15,C  14)     -0.0018         0.029028   
    304. D(C  16,C  17,C  12,C  13)      0.2146         0.027278   
    305. D(C  16,C  17,C  12,C  10)   -179.5558         0.027278   
    306. D(H  62,C  17,C  12,C  10)      0.3082         0.027278   
    307. D(H  62,C  17,C  16,H  61)     -0.0958         0.028955   
    308. D(H  62,C  17,C  16,C  15)    179.9398         0.028955   
    309. D(C  12,C  17,C  16,H  61)    179.7654         0.028955   
    310. D(C  12,C  17,C  16,C  15)     -0.1990         0.028955   
    311. D(H  62,C  17,C  12,C  13)   -179.9213         0.027278   
    312. D(C  23,C  18,C   8,N   9)      0.5584         0.016387   
    313. D(C  23,C  18,C   8,N   7)   -179.5419         0.016387   
    314. D(C  19,C  18,C   8,N   9)   -179.8875         0.016387   
    315. D(C  19,C  18,C   8,N   7)      0.0121         0.016387   
    316. D(H  63,C  19,C  18,C  23)    178.9405         0.026374   
    317. D(H  63,C  19,C  18,C   8)     -0.6278         0.026374   
    318. D(C  20,C  19,C  18,C  23)     -0.7925         0.026374   
    319. D(C  20,C  19,C  18,C   8)    179.6393         0.026374   
    320. D(H  64,C  20,C  19,H  63)     -0.7373         0.030902   
    321. D(H  64,C  20,C  19,C  18)    178.9941         0.030902   
    322. D(C  21,C  20,C  19,H  63)   -179.9782         0.030902   
    323. D(C  21,C  20,C  19,C  18)     -0.2468         0.030902   
    324. D(N  27,C  21,C  20,H  64)      1.5833         0.024768   
    325. D(C  22,C  21,C  20,H  64)   -178.0334         0.024768   
    326. D(C  22,C  21,C  20,C  19)      1.2010         0.024768   
    327. D(N  27,C  21,C  20,C  19)   -179.1824         0.024768   
    328. D(H  65,C  22,C  21,N  27)     -1.5816         0.024717   
    329. D(H  65,C  22,C  21,C  20)    178.0354         0.024717   
    330. D(C  23,C  22,C  21,N  27)    179.2563         0.024717   
    331. D(C  23,C  22,C  21,C  20)     -1.1267         0.024717   
    332. D(H  66,C  23,C  22,H  65)      0.6844         0.030910   
    333. D(C  18,C  23,C  22,H  65)   -179.0714         0.030910   
    334. D(C  18,C  23,C  22,C  21)      0.0971         0.030910   
    335. D(H  66,C  23,C  18,C  19)   -178.8895         0.026467   
    336. D(H  66,C  23,C  22,C  21)    179.8529         0.030910   
    337. D(H  66,C  23,C  18,C   8)      0.6781         0.026467   
    338. D(C  22,C  23,C  18,C  19)      0.8675         0.026467   
    339. D(C  22,C  23,C  18,C   8)   -179.5649         0.026467   
    340. D(S  26,C  24,C   5,C   4)     32.0767         0.013649   
    341. D(S  26,C  24,C   5,C   0)   -148.4804         0.013649   
    342. D(S  25,C  24,C   5,C   4)   -148.4586         0.013649   
    343. D(S  25,C  24,C   5,C   0)     30.9842         0.013649   
    344. D(H  67,S  26,C  24,S  25)      3.7838         0.004532   
    345. D(H  67,S  26,C  24,C   5)   -176.7538         0.004532   
    346. D(C  32,N  27,C  21,C  22)     10.8389         0.025608   
    347. D(C  32,N  27,C  21,C  20)   -168.7658         0.025608   
    348. D(C  28,N  27,C  21,C  22)    166.9131         0.025608   
    349. D(C  28,N  27,C  21,C  20)    -12.6916         0.025608   
    350. D(C  37,C  28,N  27,C  32)   -128.0064         0.019378   
    351. D(C  37,C  28,N  27,C  21)     74.4592         0.019378   
    352. D(C  29,C  28,N  27,C  32)     50.3575         0.019378   
    353. D(C  29,C  28,N  27,C  21)   -107.1769         0.019378   
    354. D(C  40,C  29,C  28,C  37)     -2.3655         0.027275   
    355. D(C  40,C  29,C  28,N  27)    179.2428         0.027275   
    356. D(S  30,C  29,C  28,C  37)    176.6046         0.027275   
    357. D(S  30,C  29,C  28,N  27)     -1.7871         0.027275   
    358. D(C  31,S  30,C  29,C  40)    142.6754         0.004177   
    359. D(C  31,S  30,C  29,C  28)    -36.2848         0.004177   
    360. D(C  33,C  31,S  30,C  29)   -142.8136         0.004186   
    361. D(C  32,C  31,S  30,C  29)     36.0947         0.004186   
    362. D(C  36,C  32,C  31,C  33)      2.4605         0.027287   
    363. D(C  36,C  32,C  31,S  30)   -176.4601         0.027287   
    364. D(N  27,C  32,C  31,C  33)   -178.9344         0.027287   
    365. D(N  27,C  32,C  31,S  30)      2.1451         0.027287   
    366. D(C  36,C  32,N  27,C  28)    127.9979         0.019484   
    367. D(C  36,C  32,N  27,C  21)    -74.4268         0.019484   
    368. D(C  31,C  32,N  27,C  28)    -50.5845         0.019484   
    369. D(C  31,C  32,N  27,C  21)    106.9907         0.019484   
    370. D(C  34,C  33,C  31,S  30)    178.9647         0.027757   
    371. D(H  68,C  33,C  31,C  32)   -178.9973         0.027757   
    372. D(H  68,C  33,C  31,S  30)     -0.0995         0.027757   
    373. D(C  34,C  33,C  31,C  32)      0.0669         0.027757   
    374. D(H  69,C  34,C  33,H  68)     -1.0600         0.028751   
    375. D(H  69,C  34,C  33,C  31)    179.8846         0.028751   
    376. D(C  35,C  34,C  33,H  68)    177.2158         0.028751   
    377. D(C  35,C  34,C  33,C  31)     -1.8396         0.028751   
    378. D(H  70,C  35,C  34,H  69)      0.1798         0.027875   
    379. D(H  70,C  35,C  34,C  33)   -178.0877         0.027875   
    380. D(C  36,C  35,C  34,H  69)    179.3525         0.027875   
    381. D(C  36,C  35,C  34,C  33)      1.0850         0.027875   
    382. D(H  71,C  36,C  35,H  70)     -0.3231         0.028711   
    383. D(H  71,C  36,C  35,C  34)   -179.4984         0.028711   
    384. D(C  32,C  36,C  35,H  70)   -179.3733         0.028711   
    385. D(C  32,C  36,C  35,C  34)      1.4515         0.028711   
    386. D(H  71,C  36,C  32,C  31)    177.7130         0.028223   
    387. D(H  71,C  36,C  32,N  27)     -0.8501         0.028223   
    388. D(C  35,C  36,C  32,C  31)     -3.2186         0.028223   
    389. D(C  35,C  36,C  32,N  27)    178.2183         0.028223   
    390. D(H  72,C  37,C  28,C  29)   -177.6224         0.028248   
    391. D(H  72,C  37,C  28,N  27)      0.7181         0.028248   
    392. D(C  38,C  37,C  28,C  29)      3.3169         0.028248   
    393. D(C  38,C  37,C  28,N  27)   -178.3427         0.028248   
    394. D(H  73,C  38,C  37,H  72)      0.0554         0.028712   
    395. D(H  73,C  38,C  37,C  28)    179.0990         0.028712   
    396. D(C  39,C  38,C  37,H  72)    179.2991         0.028712   
    397. D(C  39,C  38,C  37,C  28)     -1.6573         0.028712   
    398. D(H  74,C  39,C  38,H  73)     -0.1751         0.027911   
    399. D(H  74,C  39,C  38,C  37)   -179.4162         0.027911   
    400. D(C  40,C  39,C  38,H  73)    178.2734         0.027911   
    401. D(C  40,C  39,C  38,C  37)     -0.9676         0.027911   
    402. D(H  75,C  40,C  39,H  74)      1.1255         0.028755   
    403. D(H  75,C  40,C  39,C  38)   -177.3298         0.028755   
    404. D(C  29,C  40,C  39,H  74)   -179.6279         0.028755   
    405. D(C  29,C  40,C  39,C  38)      1.9168         0.028755   
    406. D(H  75,C  40,C  29,S  30)      0.0527         0.027841   
    407. D(H  75,C  40,C  29,C  28)    179.0028         0.027841   
    408. D(C  39,C  40,C  29,S  30)   -179.2005         0.027841   
    409. D(C  39,C  40,C  29,C  28)     -0.2503         0.027841   
    410. D(C  46,N  41,C  15,C  16)    -90.3869         0.016383   
    411. D(C  46,N  41,C  15,C  14)     89.5188         0.016383   
    412. D(C  42,N  41,C  15,C  16)     89.4831         0.016383   
    413. D(C  42,N  41,C  15,C  14)    -90.6112         0.016383   
    414. D(C  47,C  42,N  41,C  46)    179.3757         0.026657   
    415. D(C  47,C  42,N  41,C  15)     -0.4831         0.026657   
    416. D(C  43,C  42,N  41,C  46)     -0.6354         0.026657   
    417. D(C  43,C  42,N  41,C  15)    179.5057         0.026657   
    418. D(C  50,C  43,C  42,C  47)     -0.0278         0.023689   
    419. D(C  50,C  43,C  42,N  41)    179.9831         0.023689   
    420. D(S  44,C  43,C  42,C  47)    179.9707         0.023689   
    421. D(S  44,C  43,C  42,N  41)     -0.0184         0.023689   
    422. D(C  45,S  44,C  43,C  50)   -179.4140         0.005389   
    423. D(C  45,S  44,C  43,C  42)      0.5874         0.005389   
    424. D(C  51,C  45,S  44,C  43)    179.3623         0.005394   
    425. D(C  46,C  45,S  44,C  43)     -0.6996         0.005394   
    426. D(C  54,C  46,C  45,C  51)      0.1078         0.023683   
    427. D(C  54,C  46,C  45,S  44)   -179.8276         0.023683   
    428. D(N  41,C  46,C  45,C  51)   -179.8128         0.023683   
    429. D(N  41,C  46,C  45,S  44)      0.2517         0.023683   
    430. D(C  54,C  46,N  41,C  42)   -179.4048         0.026657   
    431. D(C  54,C  46,N  41,C  15)      0.4541         0.026657   
    432. D(C  45,C  46,N  41,C  42)      0.5144         0.026657   
    433. D(C  45,C  46,N  41,C  15)   -179.6268         0.026657   
    434. D(H  76,C  47,C  42,C  43)   -179.9647         0.023878   
    435. D(H  76,C  47,C  42,N  41)      0.0247         0.023878   
    436. D(C  48,C  47,C  42,C  43)      0.1347         0.023878   
    437. D(C  48,C  47,C  42,N  41)   -179.8760         0.023878   
    438. D(H  77,C  48,C  47,H  76)     -0.0312         0.032293   
    439. D(H  77,C  48,C  47,C  42)    179.8694         0.032293   
    440. D(C  49,C  48,C  47,H  76)    179.9422         0.032293   
    441. D(C  49,C  48,C  47,C  42)     -0.1573         0.032293   
    442. D(H  78,C  49,C  48,H  77)     -0.0033         0.025463   
    443. D(H  78,C  49,C  48,C  47)   -179.9764         0.025463   
    444. D(C  50,C  49,C  48,H  77)   -179.9584         0.025463   
    445. D(C  50,C  49,C  48,C  47)      0.0685         0.025463   
    446. D(H  79,C  50,C  49,H  78)      0.0142         0.032313   
    447. D(H  79,C  50,C  49,C  48)    179.9694         0.032313   
    448. D(C  43,C  50,C  49,H  78)   -179.9160         0.032313   
    449. D(C  43,C  50,C  49,C  48)      0.0392         0.032313   
    450. D(H  79,C  50,C  43,S  44)      0.0120         0.025297   
    451. D(H  79,C  50,C  43,C  42)   -179.9894         0.025297   
    452. D(C  49,C  50,C  43,S  44)    179.9432         0.025297   
    453. D(C  49,C  50,C  43,C  42)     -0.0581         0.025297   
    454. D(H  80,C  51,C  45,C  46)    179.9367         0.025316   
    455. D(H  80,C  51,C  45,S  44)     -0.1232         0.025316   
    456. D(C  52,C  51,C  45,C  46)     -0.0174         0.025316   
    457. D(C  52,C  51,C  45,S  44)    179.9228         0.025316   
    458. D(H  81,C  52,C  51,H  80)     -0.0128         0.032336   
    459. D(H  81,C  52,C  51,C  45)    179.9406         0.032336   
    460. D(C  53,C  52,C  51,H  80)    179.9869         0.032336   
    461. D(C  53,C  52,C  51,C  45)     -0.0598         0.032336   
    462. D(H  82,C  53,C  52,H  81)     -0.0082         0.025462   
    463. D(H  82,C  53,C  52,C  51)    179.9922         0.025462   
    464. D(C  54,C  53,C  52,H  81)   -179.9563         0.025462   
    465. D(C  54,C  53,C  52,C  51)      0.0441         0.025462   
    466. D(H  83,C  54,C  53,H  82)      0.0002         0.032274   
    467. D(H  83,C  54,C  53,C  52)    179.9487         0.032274   
    468. D(C  46,C  54,C  53,H  82)   -179.8985         0.032274   
    469. D(C  46,C  54,C  53,C  52)      0.0500         0.032274   
    470. D(H  83,C  54,C  46,C  45)    179.9772         0.023893   
    471. D(H  83,C  54,C  46,N  41)     -0.1002         0.023893   
    472. D(C  53,C  54,C  46,C  45)     -0.1240         0.023893   
    473. D(C  53,C  54,C  46,N  41)    179.7986         0.023893   
    -----------------------------------------------------------------

Number of atoms                         .... 84
Number of degrees of freedom            .... 473

         *************************************************************
         *                GEOMETRY OPTIMIZATION CYCLE   1            *
         *************************************************************
---------------------------------
CARTESIAN COORDINATES (ANGSTROEM)
---------------------------------
  C     -8.337025    1.206028   -0.036731
  C     -6.960290    1.204122   -0.027067
  C     -6.257796    0.003670   -0.021630
  C     -6.962252   -1.192798   -0.018149
  C     -8.341135   -1.191349   -0.010464
  C     -9.047804    0.008573   -0.024570
  C     -4.782225    0.002457   -0.024570
  N     -4.155776    1.166320   -0.028538
  C     -2.823145    1.137322   -0.039747
  N     -2.124424   -0.004961   -0.047801
  C     -2.837697   -1.113236   -0.036862
  N     -4.158626   -1.177160   -0.024503
  C     -2.095989   -2.401626   -0.034036
  C     -0.708618   -2.408752   -0.097044
  C     -0.015215   -3.603359   -0.089308
  C     -0.722295   -4.787411   -0.014538
  C     -2.101683   -4.803975    0.048618
  C     -2.786594   -3.604559    0.036463
  C     -2.096136    2.398640   -0.041060
  C     -2.772220    3.616743   -0.030597
  C     -2.093458    4.810200   -0.024380
  C     -0.692454    4.838158   -0.023214
  C     -0.012084    3.613226   -0.054542
  C     -0.703850    2.427306   -0.062080
  C    -10.528472    0.030534   -0.038991
  S    -11.392300    1.195730   -0.764294
  S    -11.245663   -1.314014    0.814738
  N      0.000000    6.039653   -0.000000
  C     -0.666389    7.273167   -0.245039
  C     -0.442745    7.917598   -1.454868
  S      0.687039    7.207307   -2.606874
  C      1.857990    6.582644   -1.447084
  C      1.402206    6.076312   -0.236823
  C      3.217701    6.611577   -1.717493
  C      4.115279    6.134534   -0.780944
  C      3.662726    5.663207    0.441480
  C      2.308495    5.648398    0.718382
  C     -1.495269    7.850020    0.701940
  C     -2.152807    9.031691    0.415377
  C     -1.955978    9.656748   -0.805845
  C     -1.087454    9.112819   -1.733264
  N      0.000000   -6.039653    0.000000
  C      0.252888   -6.642642   -1.217299
  C      0.956029   -7.856959   -1.321290
  S      1.570728   -8.714409    0.030038
  C      1.093722   -7.746043    1.361694
  C      0.380473   -6.540256    1.230451
  C     -0.198515   -6.039273   -2.404339
  C      0.039296   -6.621159   -3.618710
  C      0.739087   -7.827469   -3.712044
  C      1.190775   -8.434574   -2.573172
  C      1.456814   -8.220525    2.626097
  C      1.123866   -7.518887    3.751366
  C      0.416824   -6.319208    3.631046
  C      0.052891   -5.838285    2.403728
  H     -8.883369    2.137501   -0.051305
  H     -6.411737    2.133660   -0.026046
  H     -6.418601   -2.124911   -0.024969
  H     -8.872724   -2.132194   -0.022877
  H     -0.186135   -1.465556   -0.151186
  H      1.065345   -3.616742   -0.139223
  H     -2.632608   -5.744641    0.107169
  H     -3.864848   -3.583010    0.083612
  H     -3.851974    3.616846   -0.031750
  H     -2.651539    5.732078   -0.032842
  H      1.065069    3.595078   -0.086663
  H     -0.160417    1.494620   -0.088774
  H    -12.511957   -0.992812    0.520923
  H      3.567567    7.022043   -2.654996
  H      5.174864    6.156767   -0.995623
  H      4.367696    5.318956    1.185490
  H      1.938971    5.291525    1.670068
  H     -1.629642    7.356149    1.654565
  H     -2.810946    9.472526    1.151168
  H     -2.462479   10.586004   -1.027417
  H     -0.896940    9.618291   -2.670281
  H     -0.739045   -5.108984   -2.355332
  H     -0.320903   -6.136707   -4.515255
  H      0.922150   -8.278941   -4.676451
  H      1.733826   -9.368932   -2.626410
  H      2.004131   -9.150992    2.699976
  H      1.406159   -7.890718    4.725752
  H      0.150480   -5.759862    4.516689
  H     -0.492369   -4.912056    2.334167

----------------------------
CARTESIAN COORDINATES (A.U.)
----------------------------
  NO LB      ZA    FRAG     MASS         X           Y           Z
   0 C     6.0000    0    12.011  -15.754695    2.279063   -0.069412
   1 C     6.0000    0    12.011  -13.153043    2.275460   -0.051150
   2 C     6.0000    0    12.011  -11.825521    0.006936   -0.040875
   3 C     6.0000    0    12.011  -13.156750   -2.254061   -0.034296
   4 C     6.0000    0    12.011  -15.762461   -2.251324   -0.019775
   5 C     6.0000    0    12.011  -17.097871    0.016201   -0.046431
   6 C     6.0000    0    12.011   -9.037095    0.004644   -0.046431
   7 N     7.0000    0    14.007   -7.853279    2.204025   -0.053929
   8 C     6.0000    0    12.011   -5.334971    2.149227   -0.075110
   9 N     7.0000    0    14.007   -4.014580   -0.009375   -0.090331
  10 C     6.0000    0    12.011   -5.362469   -2.103711   -0.069659
  11 N     7.0000    0    14.007   -7.858664   -2.224511   -0.046304
  12 C     6.0000    0    12.011   -3.960844   -4.538416   -0.064318
  13 C     6.0000    0    12.011   -1.339093   -4.551882   -0.183386
  14 C     6.0000    0    12.011   -0.028752   -6.809362   -0.168768
  15 C     6.0000    0    12.011   -1.364940   -9.046895   -0.027473
  16 C     6.0000    0    12.011   -3.971605   -9.078197    0.091875
  17 C     6.0000    0    12.011   -5.265899   -6.811629    0.068904
  18 C     6.0000    0    12.011   -3.961123    4.532772   -0.077592
  19 C     6.0000    0    12.011   -5.238737    6.834653   -0.057821
  20 C     6.0000    0    12.011   -3.956063    9.089961   -0.046072
  21 C     6.0000    0    12.011   -1.308549    9.142793   -0.043867
  22 C     6.0000    0    12.011   -0.022836    6.828007   -0.103069
  23 C     6.0000    0    12.011   -1.330084    4.586943   -0.117314
  24 C     6.0000    0    12.011  -19.895930    0.057702   -0.073683
  25 S    16.0000    0    32.060  -21.528326    2.259602   -1.444306
  26 S    16.0000    0    32.060  -21.251224   -2.483127    1.539632
  27 N     7.0000    0    14.007    0.000000   11.413290   -0.000000
  28 C     6.0000    0    12.011   -1.259293   13.744293   -0.463056
  29 C     6.0000    0    12.011   -0.836667   14.962092   -2.749301
  30 S    16.0000    0    32.060    1.298316   13.619837   -4.926278
  31 C     6.0000    0    12.011    3.511093   12.439394   -2.734593
  32 C     6.0000    0    12.011    2.649786   11.482566   -0.447530
  33 C     6.0000    0    12.011    6.080574   12.494069   -3.245592
  34 C     6.0000    0    12.011    7.776751   11.592590   -1.475769
  35 C     6.0000    0    12.011    6.921550   10.701911    0.834277
  36 C     6.0000    0    12.011    4.362424   10.673924    1.357544
  37 C     6.0000    0    12.011   -2.825649   14.834388    1.326474
  38 C     6.0000    0    12.011   -4.068215   17.067422    0.784948
  39 C     6.0000    0    12.011   -3.696263   18.248609   -1.522826
  40 C     6.0000    0    12.011   -2.054990   17.220732   -3.275394
  41 N     7.0000    0    14.007    0.000000  -11.413290    0.000000
  42 C     6.0000    0    12.011    0.477888  -12.552774   -2.300362
  43 C     6.0000    0    12.011    1.806634  -14.847502   -2.496877
  44 S    16.0000    0    32.060    2.968245  -16.467846    0.056763
  45 C     6.0000    0    12.011    2.066835  -14.637899    2.573228
  46 C     6.0000    0    12.011    0.718990  -12.359292    2.325215
  47 C     6.0000    0    12.011   -0.375138  -11.412572   -4.543543
  48 C     6.0000    0    12.011    0.074258  -12.512178   -6.838372
  49 C     6.0000    0    12.011    1.396672  -14.791773   -7.014746
  50 C     6.0000    0    12.011    2.250240  -15.939035   -4.862591
  51 C     6.0000    0    12.011    2.752980  -15.534540    4.962604
  52 C     6.0000    0    12.011    2.123798  -14.208638    7.089055
  53 C     6.0000    0    12.011    0.787684  -11.941572    6.861682
  54 C     6.0000    0    12.011    0.099949  -11.032760    4.542388
  55 H     1.0000    0     1.008  -16.787135    4.039292   -0.096952
  56 H     1.0000    0     1.008  -12.116427    4.032032   -0.049220
  57 H     1.0000    0     1.008  -12.129397   -4.015501   -0.047185
  58 H     1.0000    0     1.008  -16.767018   -4.029263   -0.043232
  59 H     1.0000    0     1.008   -0.351745   -2.769499   -0.285699
  60 H     1.0000    0     1.008    2.013210   -6.834651   -0.263093
  61 H     1.0000    0     1.008   -4.974907  -10.855799    0.202521
  62 H     1.0000    0     1.008   -7.303505   -6.770907    0.158003
  63 H     1.0000    0     1.008   -7.279176    6.834848   -0.059999
  64 H     1.0000    0     1.008   -5.010682   10.832058   -0.062062
  65 H     1.0000    0     1.008    2.012689    6.793713   -0.163769
  66 H     1.0000    0     1.008   -0.303145    2.824423   -0.167759
  67 H     1.0000    0     1.008  -23.644171   -1.876143    0.984402
  68 H     1.0000    0     1.008    6.741725   13.269738   -5.017215
  69 H     1.0000    0     1.008    9.779076   11.634604   -1.881455
  70 H     1.0000    0     1.008    8.253749   10.051370    2.240251
  71 H     1.0000    0     1.008    3.664124    9.999534    3.155970
  72 H     1.0000    0     1.008   -3.079576   13.901107    3.126675
  73 H     1.0000    0     1.008   -5.311918   17.900481    2.175391
  74 H     1.0000    0     1.008   -4.653410   20.004648   -1.941537
  75 H     1.0000    0     1.008   -1.694972   18.175936   -5.046099
  76 H     1.0000    0     1.008   -1.396593   -9.654581   -4.450932
  77 H     1.0000    0     1.008   -0.606418  -11.596696   -8.532595
  78 H     1.0000    0     1.008    1.742610  -15.644931   -8.837211
  79 H     1.0000    0     1.008    3.276455  -17.704716   -4.963196
  80 H     1.0000    0     1.008    3.787258  -17.292869    5.102214
  81 H     1.0000    0     1.008    2.657256  -14.911296    8.930377
  82 H     1.0000    0     1.008    0.284366  -10.884561    8.535306
  83 H     1.0000    0     1.008   -0.930442   -9.282441    4.410937

--------------------------------
INTERNAL COORDINATES (ANGSTROEM)
--------------------------------
 C      0   0   0     0.000000000000     0.00000000     0.00000000
 C      1   0   0     1.376770077445     0.00000000     0.00000000
 C      2   1   0     1.390903151590   120.41588973     0.00000000
 C      3   2   1     1.388454184987   119.17578802   359.62561412
 C      4   3   2     1.378905292832   120.42882163   359.53778852
 C      1   2   3     1.392570201463   120.60671767     0.79569108
 C      3   2   1     1.475575197163   120.38205544   179.40148067
 N      7   3   2     1.321752236711   118.24445137     0.19262254
 C      8   7   3     1.332993569288   117.04526148   180.41593530
 N      9   8   7     1.339061671800   122.70164536     0.04738470
 C     10   9   8     1.318010089985   115.77690674   359.65671964
 N     11  10   9     1.322532626679   125.53768031     0.29407938
 C     11  10   9     1.486636518678   117.30668036   180.48944042
 C     13  11  10     1.388819259648   120.18257459   357.40708252
 C     14  13  11     1.381286562332   120.37502001   179.74198177
 C     15  14  13     1.381133969451   118.99557933   359.83225429
 C     16  15  14     1.380931698413   121.61058699     0.18465368
 C     17  16  15     1.381249750458   118.97907687     0.00000000
 C      9   8   7     1.455838568191   118.71147695   180.15212666
 C     19   9   8     1.393188380665   121.00831114     0.00000000
 C     20  19   9     1.372988649062   121.34090474   179.63932367
 C     21  20  19     1.401283305861   120.77152215   359.75319141
 C     22  21  20     1.401550198235   117.89732110     1.20095107
 C     23  22  21     1.372954379330   120.69416404   358.87329481
 C      6   1   2     1.480902048802   119.83409936   180.16689291
 S     25   6   1     1.621709352296   123.20189814    30.98424664
 S     25   6   1     1.746718905158   113.22568025   211.51959329
 N     22  21  20     1.386947257812   121.09529415   180.81762133
 C     28  22  21     1.423261868177   120.94072279   347.30836768
 C     29  28  22     1.388882455529   118.47083852   252.82313567
 S     30  29  28     1.762964883953   119.04242525   358.21290614
 C     31  30  29     1.762510573193    97.96434310   323.71520880
 C     32  31  30     1.388828217138   118.98679833    36.09473993
 C     32  31  30     1.386640596328   121.04725525   217.18639765
 C     34  32  31     1.382150813635   119.83168374   178.96472038
 C     35  34  32     1.386100103625   120.19365786   358.16044671
 C     36  35  34     1.382329565986   120.01065589     1.08501201
 C     29  28  22     1.384402384503   121.58026530    74.45923292
 C     38  29  28     1.382324136439   119.94659010   181.65733528
 C     39  38  29     1.385936667876   120.04284451   358.34265485
 C     40  39  38     1.382135788222   120.19951690   359.03236982
 N     16  15  14     1.445694693321   119.16638110   180.28135216
 C     42  16  15     1.381797625206   117.42356450   269.38878424
 C     43  42  16     1.407049980205   122.22003964   179.50573323
 S     44  43  42     1.714398091616   123.54280339     0.00000000
 C     45  44  43     1.714227145105   103.29758830     0.58741368
 C     42  16  15     1.381800470232   117.40823080    89.51877753
 C     43  42  16     1.406016641993   119.84989401   359.51688381
 C     48  43  42     1.367422157121   120.75157219   180.12400629
 C     49  48  43     1.397713220531   120.90635439   359.84272998
 C     50  49  48     1.367343185832   119.53624877     0.06845917
 C     46  45  44     1.398457792997   116.00491460   179.36233626
 C     52  46  45     1.367252823282   120.44966151   179.92276993
 C     53  52  46     1.397718114255   119.52471257   359.94021788
 C     54  53  52     1.367494752596   120.91298263     0.04407175
 H      1   2   3     1.079975075911   120.47496278   180.63687183
 H      2   1   3     1.079329699990   120.46662003   179.84989112
 H      4   3   2     1.079091861015   119.25682519   179.32813354
 H      5   4   3     1.080707969347   119.39994143   179.08558040
 H     14  13  11     1.079601087588   118.76685107   359.78663207
 H     15  14  13     1.081795073932   120.78813374   179.93236820
 H     17  16  15     1.081740662791   120.20951851   180.03352103
 H     18  17  16     1.079500067764   120.81321689   179.93976134
 H     20  19   9     1.079754430287   119.03562222   359.37224113
 H     21  20  19     1.077675332421   119.17830666   178.99406834
 H     23  22  21     1.077785438510   120.03563695   178.03540276
 H     24  23  22     1.079784397522   119.51545265   179.85293648
 H     27  25   6     1.339028309924    95.53173146   183.24618872
 H     34  32  31     1.081572754636   119.61365113   359.90050378
 H     35  34  32     1.081342637582   119.65121398   179.88464896
 H     36  35  34     1.081221990597   120.14902849   181.91234790
 H     37  36  35     1.081486263268   120.96705781   180.50164059
 H     38  29  28     1.081415236972   119.12207455     0.71809166
 H     39  38  29     1.081143787075   119.80442678   179.09895288
 H     40  39  38     1.081273754825   120.10798616   180.58384020
 H     41  40  39     1.081571894891   120.53660609   182.67021331
 H     48  43  42     1.077038693116   119.56246845     0.02466916
 H     49  48  43     1.080846315476   119.20617161   179.86938420
 H     50  49  48     1.080471786415   120.33512421   180.02355035
 H     51  50  49     1.082017751168   120.54558102   179.96942109
 H     52  46  45     1.082027569739   119.00127842   359.87683618
 H     53  52  46     1.080451281547   120.13183101   179.94058987
 H     54  53  52     1.080819984793   119.88840381   179.99220719
 H     55  54  53     1.077054689911   119.67811044   179.94866627

---------------------------
INTERNAL COORDINATES (A.U.)
---------------------------
 C      0   0   0     0.000000000000     0.00000000     0.00000000
 C      1   0   0     2.601718395749     0.00000000     0.00000000
 C      2   1   0     2.628426035314   120.41588973     0.00000000
 C      3   2   1     2.623798159123   119.17578802   359.62561412
 C      4   3   2     2.605753368067   120.42882163   359.53778852
 C      1   2   3     2.631576303024   120.60671767     0.79569108
 C      3   2   1     2.788433012645   120.38205544   179.40148067
 N      7   3   2     2.497749744281   118.24445137     0.19262254
 C      8   7   3     2.518992784233   117.04526148   180.41593530
 N      9   8   7     2.530459836132   122.70164536     0.04738470
 C     10   9   8     2.490678111817   115.77690674   359.65671964
 N     11  10   9     2.499224467599   125.53768031     0.29407938
 C     11  10   9     2.809335880988   117.30668036   180.48944042
 C     13  11  10     2.624488050250   120.18257459   357.40708252
 C     14  13  11     2.610253315274   120.37502001   179.74198177
 C     15  14  13     2.609964956518   118.99557933   359.83225429
 C     16  15  14     2.609582719652   121.61058699     0.18465368
 C     17  16  15     2.610183750912   118.97907687     0.00000000
 C      9   8   7     2.751136189082   118.71147695   180.15212666
 C     19   9   8     2.632744492419   121.00831114     0.00000000
 C     20  19   9     2.594572531709   121.34090474   179.63932367
 C     21  20  19     2.648041684113   120.77152215   359.75319141
 C     22  21  20     2.648546037606   117.89732110     1.20095107
 C     23  22  21     2.594507771302   120.69416404   358.87329481
 C      6   1   2     2.798499303399   119.83409936   180.16689291
 S     25   6   1     3.064586544657   123.20189814    30.98424664
 S     25   6   1     3.300820363692   113.22568025   211.51959329
 N     22  21  20     2.620950479458   121.09529415   180.81762133
 C     28  22  21     2.689575147708   120.94072279   347.30836768
 C     29  28  22     2.624607473158   118.47083852   252.82313567
 S     30  29  28     3.331520814391   119.04242525   358.21290614
 C     31  30  29     3.330662291475    97.96434310   323.71520880
 C     32  31  30     2.624504977453   118.98679833    36.09473993
 C     32  31  30     2.620370973238   121.04725525   217.18639765
 C     34  32  31     2.611886513547   119.83168374   178.96472038
 C     35  34  32     2.619349590051   120.19365786   358.16044671
 C     36  35  34     2.612224306536   120.01065589     1.08501201
 C     29  28  22     2.616141365859   121.58026530    74.45923292
 C     38  29  28     2.612214046179   119.94659010   181.65733528
 C     39  38  29     2.619040741246   120.04284451   358.34265485
 C     40  39  38     2.611858119631   120.19951690   359.03236982
 N     16  15  14     2.731967043639   119.16638110   180.28135216
 C     42  16  15     2.611219084141   117.42356450   269.38878424
 C     43  42  16     2.658939119327   122.22003964   179.50573323
 S     44  43  42     3.239742877671   123.54280339     0.00000000
 C     45  44  43     3.239419835581   103.29758830     0.58741368
 C     42  16  15     2.611224460462   117.40823080    89.51877753
 C     43  42  16     2.656986393102   119.84989401   359.51688381
 C     48  43  42     2.584053386415   120.75157219   180.12400629
 C     49  48  43     2.641295200565   120.90635439   359.84272998
 C     50  49  48     2.583904152306   119.53624877     0.06845917
 C     46  45  44     2.642702238613   116.00491460   179.36233626
 C     52  46  45     2.583733391834   120.44966151   179.92276993
 C     53  52  46     2.641304448363   119.52471257   359.94021788
 C     54  53  52     2.584190571981   120.91298263     0.04407175
 H      1   2   3     2.040857124932   120.47496278   180.63687183
 H      2   1   3     2.039637541189   120.46662003   179.84989112
 H      4   3   2     2.039188090662   119.25682519   179.32813354
 H      5   4   3     2.042242092812   119.39994143   179.08558040
 H     14  13  11     2.040150389426   118.76685107   359.78663207
 H     15  14  13     2.044296422757   120.78813374   179.93236820
 H     17  16  15     2.044193600601   120.20951851   180.03352103
 H     18  17  16     2.039959489624   120.81321689   179.93976134
 H     20  19   9     2.040440165131   119.03562222   359.37224113
 H     21  20  19     2.036511239559   119.17830666   178.99406834
 H     23  22  21     2.036719309912   120.03563695   178.03540276
 H     24  23  22     2.040496794999   119.51545265   179.85293648
 H     27  25   6     2.530396791323    95.53173146   183.24618872
 H     34  32  31     2.043876300172   119.61365113   359.90050378
 H     35  34  32     2.043441441963   119.65121398   179.88464896
 H     36  35  34     2.043213452201   120.14902849   181.91234790
 H     37  36  35     2.043712855174   120.96705781   180.50164059
 H     38  29  28     2.043578634926   119.12207455     0.71809166
 H     39  38  29     2.043065668962   119.80442678   179.09895288
 H     40  39  38     2.043311272415   120.10798616   180.58384020
 H     41  40  39     2.043874675490   120.53660609   182.67021331
 H     48  43  42     2.035308165626   119.56246845     0.02466916
 H     49  48  43     2.042503529108   119.20617161   179.86938420
 H     50  49  48     2.041795771754   120.33512421   180.02355035
 H     51  50  49     2.044717221749   120.54558102   179.96942109
 H     52  46  45     2.044735776159   119.00127842   359.87683618
 H     53  52  46     2.041757023168   120.13183101   179.94058987
 H     54  53  52     2.042453771327   119.88840381   179.99220719
 H     55  54  53     2.035338395187   119.67811044   179.94866627

---------------------
BASIS SET INFORMATION
---------------------
There are 4 groups of distinct atoms

 Group   1 Type C   : 11s6p2d1f contracted to 5s3p2d1f pattern {62111/411/11/1}
 Group   2 Type N   : 11s6p2d1f contracted to 5s3p2d1f pattern {62111/411/11/1}
 Group   3 Type S   : 14s9p3d1f contracted to 5s5p2d1f pattern {73211/51111/21/1}
 Group   4 Type H   : 5s1p contracted to 3s1p pattern {311/1}

Atom   0C    basis set group =>   1
Atom   1C    basis set group =>   1
Atom   2C    basis set group =>   1
Atom   3C    basis set group =>   1
Atom   4C    basis set group =>   1
Atom   5C    basis set group =>   1
Atom   6C    basis set group =>   1
Atom   7N    basis set group =>   2
Atom   8C    basis set group =>   1
Atom   9N    basis set group =>   2
Atom  10C    basis set group =>   1
Atom  11N    basis set group =>   2
Atom  12C    basis set group =>   1
Atom  13C    basis set group =>   1
Atom  14C    basis set group =>   1
Atom  15C    basis set group =>   1
Atom  16C    basis set group =>   1
Atom  17C    basis set group =>   1
Atom  18C    basis set group =>   1
Atom  19C    basis set group =>   1
Atom  20C    basis set group =>   1
Atom  21C    basis set group =>   1
Atom  22C    basis set group =>   1
Atom  23C    basis set group =>   1
Atom  24C    basis set group =>   1
Atom  25S    basis set group =>   3
Atom  26S    basis set group =>   3
Atom  27N    basis set group =>   2
Atom  28C    basis set group =>   1
Atom  29C    basis set group =>   1
Atom  30S    basis set group =>   3
Atom  31C    basis set group =>   1
Atom  32C    basis set group =>   1
Atom  33C    basis set group =>   1
Atom  34C    basis set group =>   1
Atom  35C    basis set group =>   1
Atom  36C    basis set group =>   1
Atom  37C    basis set group =>   1
Atom  38C    basis set group =>   1
Atom  39C    basis set group =>   1
Atom  40C    basis set group =>   1
Atom  41N    basis set group =>   2
Atom  42C    basis set group =>   1
Atom  43C    basis set group =>   1
Atom  44S    basis set group =>   3
Atom  45C    basis set group =>   1
Atom  46C    basis set group =>   1
Atom  47C    basis set group =>   1
Atom  48C    basis set group =>   1
Atom  49C    basis set group =>   1
Atom  50C    basis set group =>   1
Atom  51C    basis set group =>   1
Atom  52C    basis set group =>   1
Atom  53C    basis set group =>   1
Atom  54C    basis set group =>   1
Atom  55H    basis set group =>   4
Atom  56H    basis set group =>   4
Atom  57H    basis set group =>   4
Atom  58H    basis set group =>   4
Atom  59H    basis set group =>   4
Atom  60H    basis set group =>   4
Atom  61H    basis set group =>   4
Atom  62H    basis set group =>   4
Atom  63H    basis set group =>   4
Atom  64H    basis set group =>   4
Atom  65H    basis set group =>   4
Atom  66H    basis set group =>   4
Atom  67H    basis set group =>   4
Atom  68H    basis set group =>   4
Atom  69H    basis set group =>   4
Atom  70H    basis set group =>   4
Atom  71H    basis set group =>   4
Atom  72H    basis set group =>   4
Atom  73H    basis set group =>   4
Atom  74H    basis set group =>   4
Atom  75H    basis set group =>   4
Atom  76H    basis set group =>   4
Atom  77H    basis set group =>   4
Atom  78H    basis set group =>   4
Atom  79H    basis set group =>   4
Atom  80H    basis set group =>   4
Atom  81H    basis set group =>   4
Atom  82H    basis set group =>   4
Atom  83H    basis set group =>   4
---------------------------------
AUXILIARY/J BASIS SET INFORMATION
---------------------------------
There are 4 groups of distinct atoms

 Group   1 Type C   : 12s5p4d2f1g contracted to 6s4p3d1f1g pattern {711111/2111/211/2/1}
 Group   2 Type N   : 12s5p4d2f1g contracted to 6s4p3d1f1g pattern {711111/2111/211/2/1}
 Group   3 Type S   : 14s5p5d2f1g contracted to 8s4p3d1f1g pattern {71111111/2111/311/2/1}
 Group   4 Type H   : 5s2p1d contracted to 3s1p1d pattern {311/2/1}

Atom   0C    basis set group =>   1
Atom   1C    basis set group =>   1
Atom   2C    basis set group =>   1
Atom   3C    basis set group =>   1
Atom   4C    basis set group =>   1
Atom   5C    basis set group =>   1
Atom   6C    basis set group =>   1
Atom   7N    basis set group =>   2
Atom   8C    basis set group =>   1
Atom   9N    basis set group =>   2
Atom  10C    basis set group =>   1
Atom  11N    basis set group =>   2
Atom  12C    basis set group =>   1
Atom  13C    basis set group =>   1
Atom  14C    basis set group =>   1
Atom  15C    basis set group =>   1
Atom  16C    basis set group =>   1
Atom  17C    basis set group =>   1
Atom  18C    basis set group =>   1
Atom  19C    basis set group =>   1
Atom  20C    basis set group =>   1
Atom  21C    basis set group =>   1
Atom  22C    basis set group =>   1
Atom  23C    basis set group =>   1
Atom  24C    basis set group =>   1
Atom  25S    basis set group =>   3
Atom  26S    basis set group =>   3
Atom  27N    basis set group =>   2
Atom  28C    basis set group =>   1
Atom  29C    basis set group =>   1
Atom  30S    basis set group =>   3
Atom  31C    basis set group =>   1
Atom  32C    basis set group =>   1
Atom  33C    basis set group =>   1
Atom  34C    basis set group =>   1
Atom  35C    basis set group =>   1
Atom  36C    basis set group =>   1
Atom  37C    basis set group =>   1
Atom  38C    basis set group =>   1
Atom  39C    basis set group =>   1
Atom  40C    basis set group =>   1
Atom  41N    basis set group =>   2
Atom  42C    basis set group =>   1
Atom  43C    basis set group =>   1
Atom  44S    basis set group =>   3
Atom  45C    basis set group =>   1
Atom  46C    basis set group =>   1
Atom  47C    basis set group =>   1
Atom  48C    basis set group =>   1
Atom  49C    basis set group =>   1
Atom  50C    basis set group =>   1
Atom  51C    basis set group =>   1
Atom  52C    basis set group =>   1
Atom  53C    basis set group =>   1
Atom  54C    basis set group =>   1
Atom  55H    basis set group =>   4
Atom  56H    basis set group =>   4
Atom  57H    basis set group =>   4
Atom  58H    basis set group =>   4
Atom  59H    basis set group =>   4
Atom  60H    basis set group =>   4
Atom  61H    basis set group =>   4
Atom  62H    basis set group =>   4
Atom  63H    basis set group =>   4
Atom  64H    basis set group =>   4
Atom  65H    basis set group =>   4
Atom  66H    basis set group =>   4
Atom  67H    basis set group =>   4
Atom  68H    basis set group =>   4
Atom  69H    basis set group =>   4
Atom  70H    basis set group =>   4
Atom  71H    basis set group =>   4
Atom  72H    basis set group =>   4
Atom  73H    basis set group =>   4
Atom  74H    basis set group =>   4
Atom  75H    basis set group =>   4
Atom  76H    basis set group =>   4
Atom  77H    basis set group =>   4
Atom  78H    basis set group =>   4
Atom  79H    basis set group =>   4
Atom  80H    basis set group =>   4
Atom  81H    basis set group =>   4
Atom  82H    basis set group =>   4
Atom  83H    basis set group =>   4


           ************************************************************
           *        Program running with 36 parallel MPI-processes    *
           *              working on a shared directory               *
           ************************************************************
Error: Cannot open input file Combo62_Cf15tc_-0.21702_0.21702_ck-1.int.tmp

ORCA finished by error termination in GTOInt
Calling Command: mpirun -np 36  /software/rapids/r23.04/ORCA/5.0.3-gompi-2021b/bin/orca_gtoint_mpi Combo62_Cf15tc_-0.21702_0.21702_ck-1.int.tmp Combo62_Cf15tc_-0.21702_0.21702_ck-1 
[file orca_tools/qcmsg.cpp, line 465]: 
  .... aborting the run

