
                                 *****************
                                 * O   R   C   A *
                                 *****************

                                            #,                                       
                                            ###                                      
                                            ####                                     
                                            #####                                    
                                            ######                                   
                                           ########,                                 
                                     ,,################,,,,,                         
                               ,,#################################,,                 
                          ,,##########################################,,             
                       ,#########################################, ''#####,          
                    ,#############################################,,   '####,        
                  ,##################################################,,,,####,       
                ,###########''''           ''''###############################       
              ,#####''   ,,,,##########,,,,          '''####'''          '####       
            ,##' ,,,,###########################,,,                        '##       
           ' ,,###''''                  '''############,,,                           
         ,,##''                                '''############,,,,        ,,,,,,###''
      ,#''                                            '''#######################'''  
     '                                                          ''''####''''         
             ,#######,   #######,   ,#######,      ##                                
            ,#'     '#,  ##    ##  ,#'     '#,    #''#        ######   ,####,        
            ##       ##  ##   ,#'  ##            #'  '#       #        #'  '#        
            ##       ##  #######   ##           ,######,      #####,   #    #        
            '#,     ,#'  ##    ##  '#,     ,#' ,#      #,         ##   #,  ,#        
             '#######'   ##     ##  '#######'  #'      '#     #####' # '####'        



                  #######################################################
                  #                        -***-                        #
                  #          Department of theory and spectroscopy      #
                  #    Directorship and core code : Frank Neese         #
                  #        Max Planck Institute fuer Kohlenforschung    #
                  #                Kaiser Wilhelm Platz 1               #
                  #                 D-45470 Muelheim/Ruhr               #
                  #                      Germany                        #
                  #                                                     #
                  #                  All rights reserved                #
                  #                        -***-                        #
                  #######################################################


                         Program Version 5.0.3 -  RELEASE  -


 With contributions from (in alphabetic order):
   Daniel Aravena         : Magnetic Suceptibility
   Michael Atanasov       : Ab Initio Ligand Field Theory (pilot matlab implementation)
   Alexander A. Auer      : GIAO ZORA, VPT2 properties, NMR spectrum
   Ute Becker             : Parallelization
   Giovanni Bistoni       : ED, misc. LED, open-shell LED, HFLD
   Martin Brehm           : Molecular dynamics
   Dmytro Bykov           : SCF Hessian
   Vijay G. Chilkuri      : MRCI spin determinant printing, contributions to CSF-ICE
   Dipayan Datta          : RHF DLPNO-CCSD density
   Achintya Kumar Dutta   : EOM-CC, STEOM-CC
   Dmitry Ganyushin       : Spin-Orbit,Spin-Spin,Magnetic field MRCI
   Miquel Garcia          : C-PCM and meta-GGA Hessian, CC/C-PCM, Gaussian charge scheme
   Yang Guo               : DLPNO-NEVPT2, F12-NEVPT2, CIM, IAO-localization
   Andreas Hansen         : Spin unrestricted coupled pair/coupled cluster methods
   Benjamin Helmich-Paris : MC-RPA, TRAH-SCF, COSX integrals
   Lee Huntington         : MR-EOM, pCC
   Robert Izsak           : Overlap fitted RIJCOSX, COSX-SCS-MP3, EOM
   Marcus Kettner         : VPT2
   Christian Kollmar      : KDIIS, OOCD, Brueckner-CCSD(T), CCSD density, CASPT2, CASPT2-K
   Simone Kossmann        : Meta GGA functionals, TD-DFT gradient, OOMP2, MP2 Hessian
   Martin Krupicka        : Initial AUTO-CI
   Lucas Lang             : DCDCAS
   Marvin Lechner         : AUTO-CI (C++ implementation), FIC-MRCC
   Dagmar Lenk            : GEPOL surface, SMD
   Dimitrios Liakos       : Extrapolation schemes; Compound Job, initial MDCI parallelization
   Dimitrios Manganas     : Further ROCIS development; embedding schemes
   Dimitrios Pantazis     : SARC Basis sets
   Anastasios Papadopoulos: AUTO-CI, single reference methods and gradients
   Taras Petrenko         : DFT Hessian,TD-DFT gradient, ASA, ECA, R-Raman, ABS, FL, XAS/XES, NRVS
   Peter Pinski           : DLPNO-MP2, DLPNO-MP2 Gradient
   Christoph Reimann      : Effective Core Potentials
   Marius Retegan         : Local ZFS, SOC
   Christoph Riplinger    : Optimizer, TS searches, QM/MM, DLPNO-CCSD(T), (RO)-DLPNO pert. Triples
   Tobias Risthaus        : Range-separated hybrids, TD-DFT gradient, RPA, STAB
   Michael Roemelt        : Original ROCIS implementation
   Masaaki Saitow         : Open-shell DLPNO-CCSD energy and density
   Barbara Sandhoefer     : DKH picture change effects
   Avijit Sen             : IP-ROCIS
   Kantharuban Sivalingam : CASSCF convergence, NEVPT2, FIC-MRCI
   Bernardo de Souza      : ESD, SOC TD-DFT
   Georgi Stoychev        : AutoAux, RI-MP2 NMR, DLPNO-MP2 response
   Willem Van den Heuvel  : Paramagnetic NMR
   Boris Wezisla          : Elementary symmetry handling
   Frank Wennmohs         : Technical directorship


 We gratefully acknowledge several colleagues who have allowed us to
 interface, adapt or use parts of their codes:
   Stefan Grimme, W. Hujo, H. Kruse, P. Pracht,  : VdW corrections, initial TS optimization,
                  C. Bannwarth, S. Ehlert          DFT functionals, gCP, sTDA/sTD-DF
   Ed Valeev, F. Pavosevic, A. Kumar             : LibInt (2-el integral package), F12 methods
   Garnet Chan, S. Sharma, J. Yang, R. Olivares  : DMRG
   Ulf Ekstrom                                   : XCFun DFT Library
   Mihaly Kallay                                 : mrcc  (arbitrary order and MRCC methods)
   Jiri Pittner, Ondrej Demel                    : Mk-CCSD
   Frank Weinhold                                : gennbo (NPA and NBO analysis)
   Christopher J. Cramer and Donald G. Truhlar   : smd solvation model
   Lars Goerigk                                  : TD-DFT with DH, B97 family of functionals
   V. Asgeirsson, H. Jonsson                     : NEB implementation
   FAccTs GmbH                                   : IRC, NEB, NEB-TS, DLPNO-Multilevel, CI-OPT
                                                   MM, QMMM, 2- and 3-layer-ONIOM, Crystal-QMMM,
                                                   LR-CPCM, SF, NACMEs, symmetry and pop. for TD-DFT,
                                                   nearIR, NL-DFT gradient (VV10), updates on ESD,
                                                   ML-optimized integration grids
   S Lehtola, MJT Oliveira, MAL Marques          : LibXC Library
   Liviu Ungur et al                             : ANISO software


 Your calculation uses the libint2 library for the computation of 2-el integrals
 For citations please refer to: http://libint.valeyev.net

 Your ORCA version has been built with support for libXC version: 5.1.0
 For citations please refer to: https://tddft.org/programs/libxc/

 This ORCA versions uses:
   CBLAS   interface :  Fast vector & matrix operations
   LAPACKE interface :  Fast linear algebra routines
   SCALAPACK package :  Parallel linear algebra routines
   Shared memory     :  Shared parallel matrices
   BLAS/LAPACK       :  OpenBLAS 0.3.15  USE64BITINT DYNAMIC_ARCH NO_AFFINITY Prescott SINGLE_THREADED
        Core in use  :  Prescott
   Copyright (c) 2011-2014, The OpenBLAS Project


Your calculation utilizes the atom-pairwise dispersion correction
based on tight binding partial charges (D4)
Cite in your paper:
E.Caldeweyher, C.Bannwarth, S.Grimme, J.Chem.Phys., (2017), 147, 034112.
E.Caldeweyher, S.Ehlert, A.Hansen, H.Neugebauer, S.Grimme, J.Chem.Phys., (2018), in progress.
   

XCFun DFT library Copyright 2009-2010 Ulf Ekstrom and contributors.
See http://admol.org/xcfun for more information.
This is free software; see the source code for copying conditions.
There is ABSOLUTELY NO WARRANTY; not even for MERCHANTABILITY or FITNESS FOR A PARTICULAR PURPOSE.
For details see the documentation.
Scientific users of this library should cite U. Ekstrom, L. Visscher, R. Bast, A. J. Thorvaldsen and K. Ruud;
J.Chem.Theor.Comp. 2010, DOI: 10.1021/ct100117s
XCFun Version 0.99 

================================================================================

----- Orbital basis set information -----
Your calculation utilizes the basis: def2-TZVP
   F. Weigend and R. Ahlrichs, Phys. Chem. Chem. Phys. 7, 3297 (2005).

----- AuxJ basis set information -----
Your calculation utilizes the auxiliary basis: def2/J
   F. Weigend, Phys. Chem. Chem. Phys. 8, 1057 (2006).

================================================================================
                                        WARNINGS
                       Please study these warnings very carefully!
================================================================================


WARNING: Geometry Optimization
  ===> : Switching off AutoStart
         For restart on a previous wavefunction, please use MOREAD

INFO   : the flag for use of the SHARK integral package has been found!

================================================================================
                                       INPUT FILE
================================================================================
NAME = Combo62_Cf2tc_2.60424_-2.60424_ck-1.inp
|  1> ## Generated with Autochar
|  2> ! UKS OPT CAM-B3LYP D4 def2-TZVP  CHELPG
|  3> % pointcharges "pointcharges.pc"
|  4> %scf
|  5> 	SCFMode Direct
|  6> 	MaxIter 500
|  7> end
|  8> %pal
|  9> 	nprocs 36
| 10> end
| 11> %elprop
| 12>     Dipole true
| 13> end
| 14> %chelpg
| 15> 	GRID 0.3
| 16> 	RMAX 4
| 17> end
| 18> * xyz 1 2
| 19>  C -8.34157417 -1.16931131 0.57111823
| 20>  C -6.96631299 -1.19011346 0.46980210
| 21>  C -6.25824423 -0.01065082 0.28191400
| 22>  C -6.95368162 1.19012275 0.18168619
| 23>  C -8.32757676 1.20829771 0.26163721
| 24>  C -9.04108772 0.02999392 0.46417805
| 25>  C -4.78739399 -0.02419455 0.19677009
| 26>  N -4.15484918 1.13602384 0.16065752
| 27>  C -2.82282562 1.11029830 0.10215105
| 28>  N -2.12764252 -0.03589521 0.07057691
| 29>  C -2.84747448 -1.13969035 0.09898527
| 30>  N -4.16702158 -1.20790574 0.16382682
| 31>  C -2.10647982 -2.41833333 0.05708756
| 32>  C -2.78911021 -3.63857192 -0.01240419
| 33>  C -2.10890405 -4.82069247 -0.04840082
| 34>  C -0.69082282 -4.83301910 0.01017383
| 35>  C -0.00694998 -3.58969782 0.02098280
| 36>  C -0.70634290 -2.42015638 0.04925042
| 37>  C -2.09666559 2.36706960 0.07677516
| 38>  C -0.70482325 2.39379455 0.01126099
| 39>  C -0.01283163 3.57803769 -0.01095335
| 40>  C -0.69150951 4.80470608 0.03154258
| 41>  C -2.09104194 4.77806779 0.11602497
| 42>  C -2.77032171 3.58626543 0.13520957
| 43>  C -10.51950628 0.07188338 0.55304293
| 44>  S -11.42689610 1.13744557 -0.26477945
| 45>  S -11.17386825 -1.13102062 1.63608796
| 46>  N 0.00000000 6.00338252 -0.00000000
| 47>  C 1.41356219 6.02957138 0.16474724
| 48>  C 1.93129467 6.48835462 1.36899447
| 49>  S 0.82440954 7.07741651 2.60741029
| 50>  C -0.36244513 7.82815976 1.54140609
| 51>  C -0.64935363 7.22913443 0.32177692
| 52>  C -0.99184744 9.01132496 1.89624954
| 53>  C -1.90699756 9.58715904 1.03510446
| 54>  C -2.16681666 9.00757070 -0.19672668
| 55>  C -1.52553807 7.83804067 -0.55995758
| 56>  C 2.26744313 5.63194904 -0.84962210
| 57>  C 3.63371907 5.62696786 -0.63905069
| 58>  C 4.14903818 6.04824438 0.57684180
| 59>  C 3.30278506 6.49720047 1.57326734
| 60>  N -0.00000000 -6.00338252 0.00000000
| 61>  C 1.42403068 -6.05198196 -0.02062433
| 62>  C 2.03235440 -6.74051929 -1.06535373
| 63>  S 1.06241087 -7.59578135 -2.24817357
| 64>  C -0.22955267 -8.09483951 -1.17278126
| 65>  C -0.63136056 -7.27417943 -0.12297621
| 66>  C 2.18069258 -5.46575906 0.98411126
| 67>  C 3.55588496 -5.50394164 0.90415486
| 68>  C 4.17129313 -6.12687252 -0.17375314
| 69>  C 3.41805152 -6.75372643 -1.14545265
| 70>  C -0.86003742 -9.31866264 -1.34901459
| 71>  C -1.84144090 -9.72336402 -0.46701674
| 72>  C -2.18847280 -8.92685593 0.61586965
| 73>  C -1.58172133 -7.70238719 0.79317726
| 74>  H -8.87754198 -2.09759612 0.70868337
| 75>  H -6.43017953 -2.12412804 0.54074332
| 76>  H -6.40254923 2.10694698 0.03858980
| 77>  H -8.86917783 2.13844103 0.17338850
| 78>  H -3.86777052 -3.62310353 -0.05480117
| 79>  H -2.65346695 -5.74440608 -0.14477952
| 80>  H 1.06851622 -3.56439789 -0.01941700
| 81>  H -0.19269318 -1.47089579 0.05322697
| 82>  H -0.16153889 1.46117392 -0.01808345
| 83>  H 1.06404975 3.55871419 -0.04681565
| 84>  H -2.64490502 5.70018998 0.18067208
| 85>  H -3.84781598 3.58749922 0.20505021
| 86>  H -12.45839071 -0.83908128 1.39509608
| 87>  H -0.75372025 9.48279167 2.84006599
| 88>  H -2.40103921 10.50684971 1.31653436
| 89>  H -2.86175650 9.47434552 -0.88079365
| 90>  H -1.70949044 7.37858425 -1.52149836
| 91>  H 1.84874451 5.31322079 -1.79445685
| 92>  H 4.29863637 5.30590163 -1.42882283
| 93>  H 5.21793152 6.05421301 0.74027292
| 94>  H 3.70206152 6.86982247 2.50682811
| 95>  H 1.68699036 -4.99261513 1.82123786
| 96>  H 4.15144347 -5.05541382 1.68629563
| 97>  H 5.25007837 -6.15358791 -0.23699934
| 98>  H 3.89967639 -7.28309978 -1.95584534
| 99>  H -0.55636822 -9.96175748 -2.16339861
|100>  H -2.31886874 -10.68336420 -0.60499740
|101>  H -2.92593221 -9.26793962 1.32826841
|102>  H -1.83053086 -7.07905498 1.64035852
|103>   
|104> *
|105> 
|106> 
|107>                          ****END OF INPUT****
================================================================================

                       *****************************
                       * Geometry Optimization Run *
                       *****************************

Geometry optimization settings:
Update method            Update   .... BFGS
Choice of coordinates    CoordSys .... Z-matrix Internals
Initial Hessian          InHess   .... Almoef's Model

Convergence Tolerances:
Energy Change            TolE     ....  5.0000e-06 Eh
Max. Gradient            TolMAXG  ....  3.0000e-04 Eh/bohr
RMS Gradient             TolRMSG  ....  1.0000e-04 Eh/bohr
Max. Displacement        TolMAXD  ....  4.0000e-03 bohr
RMS Displacement         TolRMSD  ....  2.0000e-03 bohr
Strict Convergence                ....  False
------------------------------------------------------------------------------
                        ORCA OPTIMIZATION COORDINATE SETUP
------------------------------------------------------------------------------

The optimization will be done in new redundant internal coordinates
Making redundant internal coordinates   ...  (new redundants) done
Evaluating the initial hessian          ...  (Almloef) done
Evaluating the coordinates              ...  done
Calculating the B-matrix                .... done
Calculating the G-matrix                .... done
Diagonalizing the G-matrix              .... done
Small eigenvalue found = 2.658e-04
Small eigenvalue found = 7.300e-04
Small eigenvalue found = 1.505e-03
Small eigenvalue found = 1.733e-03
Small eigenvalue found = 2.507e-03
Small eigenvalue found = 3.253e-03
Small eigenvalue found = 3.716e-03
Small eigenvalue found = 8.643e-03
Small eigenvalue found = 1.078e-02
Small eigenvalue found = 1.465e-02
Small eigenvalue found = 1.941e-02
Small eigenvalue found = 2.369e-02
Small eigenvalue found = 2.689e-02
The first mode is                       ....  227
The number of degrees of freedom        ....  246

    -----------------------------------------------------------------
                    Redundant Internal Coordinates


    -----------------------------------------------------------------
         Definition                    Initial Value    Approx d2E/dq
    -----------------------------------------------------------------
      1. B(C   1,C   0)                  1.3791         0.650215   
      2. B(C   2,C   1)                  1.3885         0.628363   
      3. B(C   3,C   2)                  1.3912         0.621967   
      4. B(C   4,C   3)                  1.3763         0.656951   
      5. B(C   5,C   4)                  1.3923         0.619522   
      6. B(C   5,C   0)                  1.3925         0.619058   
      7. B(C   6,C   2)                  1.4734         0.459959   
      8. B(N   7,C   6)                  1.3219         0.718558   
      9. B(C   8,N   7)                  1.3336         0.688539   
     10. B(N   9,C   8)                  1.3409         0.670189   
     11. B(C  10,N   9)                  1.3181         0.728824   
     12. B(N  11,C   6)                  1.3368         0.680302   
     13. B(N  11,C  10)                  1.3229         0.716029   
     14. B(C  12,C  10)                  1.4784         0.451496   
     15. B(C  13,C  12)                  1.3999         0.602422   
     16. B(C  14,C  13)                  1.3643         0.686594   
     17. B(C  15,C  14)                  1.4193         0.560947   
     18. B(C  16,C  15)                  1.4190         0.561594   
     19. B(C  17,C  16)                  1.3630         0.689939   
     20. B(C  17,C  12)                  1.4002         0.601906   
     21. B(C  18,C   8)                  1.4517         0.498085   
     22. B(C  19,C  18)                  1.3936         0.616498   
     23. B(C  20,C  19)                  1.3718         0.668050   
     24. B(C  21,C  20)                  1.4025         0.596662   
     25. B(C  22,C  21)                  1.4023         0.597121   
     26. B(C  23,C  22)                  1.3719         0.667689   
     27. B(C  23,C  18)                  1.3942         0.615334   
     28. B(C  24,C   5)                  1.4817         0.446139   
     29. B(S  25,C  24)                  1.6210         0.721065   
     30. B(S  26,C  24)                  1.7459         0.455718   
     31. B(N  27,C  21)                  1.3842         0.571652   
     32. B(C  28,N  27)                  1.4234         0.495033   
     33. B(C  29,C  28)                  1.3888         0.627578   
     34. B(S  30,C  29)                  1.7623         0.428995   
     35. B(C  31,S  30)                  1.7631         0.427771   
     36. B(C  32,C  31)                  1.3888         0.627658   
     37. B(C  32,N  27)                  1.4240         0.493959   
     38. B(C  33,C  31)                  1.3863         0.633252   
     39. B(C  34,C  33)                  1.3823         0.642806   
     40. B(C  35,C  34)                  1.3859         0.634179   
     41. B(C  36,C  35)                  1.3824         0.642533   
     42. B(C  36,C  32)                  1.3842         0.638326   
     43. B(C  37,C  28)                  1.3843         0.638123   
     44. B(C  38,C  37)                  1.3824         0.642448   
     45. B(C  39,C  38)                  1.3862         0.633687   
     46. B(C  40,C  39)                  1.3822         0.642879   
     47. B(C  40,C  29)                  1.3866         0.632539   
     48. B(N  41,C  15)                  1.3591         0.626919   
     49. B(C  42,N  41)                  1.4250         0.492063   
     50. B(C  43,C  42)                  1.3913         0.621914   
     51. B(S  44,C  43)                  1.7525         0.444763   
     52. B(C  45,S  44)                  1.7535         0.443195   
     53. B(C  46,C  45)                  1.3918         0.620747   
     54. B(C  46,N  41)                  1.4243         0.493325   
     55. B(C  47,C  42)                  1.3877         0.630117   
     56. B(C  48,C  47)                  1.3780         0.652850   
     57. B(C  49,C  48)                  1.3888         0.627648   
     58. B(C  50,C  49)                  1.3800         0.648074   
     59. B(C  50,C  43)                  1.3881         0.629235   
     60. B(C  51,C  45)                  1.3879         0.629597   
     61. B(C  52,C  51)                  1.3802         0.647783   
     62. B(C  53,C  52)                  1.3883         0.628609   
     63. B(C  54,C  46)                  1.3878         0.629953   
     64. B(C  54,C  53)                  1.3780         0.652934   
     65. B(H  55,C   0)                  1.0807         0.372624   
     66. B(H  56,C   1)                  1.0793         0.374558   
     67. B(H  57,C   3)                  1.0793         0.374599   
     68. B(H  58,C   4)                  1.0799         0.373647   
     69. B(H  59,C  13)                  1.0796         0.374119   
     70. B(H  60,C  14)                  1.0766         0.378259   
     71. B(H  61,C  16)                  1.0765         0.378378   
     72. B(H  62,C  17)                  1.0793         0.374499   
     73. B(H  63,C  19)                  1.0797         0.373956   
     74. B(H  64,C  20)                  1.0777         0.376812   
     75. B(H  65,C  22)                  1.0776         0.376863   
     76. B(H  66,C  23)                  1.0798         0.373910   
     77. B(H  67,S  26)                  1.3391         0.388776   
     78. B(H  68,C  33)                  1.0816         0.371438   
     79. B(H  69,C  34)                  1.0813         0.371857   
     80. B(H  70,C  35)                  1.0811         0.372074   
     81. B(H  71,C  36)                  1.0814         0.371612   
     82. B(H  72,C  37)                  1.0815         0.371543   
     83. B(H  73,C  38)                  1.0812         0.371966   
     84. B(H  74,C  39)                  1.0813         0.371752   
     85. B(H  75,C  40)                  1.0816         0.371419   
     86. B(H  76,C  47)                  1.0809         0.372314   
     87. B(H  77,C  48)                  1.0806         0.372806   
     88. B(H  78,C  49)                  1.0810         0.372249   
     89. B(H  79,C  50)                  1.0812         0.371968   
     90. B(H  80,C  51)                  1.0812         0.371923   
     91. B(H  81,C  52)                  1.0810         0.372195   
     92. B(H  82,C  53)                  1.0806         0.372752   
     93. B(H  83,C  54)                  1.0808         0.372455   
     94. A(C   1,C   0,H  55)          119.4028         0.357839   
     95. A(C   5,C   0,H  55)          120.0287         0.354868   
     96. A(C   1,C   0,C   5)          120.5489         0.437682   
     97. A(C   0,C   1,C   2)          120.3753         0.438862   
     98. A(C   0,C   1,H  56)          120.2368         0.358154   
     99. A(C   2,C   1,H  56)          119.3872         0.356079   
    100. A(C   3,C   2,C   6)          120.1844         0.411748   
    101. A(C   1,C   2,C   3)          119.2103         0.435362   
    102. A(C   1,C   2,C   6)          120.6044         0.412496   
    103. A(C   2,C   3,H  57)          119.1756         0.355468   
    104. A(C   4,C   3,H  57)          120.4135         0.358789   
    105. A(C   2,C   3,C   4)          120.4107         0.438868   
    106. A(C   3,C   4,H  58)          120.4804         0.358634   
    107. A(C   5,C   4,H  58)          118.9328         0.355078   
    108. A(C   3,C   4,C   5)          120.5860         0.438556   
    109. A(C   0,C   5,C   4)          118.8563         0.433887   
    110. A(C   4,C   5,C  24)          119.7448         0.409242   
    111. A(C   0,C   5,C  24)          121.3978         0.409187   
    112. A(N   7,C   6,N  11)          123.6701         0.447386   
    113. A(C   2,C   6,N   7)          118.1115         0.419724   
    114. A(C   2,C   6,N  11)          118.2182         0.415654   
    115. A(C   6,N   7,C   8)          117.5301         0.448363   
    116. A(N   7,C   8,N   9)          122.3689         0.442740   
    117. A(N   7,C   8,C  18)          118.9277         0.422502   
    118. A(N   9,C   8,C  18)          118.7029         0.420469   
    119. A(C   8,N   9,C  10)          115.6062         0.447322   
    120. A(N  11,C  10,C  12)          117.1760         0.418074   
    121. A(N   9,C  10,N  11)          126.0845         0.452728   
    122. A(N   9,C  10,C  12)          116.7394         0.419396   
    123. A(C   6,N  11,C  10)          114.7358         0.447100   
    124. A(C  10,C  12,C  17)          120.1642         0.408018   
    125. A(C  13,C  12,C  17)          119.0910         0.429536   
    126. A(C  10,C  12,C  13)          120.7215         0.408080   
    127. A(C  14,C  13,H  59)          120.6311         0.361419   
    128. A(C  12,C  13,H  59)          118.4670         0.353473   
    129. A(C  12,C  13,C  14)          120.8930         0.439836   
    130. A(C  13,C  14,C  15)          120.3020         0.434217   
    131. A(C  15,C  14,H  60)          120.1064         0.349886   
    132. A(C  13,C  14,H  60)          119.5763         0.362098   
    133. A(C  14,C  15,C  16)          118.3077         0.418866   
    134. A(C  16,C  15,N  41)          120.6376         0.424490   
    135. A(C  14,C  15,N  41)          120.9988         0.424402   
    136. A(C  15,C  16,C  17)          120.3102         0.434687   
    137. A(C  15,C  16,H  61)          120.1167         0.349973   
    138. A(C  17,C  16,H  61)          119.5535         0.362418   
    139. A(C  12,C  17,H  62)          118.3414         0.353482   
    140. A(C  12,C  17,C  16)          120.9541         0.440154   
    141. A(C  16,C  17,H  62)          120.6998         0.361781   
    142. A(C   8,C  18,C  19)          121.1307         0.416962   
    143. A(C  19,C  18,C  23)          117.8902         0.433035   
    144. A(C   8,C  18,C  23)          120.9737         0.416822   
    145. A(C  20,C  19,H  63)          119.4334         0.359709   
    146. A(C  18,C  19,H  63)          119.1590         0.354833   
    147. A(C  18,C  19,C  20)          121.4070         0.439496   
    148. A(C  19,C  20,H  64)          119.2845         0.360175   
    149. A(C  19,C  20,C  21)          120.6937         0.436911   
    150. A(C  21,C  20,H  64)          120.0156         0.353327   
    151. A(C  22,C  21,N  27)          121.0910         0.422148   
    152. A(C  20,C  21,N  27)          120.9942         0.422090   
    153. A(C  20,C  21,C  22)          117.9134         0.428183   
    154. A(C  23,C  22,H  65)          119.2117         0.360151   
    155. A(C  21,C  22,H  65)          120.0201         0.353381   
    156. A(C  21,C  22,C  23)          120.7627         0.436929   
    157. A(C  18,C  23,H  66)          119.0714         0.354712   
    158. A(C  22,C  23,H  66)          119.6040         0.359668   
    159. A(C  18,C  23,C  22)          121.3227         0.439303   
    160. A(S  25,C  24,S  26)          123.7850         0.470433   
    161. A(C   5,C  24,S  26)          113.0604         0.408713   
    162. A(C   5,C  24,S  25)          123.1524         0.443702   
    163. A(C  24,S  26,H  67)           95.6053         0.383143   
    164. A(C  28,N  27,C  32)          114.2603         0.395379   
    165. A(C  21,N  27,C  32)          120.8283         0.405523   
    166. A(C  21,N  27,C  28)          120.6257         0.405678   
    167. A(N  27,C  28,C  29)          118.4679         0.415123   
    168. A(C  29,C  28,C  37)          120.0231         0.437280   
    169. A(N  27,C  28,C  37)          121.5001         0.416356   
    170. A(C  28,C  29,S  30)          119.0523         0.429692   
    171. A(C  28,C  29,C  40)          119.9051         0.436588   
    172. A(S  30,C  29,C  40)          121.0348         0.430300   
    173. A(C  29,S  30,C  31)           98.0623         0.423313   
    174. A(C  32,C  31,C  33)          119.9415         0.436686   
    175. A(S  30,C  31,C  33)          120.9479         0.430166   
    176. A(S  30,C  31,C  32)          119.1032         0.429482   
    177. A(C  31,C  32,C  36)          120.0306         0.437315   
    178. A(N  27,C  32,C  36)          121.5598         0.416218   
    179. A(N  27,C  32,C  31)          118.3946         0.414972   
    180. A(C  31,C  33,H  68)          119.6980         0.356042   
    181. A(C  31,C  33,C  34)          119.7789         0.438568   
    182. A(C  34,C  33,H  68)          120.5190         0.356949   
    183. A(C  35,C  34,H  69)          120.0917         0.356199   
    184. A(C  33,C  34,H  69)          119.6496         0.357017   
    185. A(C  33,C  34,C  35)          120.2400         0.438684   
    186. A(C  36,C  35,H  70)          119.8160         0.357027   
    187. A(C  34,C  35,H  70)          120.1550         0.356234   
    188. A(C  34,C  35,C  36)          120.0248         0.438650   
    189. A(C  35,C  36,H  71)          120.9413         0.356952   
    190. A(C  32,C  36,H  71)          119.1546         0.356554   
    191. A(C  32,C  36,C  35)          119.8969         0.439167   
    192. A(C  28,C  37,H  72)          119.0806         0.356523   
    193. A(C  28,C  37,C  38)          119.9382         0.439131   
    194. A(C  38,C  37,H  72)          120.9737         0.356932   
    195. A(C  37,C  38,C  39)          119.9959         0.438578   
    196. A(C  39,C  38,H  73)          120.1570         0.356170   
    197. A(C  37,C  38,H  73)          119.8425         0.357001   
    198. A(C  38,C  39,C  40)          120.2280         0.438632   
    199. A(C  40,C  39,H  74)          119.6333         0.357007   
    200. A(C  38,C  39,H  74)          120.1150         0.356135   
    201. A(C  29,C  40,C  39)          119.8199         0.438488   
    202. A(C  39,C  40,H  75)          120.5383         0.356953   
    203. A(C  29,C  40,H  75)          119.6354         0.355971   
    204. A(C  42,N  41,C  46)          114.2860         0.394873   
    205. A(C  15,N  41,C  46)          122.9331         0.412110   
    206. A(C  15,N  41,C  42)          122.5090         0.411923   
    207. A(C  43,C  42,C  47)          120.9538         0.435574   
    208. A(N  41,C  42,C  47)          121.3326         0.414977   
    209. A(N  41,C  42,C  43)          117.6904         0.414012   
    210. A(S  44,C  43,C  50)          120.5919         0.432692   
    211. A(C  42,C  43,C  50)          118.9823         0.435464   
    212. A(C  42,C  43,S  44)          120.4205         0.431783   
    213. A(C  43,S  44,C  45)           97.6289         0.428769   
    214. A(C  46,C  45,C  51)          118.9841         0.435362   
    215. A(S  44,C  45,C  51)          120.5168         0.432462   
    216. A(S  44,C  45,C  46)          120.4972         0.431364   
    217. A(C  45,C  46,C  54)          120.9123         0.435407   
    218. A(N  41,C  46,C  54)          121.4574         0.415147   
    219. A(N  41,C  46,C  45)          117.5970         0.414062   
    220. A(C  42,C  47,C  48)          119.3684         0.439403   
    221. A(C  48,C  47,H  76)          120.8546         0.358034   
    222. A(C  42,C  47,H  76)          119.7754         0.355885   
    223. A(C  47,C  48,C  49)          119.9789         0.439092   
    224. A(C  49,C  48,H  77)          120.2492         0.355728   
    225. A(C  47,C  48,H  77)          119.7699         0.358115   
    226. A(C  48,C  49,C  50)          120.5561         0.438511   
    227. A(C  50,C  49,H  78)          119.4909         0.357577   
    228. A(C  48,C  49,H  78)          119.9166         0.355637   
    229. A(C  43,C  50,C  49)          119.9949         0.438710   
    230. A(C  49,C  50,H  79)          120.4660         0.357531   
    231. A(C  43,C  50,H  79)          119.5125         0.355744   
    232. A(C  45,C  51,C  52)          120.0286         0.438720   
    233. A(C  52,C  51,H  80)          120.4410         0.357496   
    234. A(C  45,C  51,H  80)          119.5068         0.355771   
    235. A(C  51,C  52,C  53)          120.5284         0.438596   
    236. A(C  53,C  52,H  81)          119.9109         0.355721   
    237. A(C  51,C  52,H  81)          119.5302         0.357541   
    238. A(C  52,C  53,C  54)          120.0057         0.439223   
    239. A(C  54,C  53,H  82)          119.7448         0.358114   
    240. A(C  52,C  53,H  82)          120.2460         0.355811   
    241. A(C  46,C  54,C  53)          119.3910         0.439393   
    242. A(C  53,C  54,H  83)          120.7943         0.358065   
    243. A(C  46,C  54,H  83)          119.8119         0.355892   
    244. D(H  56,C   1,C   0,C   5)   -179.2105         0.029438   
    245. D(H  56,C   1,C   0,H  55)     -0.8201         0.029438   
    246. D(C   2,C   1,C   0,H  55)    179.4752         0.029438   
    247. D(C   2,C   1,C   0,C   5)      1.0848         0.029438   
    248. D(C   3,C   2,C   1,H  56)    179.5576         0.027367   
    249. D(C   6,C   2,C   1,C   0)    178.9163         0.027367   
    250. D(C   3,C   2,C   1,C   0)     -0.7353         0.027367   
    251. D(C   6,C   2,C   1,H  56)     -0.7909         0.027367   
    252. D(C   4,C   3,C   2,C   1)     -0.2958         0.026779   
    253. D(C   4,C   3,C   2,C   6)   -179.9488         0.026779   
    254. D(H  57,C   3,C   2,C   1)    179.8192         0.026779   
    255. D(H  57,C   3,C   2,C   6)      0.1662         0.026779   
    256. D(H  58,C   4,C   3,C   2)   -179.3419         0.030096   
    257. D(C   5,C   4,C   3,H  57)   -179.1319         0.030096   
    258. D(C   5,C   4,C   3,C   2)      0.9845         0.030096   
    259. D(H  58,C   4,C   3,H  57)      0.5417         0.030096   
    260. D(C   4,C   5,C   0,C   1)     -0.3970         0.026514   
    261. D(C   0,C   5,C   4,H  58)    179.6854         0.026556   
    262. D(C  24,C   5,C   4,C   3)    179.7419         0.026556   
    263. D(C  24,C   5,C   4,H  58)      0.0633         0.026556   
    264. D(C  24,C   5,C   0,H  55)      0.8383         0.026514   
    265. D(C   0,C   5,C   4,C   3)     -0.6360         0.026556   
    266. D(C   4,C   5,C   0,H  55)   -178.7773         0.026514   
    267. D(C  24,C   5,C   0,C   1)    179.2187         0.026514   
    268. D(N  11,C   6,C   2,C   1)      6.9049         0.014412   
    269. D(N   7,C   6,C   2,C   3)      6.7219         0.014412   
    270. D(N  11,C   6,C   2,C   3)   -173.4469         0.014412   
    271. D(N   7,C   6,C   2,C   1)   -172.9262         0.014412   
    272. D(C   8,N   7,C   6,N  11)     -0.7213         0.038865   
    273. D(C   8,N   7,C   6,C   2)    179.0999         0.038865   
    274. D(N   9,C   8,N   7,C   6)      0.4593         0.035392   
    275. D(C  18,C   8,N   7,C   6)   -179.2996         0.035392   
    276. D(C  10,N   9,C   8,C  18)    179.8645         0.033368   
    277. D(C  10,N   9,C   8,N   7)      0.1051         0.033368   
    278. D(C  12,C  10,N   9,C   8)    179.6472         0.040100   
    279. D(N  11,C  10,N   9,C   8)     -0.4877         0.040100   
    280. D(C   6,N  11,C  10,C  12)   -179.8772         0.038565   
    281. D(C  10,N  11,C   6,N   7)      0.3802         0.034474   
    282. D(C  10,N  11,C   6,C   2)   -179.4408         0.034474   
    283. D(C   6,N  11,C  10,N   9)      0.2582         0.038565   
    284. D(C  17,C  12,C  10,N  11)   -177.1022         0.013894   
    285. D(C  13,C  12,C  10,N  11)      4.6699         0.013894   
    286. D(C  13,C  12,C  10,N   9)   -175.4527         0.013894   
    287. D(C  17,C  12,C  10,N   9)      2.7752         0.013894   
    288. D(H  59,C  13,C  12,C  17)   -177.0291         0.025029   
    289. D(H  59,C  13,C  12,C  10)      1.2176         0.025029   
    290. D(C  14,C  13,C  12,C  17)      1.8922         0.025029   
    291. D(C  14,C  13,C  12,C  10)   -179.8611         0.025029   
    292. D(C  15,C  14,C  13,H  59)   -179.8877         0.033096   
    293. D(H  60,C  14,C  13,H  59)      1.5345         0.033096   
    294. D(C  15,C  14,C  13,C  12)      1.2144         0.033096   
    295. D(H  60,C  14,C  13,C  12)   -177.3635         0.033096   
    296. D(N  41,C  15,C  14,H  60)     -2.6436         0.021557   
    297. D(N  41,C  15,C  14,C  13)    178.7861         0.021557   
    298. D(C  16,C  15,C  14,C  13)     -3.9155         0.021557   
    299. D(C  16,C  15,C  14,H  60)    174.6547         0.021557   
    300. D(H  61,C  16,C  15,N  41)      2.5000         0.021609   
    301. D(H  61,C  16,C  15,C  14)   -174.8085         0.021609   
    302. D(C  17,C  16,C  15,N  41)   -179.1186         0.021609   
    303. D(C  17,C  16,C  15,C  14)      3.5728         0.021609   
    304. D(C  16,C  17,C  12,C  13)     -2.2419         0.024984   
    305. D(C  16,C  17,C  12,C  10)    179.5014         0.024984   
    306. D(H  62,C  17,C  12,C  10)     -1.2791         0.024984   
    307. D(H  62,C  17,C  16,H  61)     -1.3386         0.033445   
    308. D(H  62,C  17,C  16,C  15)   -179.7290         0.033445   
    309. D(C  12,C  17,C  16,H  61)    177.8625         0.033445   
    310. D(C  12,C  17,C  16,C  15)     -0.5280         0.033445   
    311. D(H  62,C  17,C  12,C  13)    176.9776         0.024984   
    312. D(C  23,C  18,C   8,N   9)   -178.6827         0.016897   
    313. D(C  23,C  18,C   8,N   7)      1.0850         0.016897   
    314. D(C  19,C  18,C   8,N   9)      0.4556         0.016897   
    315. D(C  19,C  18,C   8,N   7)   -179.7766         0.016897   
    316. D(H  63,C  19,C  18,C  23)    178.9876         0.026282   
    317. D(H  63,C  19,C  18,C   8)     -0.1766         0.026282   
    318. D(C  20,C  19,C  18,C  23)     -0.7351         0.026282   
    319. D(C  20,C  19,C  18,C   8)   -179.8992         0.026282   
    320. D(H  64,C  20,C  19,H  63)     -0.6462         0.031198   
    321. D(H  64,C  20,C  19,C  18)    179.0757         0.031198   
    322. D(C  21,C  20,C  19,H  63)   -179.7416         0.031198   
    323. D(C  21,C  20,C  19,C  18)     -0.0197         0.031198   
    324. D(N  27,C  21,C  20,H  64)      1.3683         0.024528   
    325. D(C  22,C  21,C  20,H  64)   -178.2105         0.024528   
    326. D(C  22,C  21,C  20,C  19)      0.8783         0.024528   
    327. D(N  27,C  21,C  20,C  19)   -179.5429         0.024528   
    328. D(H  65,C  22,C  21,N  27)     -1.4214         0.024567   
    329. D(H  65,C  22,C  21,C  20)    178.1569         0.024567   
    330. D(C  23,C  22,C  21,N  27)    179.4335         0.024567   
    331. D(C  23,C  22,C  21,C  20)     -0.9881         0.024567   
    332. D(H  66,C  23,C  22,H  65)      0.5804         0.031162   
    333. D(C  18,C  23,C  22,H  65)   -178.9102         0.031162   
    334. D(C  18,C  23,C  22,C  21)      0.2417         0.031162   
    335. D(H  66,C  23,C  18,C  19)   -178.8693         0.026177   
    336. D(H  66,C  23,C  22,C  21)    179.7323         0.031162   
    337. D(H  66,C  23,C  18,C   8)      0.2962         0.026177   
    338. D(C  22,C  23,C  18,C  19)      0.6239         0.026177   
    339. D(C  22,C  23,C  18,C   8)    179.7894         0.026177   
    340. D(S  26,C  24,C   5,C   4)   -147.1425         0.013572   
    341. D(S  26,C  24,C   5,C   0)     33.2452         0.013572   
    342. D(S  25,C  24,C   5,C   4)     32.3392         0.013572   
    343. D(S  25,C  24,C   5,C   0)   -147.2731         0.013572   
    344. D(H  67,S  26,C  24,S  25)      3.7804         0.004551   
    345. D(H  67,S  26,C  24,C   5)   -176.7417         0.004551   
    346. D(C  32,N  27,C  21,C  22)     12.8249         0.026162   
    347. D(C  32,N  27,C  21,C  20)   -166.7405         0.026162   
    348. D(C  28,N  27,C  21,C  22)    168.2409         0.026162   
    349. D(C  28,N  27,C  21,C  20)    -11.3244         0.026162   
    350. D(C  37,C  28,N  27,C  32)   -128.0828         0.019362   
    351. D(C  37,C  28,N  27,C  21)     74.9868         0.019362   
    352. D(C  29,C  28,N  27,C  32)     50.8348         0.019362   
    353. D(C  29,C  28,N  27,C  21)   -106.0956         0.019362   
    354. D(C  40,C  29,C  28,C  37)     -2.5746         0.027295   
    355. D(C  40,C  29,C  28,N  27)    178.4914         0.027295   
    356. D(S  30,C  29,C  28,C  37)    176.4206         0.027295   
    357. D(S  30,C  29,C  28,N  27)     -2.5135         0.027295   
    358. D(C  31,S  30,C  29,C  40)    143.2578         0.004190   
    359. D(C  31,S  30,C  29,C  28)    -35.7257         0.004190   
    360. D(C  33,C  31,S  30,C  29)   -142.9978         0.004174   
    361. D(C  32,C  31,S  30,C  29)     36.0139         0.004174   
    362. D(C  36,C  32,C  31,C  33)      2.3808         0.027302   
    363. D(C  36,C  32,C  31,S  30)   -176.6411         0.027302   
    364. D(N  27,C  32,C  31,C  33)   -179.0083         0.027302   
    365. D(N  27,C  32,C  31,S  30)      1.9698         0.027302   
    366. D(C  36,C  32,N  27,C  28)    128.0894         0.019276   
    367. D(C  36,C  32,N  27,C  21)    -75.0316         0.019276   
    368. D(C  31,C  32,N  27,C  28)    -50.4992         0.019276   
    369. D(C  31,C  32,N  27,C  21)    106.3798         0.019276   
    370. D(C  34,C  33,C  31,S  30)    179.2441         0.027823   
    371. D(H  68,C  33,C  31,C  32)   -179.0244         0.027823   
    372. D(H  68,C  33,C  31,S  30)     -0.0208         0.027823   
    373. D(C  34,C  33,C  31,C  32)      0.2405         0.027823   
    374. D(H  69,C  34,C  33,H  68)     -1.1044         0.028726   
    375. D(H  69,C  34,C  33,C  31)    179.6368         0.028726   
    376. D(C  35,C  34,C  33,H  68)    177.3258         0.028726   
    377. D(C  35,C  34,C  33,C  31)     -1.9330         0.028726   
    378. D(H  70,C  35,C  34,H  69)      0.1697         0.027909   
    379. D(H  70,C  35,C  34,C  33)   -178.2535         0.027909   
    380. D(C  36,C  35,C  34,H  69)    179.4298         0.027909   
    381. D(C  36,C  35,C  34,C  33)      1.0066         0.027909   
    382. D(H  71,C  36,C  35,H  70)     -0.1055         0.028699   
    383. D(H  71,C  36,C  35,C  34)   -179.3681         0.028699   
    384. D(C  32,C  36,C  35,H  70)   -179.1169         0.028699   
    385. D(C  32,C  36,C  35,C  34)      1.6205         0.028699   
    386. D(H  71,C  36,C  32,C  31)    177.6616         0.028300   
    387. D(H  71,C  36,C  32,N  27)     -0.9043         0.028300   
    388. D(C  35,C  36,C  32,C  31)     -3.3093         0.028300   
    389. D(C  35,C  36,C  32,N  27)    178.1248         0.028300   
    390. D(H  72,C  37,C  28,C  29)   -177.6730         0.028281   
    391. D(H  72,C  37,C  28,N  27)      1.2280         0.028281   
    392. D(C  38,C  37,C  28,C  29)      3.3117         0.028281   
    393. D(C  38,C  37,C  28,N  27)   -177.7873         0.028281   
    394. D(H  73,C  38,C  37,H  72)      0.3416         0.028691   
    395. D(H  73,C  38,C  37,C  28)    179.3379         0.028691   
    396. D(C  39,C  38,C  37,H  72)    179.5653         0.028691   
    397. D(C  39,C  38,C  37,C  28)     -1.4384         0.028691   
    398. D(H  74,C  39,C  38,H  73)     -0.1854         0.027863   
    399. D(H  74,C  39,C  38,C  37)   -179.4067         0.027863   
    400. D(C  40,C  39,C  38,H  73)    178.0408         0.027863   
    401. D(C  40,C  39,C  38,C  37)     -1.1805         0.027863   
    402. D(H  75,C  40,C  39,H  74)      1.0704         0.028733   
    403. D(H  75,C  40,C  39,C  38)   -177.1644         0.028733   
    404. D(C  29,C  40,C  39,H  74)   -179.8512         0.028733   
    405. D(C  29,C  40,C  39,C  38)      1.9141         0.028733   
    406. D(H  75,C  40,C  29,S  30)      0.0741         0.027756   
    407. D(H  75,C  40,C  29,C  28)    179.0489         0.027756   
    408. D(C  39,C  40,C  29,S  30)   -179.0127         0.027756   
    409. D(C  39,C  40,C  29,C  28)     -0.0379         0.027756   
    410. D(C  46,N  41,C  15,C  16)   -174.6277         0.031881   
    411. D(C  46,N  41,C  15,C  14)      2.6078         0.031881   
    412. D(C  42,N  41,C  15,C  16)     -0.9632         0.031881   
    413. D(C  42,N  41,C  15,C  14)    176.2723         0.031881   
    414. D(C  47,C  42,N  41,C  46)   -126.8802         0.019124   
    415. D(C  47,C  42,N  41,C  15)     58.9517         0.019124   
    416. D(C  43,C  42,N  41,C  46)     51.3854         0.019124   
    417. D(C  43,C  42,N  41,C  15)   -122.7827         0.019124   
    418. D(C  50,C  43,C  42,C  47)     -4.6146         0.026774   
    419. D(C  50,C  43,C  42,N  41)    177.1129         0.026774   
    420. D(S  44,C  43,C  42,C  47)    174.5476         0.026774   
    421. D(S  44,C  43,C  42,N  41)     -3.7249         0.026774   
    422. D(C  45,S  44,C  43,C  50)    145.2067         0.004400   
    423. D(C  45,S  44,C  43,C  42)    -33.9419         0.004400   
    424. D(C  51,C  45,S  44,C  43)   -145.0687         0.004379   
    425. D(C  46,C  45,S  44,C  43)     34.4269         0.004379   
    426. D(C  54,C  46,C  45,C  51)      4.4111         0.026667   
    427. D(C  54,C  46,C  45,S  44)   -175.0922         0.026667   
    428. D(N  41,C  46,C  45,C  51)   -177.6579         0.026667   
    429. D(N  41,C  46,C  45,S  44)      2.8389         0.026667   
    430. D(C  54,C  46,N  41,C  42)    127.0742         0.019225   
    431. D(C  54,C  46,N  41,C  15)    -58.7856         0.019225   
    432. D(C  45,C  46,N  41,C  42)    -50.8449         0.019225   
    433. D(C  45,C  46,N  41,C  15)    123.2953         0.019225   
    434. D(H  76,C  47,C  42,C  43)   -175.9160         0.027530   
    435. D(H  76,C  47,C  42,N  41)      2.2932         0.027530   
    436. D(C  48,C  47,C  42,C  43)      3.6267         0.027530   
    437. D(C  48,C  47,C  42,N  41)   -178.1642         0.027530   
    438. D(H  77,C  48,C  47,H  76)     -0.0470         0.029694   
    439. D(H  77,C  48,C  47,C  42)   -179.5846         0.029694   
    440. D(C  49,C  48,C  47,H  76)    179.4372         0.029694   
    441. D(C  49,C  48,C  47,C  42)     -0.1004         0.029694   
    442. D(H  78,C  49,C  48,H  77)     -0.7055         0.027301   
    443. D(H  78,C  49,C  48,C  47)    179.8128         0.027301   
    444. D(C  50,C  49,C  48,H  77)    177.0883         0.027301   
    445. D(C  50,C  49,C  48,C  47)     -2.3934         0.027301   
    446. D(H  79,C  50,C  49,H  78)      1.0607         0.029231   
    447. D(H  79,C  50,C  49,C  48)   -176.7424         0.029231   
    448. D(C  43,C  50,C  49,H  78)    179.1801         0.029231   
    449. D(C  43,C  50,C  49,C  48)      1.3769         0.029231   
    450. D(H  79,C  50,C  43,S  44)      1.0629         0.027448   
    451. D(H  79,C  50,C  43,C  42)   -179.7764         0.027448   
    452. D(C  49,C  50,C  43,S  44)   -177.0744         0.027448   
    453. D(C  49,C  50,C  43,C  42)      2.0863         0.027448   
    454. D(H  80,C  51,C  45,C  46)    179.8408         0.027482   
    455. D(H  80,C  51,C  45,S  44)     -0.6560         0.027482   
    456. D(C  52,C  51,C  45,C  46)     -1.9201         0.027482   
    457. D(C  52,C  51,C  45,S  44)    177.5831         0.027482   
    458. D(H  81,C  52,C  51,H  80)     -1.0439         0.029203   
    459. D(H  81,C  52,C  51,C  45)   -179.2664         0.029203   
    460. D(C  53,C  52,C  51,H  80)    176.9431         0.029203   
    461. D(C  53,C  52,C  51,C  45)     -1.2793         0.029203   
    462. D(H  82,C  53,C  52,H  81)      0.7230         0.027390   
    463. D(H  82,C  53,C  52,C  51)   -177.2564         0.027390   
    464. D(C  54,C  53,C  52,H  81)   -179.9591         0.027390   
    465. D(C  54,C  53,C  52,C  51)      2.0615         0.027390   
    466. D(H  83,C  54,C  53,H  82)      0.3173         0.029702   
    467. D(H  83,C  54,C  53,C  52)   -179.0040         0.029702   
    468. D(C  46,C  54,C  53,H  82)    179.7171         0.029702   
    469. D(C  46,C  54,C  53,C  52)      0.3957         0.029702   
    470. D(H  83,C  54,C  46,C  45)    175.7506         0.027515   
    471. D(H  83,C  54,C  46,N  41)     -2.0999         0.027515   
    472. D(C  53,C  54,C  46,C  45)     -3.6552         0.027515   
    473. D(C  53,C  54,C  46,N  41)    178.4943         0.027515   
    -----------------------------------------------------------------

Number of atoms                         .... 84
Number of degrees of freedom            .... 473

         *************************************************************
         *                GEOMETRY OPTIMIZATION CYCLE   1            *
         *************************************************************
---------------------------------
CARTESIAN COORDINATES (ANGSTROEM)
---------------------------------
  C     -8.341574   -1.169311    0.571118
  C     -6.966313   -1.190113    0.469802
  C     -6.258244   -0.010651    0.281914
  C     -6.953682    1.190123    0.181686
  C     -8.327577    1.208298    0.261637
  C     -9.041088    0.029994    0.464178
  C     -4.787394   -0.024195    0.196770
  N     -4.154849    1.136024    0.160658
  C     -2.822826    1.110298    0.102151
  N     -2.127643   -0.035895    0.070577
  C     -2.847474   -1.139690    0.098985
  N     -4.167022   -1.207906    0.163827
  C     -2.106480   -2.418333    0.057088
  C     -2.789110   -3.638572   -0.012404
  C     -2.108904   -4.820692   -0.048401
  C     -0.690823   -4.833019    0.010174
  C     -0.006950   -3.589698    0.020983
  C     -0.706343   -2.420156    0.049250
  C     -2.096666    2.367070    0.076775
  C     -0.704823    2.393795    0.011261
  C     -0.012832    3.578038   -0.010953
  C     -0.691510    4.804706    0.031543
  C     -2.091042    4.778068    0.116025
  C     -2.770322    3.586265    0.135210
  C    -10.519506    0.071883    0.553043
  S    -11.426896    1.137446   -0.264779
  S    -11.173868   -1.131021    1.636088
  N      0.000000    6.003383   -0.000000
  C      1.413562    6.029571    0.164747
  C      1.931295    6.488355    1.368994
  S      0.824410    7.077417    2.607410
  C     -0.362445    7.828160    1.541406
  C     -0.649354    7.229134    0.321777
  C     -0.991847    9.011325    1.896250
  C     -1.906998    9.587159    1.035104
  C     -2.166817    9.007571   -0.196727
  C     -1.525538    7.838041   -0.559958
  C      2.267443    5.631949   -0.849622
  C      3.633719    5.626968   -0.639051
  C      4.149038    6.048244    0.576842
  C      3.302785    6.497200    1.573267
  N     -0.000000   -6.003383    0.000000
  C      1.424031   -6.051982   -0.020624
  C      2.032354   -6.740519   -1.065354
  S      1.062411   -7.595781   -2.248174
  C     -0.229553   -8.094840   -1.172781
  C     -0.631361   -7.274179   -0.122976
  C      2.180693   -5.465759    0.984111
  C      3.555885   -5.503942    0.904155
  C      4.171293   -6.126873   -0.173753
  C      3.418052   -6.753726   -1.145453
  C     -0.860037   -9.318663   -1.349015
  C     -1.841441   -9.723364   -0.467017
  C     -2.188473   -8.926856    0.615870
  C     -1.581721   -7.702387    0.793177
  H     -8.877542   -2.097596    0.708683
  H     -6.430180   -2.124128    0.540743
  H     -6.402549    2.106947    0.038590
  H     -8.869178    2.138441    0.173389
  H     -3.867771   -3.623104   -0.054801
  H     -2.653467   -5.744406   -0.144780
  H      1.068516   -3.564398   -0.019417
  H     -0.192693   -1.470896    0.053227
  H     -0.161539    1.461174   -0.018083
  H      1.064050    3.558714   -0.046816
  H     -2.644905    5.700190    0.180672
  H     -3.847816    3.587499    0.205050
  H    -12.458391   -0.839081    1.395096
  H     -0.753720    9.482792    2.840066
  H     -2.401039   10.506850    1.316534
  H     -2.861756    9.474346   -0.880794
  H     -1.709490    7.378584   -1.521498
  H      1.848745    5.313221   -1.794457
  H      4.298636    5.305902   -1.428823
  H      5.217932    6.054213    0.740273
  H      3.702062    6.869822    2.506828
  H      1.686990   -4.992615    1.821238
  H      4.151443   -5.055414    1.686296
  H      5.250078   -6.153588   -0.236999
  H      3.899676   -7.283100   -1.955845
  H     -0.556368   -9.961757   -2.163399
  H     -2.318869  -10.683364   -0.604997
  H     -2.925932   -9.267940    1.328268
  H     -1.830531   -7.079055    1.640359

----------------------------
CARTESIAN COORDINATES (A.U.)
----------------------------
  NO LB      ZA    FRAG     MASS         X           Y           Z
   0 C     6.0000    0    12.011  -15.763291   -2.209678    1.079257
   1 C     6.0000    0    12.011  -13.164424   -2.248989    0.887797
   2 C     6.0000    0    12.011  -11.826368   -0.020127    0.532740
   3 C     6.0000    0    12.011  -13.140554    2.249006    0.343337
   4 C     6.0000    0    12.011  -15.736839    2.283352    0.494423
   5 C     6.0000    0    12.011  -17.085180    0.056680    0.877169
   6 C     6.0000    0    12.011   -9.046864   -0.045721    0.371842
   7 N     7.0000    0    14.007   -7.851527    2.146774    0.303599
   8 C     6.0000    0    12.011   -5.334367    2.098160    0.193038
   9 N     7.0000    0    14.007   -4.020662   -0.067832    0.133371
  10 C     6.0000    0    12.011   -5.380947   -2.153703    0.187055
  11 N     7.0000    0    14.007   -7.874530   -2.282611    0.309588
  12 C     6.0000    0    12.011   -3.980670   -4.569988    0.107880
  13 C     6.0000    0    12.011   -5.270654   -6.875904   -0.023441
  14 C     6.0000    0    12.011   -3.985251   -9.109789   -0.091464
  15 C     6.0000    0    12.011   -1.305466   -9.133082    0.019226
  16 C     6.0000    0    12.011   -0.013134   -6.783546    0.039652
  17 C     6.0000    0    12.011   -1.334795   -4.573433    0.093070
  18 C     6.0000    0    12.011   -3.962124    4.473113    0.145084
  19 C     6.0000    0    12.011   -1.331923    4.523616    0.021280
  20 C     6.0000    0    12.011   -0.024248    6.761511   -0.020699
  21 C     6.0000    0    12.011   -1.306764    9.079579    0.059607
  22 C     6.0000    0    12.011   -3.951497    9.029240    0.219255
  23 C     6.0000    0    12.011   -5.235149    6.777060    0.255509
  24 C     6.0000    0    12.011  -19.878986    0.135840    1.045100
  25 S    16.0000    0    32.060  -21.593704    2.149461   -0.500361
  26 S    16.0000    0    32.060  -21.115551   -2.137319    3.091758
  27 N     7.0000    0    14.007    0.000000   11.344749   -0.000000
  28 C     6.0000    0    12.011    2.671245   11.394239    0.311327
  29 C     6.0000    0    12.011    3.649618   12.261213    2.587025
  30 S    16.0000    0    32.060    1.557908   13.374379    4.927291
  31 C     6.0000    0    12.011   -0.684922   14.793078    2.912835
  32 C     6.0000    0    12.011   -1.227101   13.661084    0.608070
  33 C     6.0000    0    12.011   -1.874320   17.028936    3.583392
  34 C     6.0000    0    12.011   -3.603703   18.117105    1.956064
  35 C     6.0000    0    12.011   -4.094690   17.021842   -0.371760
  36 C     6.0000    0    12.011   -2.882849   14.811750   -1.058166
  37 C     6.0000    0    12.011    4.284847   10.642841   -1.605553
  38 C     6.0000    0    12.011    6.866734   10.633428   -1.207631
  39 C     6.0000    0    12.011    7.840546   11.429525    1.090073
  40 C     6.0000    0    12.011    6.241359   12.277930    2.973044
  41 N     7.0000    0    14.007   -0.000000  -11.344749    0.000000
  42 C     6.0000    0    12.011    2.691028  -11.436588   -0.038974
  43 C     6.0000    0    12.011    3.840593  -12.737735   -2.013227
  44 S    16.0000    0    32.060    2.007666  -14.353947   -4.248432
  45 C     6.0000    0    12.011   -0.433792  -15.297030   -2.216235
  46 C     6.0000    0    12.011   -1.193099  -13.746207   -0.232391
  47 C     6.0000    0    12.011    4.120912  -10.328788    1.859701
  48 C     6.0000    0    12.011    6.719649  -10.400942    1.708605
  49 C     6.0000    0    12.011    7.882602  -11.578111   -0.328346
  50 C     6.0000    0    12.011    6.459181  -12.762693   -2.164592
  51 C     6.0000    0    12.011   -1.625235  -17.609720   -2.549268
  52 C     6.0000    0    12.011   -3.479819  -18.374495   -0.882534
  53 C     6.0000    0    12.011   -4.135614  -16.869313    1.163825
  54 C     6.0000    0    12.011   -2.989020  -14.555402    1.498888
  55 H     1.0000    0     1.008  -16.776123   -3.963882    1.339217
  56 H     1.0000    0     1.008  -12.151278   -4.014020    1.021857
  57 H     1.0000    0     1.008  -12.099065    3.981553    0.072924
  58 H     1.0000    0     1.008  -16.760317    4.041068    0.327657
  59 H     1.0000    0     1.008   -7.309027   -6.846673   -0.103559
  60 H     1.0000    0     1.008   -5.014326  -10.855354   -0.273594
  61 H     1.0000    0     1.008    2.019203   -6.735736   -0.036693
  62 H     1.0000    0     1.008   -0.364137   -2.779590    0.100584
  63 H     1.0000    0     1.008   -0.305264    2.761219   -0.034173
  64 H     1.0000    0     1.008    2.010763    6.724995   -0.088469
  65 H     1.0000    0     1.008   -4.998146   10.771798    0.341421
  66 H     1.0000    0     1.008   -7.271318    6.779391    0.387489
  67 H     1.0000    0     1.008  -23.542947   -1.585634    2.636350
  68 H     1.0000    0     1.008   -1.424325   17.919879    5.366947
  69 H     1.0000    0     1.008   -4.537307   19.855068    2.487889
  70 H     1.0000    0     1.008   -5.407936   17.903918   -1.664459
  71 H     1.0000    0     1.008   -3.230469   13.943503   -2.875215
  72 H     1.0000    0     1.008    3.493621   10.040532   -3.391032
  73 H     1.0000    0     1.008    8.123245   10.026701   -2.700084
  74 H     1.0000    0     1.008    9.860462   11.440805    1.398913
  75 H     1.0000    0     1.008    6.995882   12.982083    4.737219
  76 H     1.0000    0     1.008    3.187950   -9.434675    3.441641
  77 H     1.0000    0     1.008    7.845091   -9.553348    3.186637
  78 H     1.0000    0     1.008    9.921210  -11.628596   -0.447864
  79 H     1.0000    0     1.008    7.369320  -13.763064   -3.696012
  80 H     1.0000    0     1.008   -1.051384  -18.824993   -4.088231
  81 H     1.0000    0     1.008   -4.382027  -20.188633   -1.143279
  82 H     1.0000    0     1.008   -5.529211  -17.513868    2.510064
  83 H     1.0000    0     1.008   -3.459202  -13.377475    3.099828

--------------------------------
INTERNAL COORDINATES (ANGSTROEM)
--------------------------------
 C      0   0   0     0.000000000000     0.00000000     0.00000000
 C      1   0   0     1.379145025317     0.00000000     0.00000000
 C      2   1   0     1.388450728750   120.37533277     0.00000000
 C      3   2   1     1.391235401978   119.21025606   359.26474677
 C      4   3   2     1.376339475015   120.41072460   359.70424517
 C      5   4   3     1.392307618106   120.58600346     0.98454199
 C      3   2   1     1.473374815361   120.60442679   178.91632023
 N      7   3   2     1.321939396063   118.11147800   187.07375547
 C      8   7   3     1.333555988639   117.53014810   179.09994824
 N      9   8   7     1.340908658786   122.36892421     0.45926273
 C     10   9   8     1.318077689912   115.60622165     0.10512867
 N     11  10   9     1.322899208238   126.08445885   359.51233683
 C     11  10   9     1.478430375282   116.73938022   179.64723505
 C     13  11  10     1.399926987094   120.72149817   184.54734766
 C     14  13  11     1.364325903956   120.89299608   180.13887841
 C     15  14  13     1.419343971808   120.30203151     1.21439839
 C     16  15  14     1.419030197150   118.30766271   356.08446104
 C     17  16  15     1.363002822728   120.31020206     3.57284049
 C      9   8   7     1.451697773459   118.92771280   180.70041962
 C     19   9   8     1.393639633779   121.13072514   180.22337163
 C     20  19   9     1.371779025094   121.40699207   180.10081394
 C     21  20  19     1.402542301641   120.69365540     0.00000000
 C     22  21  20     1.402333018700   117.91339904     0.87827972
 C     23  22  21     1.371926353749   120.76271336   359.01188118
 C      6   5   4     1.481679159707   119.74477582   179.74188317
 S     25   6   5     1.620991212631   123.15242589    32.33920247
 S     25   6   5     1.745896376652   113.06041999   212.85746451
 N     22  21  20     1.384198520655   120.99423295   180.45705582
 C     28  22  21     1.423371200521   120.62565708   348.67558122
 C     29  28  22     1.388790975314   118.46793712   253.90439648
 S     30  29  28     1.762345693810   119.05231757   357.48651865
 C     31  30  29     1.763123475409    98.06231517   324.27432216
 C     32  31  30     1.388755970525   119.10317730    36.01392795
 C     32  31  30     1.386340878836   120.94792588   217.00215194
 C     34  32  31     1.382264619613   119.77886538   179.24405787
 C     35  34  32     1.385942482956   120.24004668   358.06700136
 C     36  35  34     1.382380341215   120.02482646     1.00656822
 C     29  28  22     1.384254796956   121.50009104    74.98680909
 C     38  29  28     1.382416389908   119.93820860   182.21267726
 C     39  38  29     1.386153757226   119.99589177   358.56161832
 C     40  39  38     1.382233616514   120.22803851   358.81952018
 N     16  15  14     1.359076969978   120.99883288   178.78607010
 C     42  16  15     1.425008998616   122.50895345   176.27228502
 C     43  42  16     1.391258754633   117.69038812   237.21729358
 S     44  43  42     1.752520018876   120.42045966   356.27508988
 C     45  44  43     1.753481524328    97.62890117   326.05813144
 C     46  45  44     1.391769805096   120.49722212    34.42688181
 C     43  42  16     1.387691653505   121.33264662    58.95171811
 C     48  43  42     1.378043909796   119.36842977   181.83583722
 C     49  48  43     1.388760509744   119.97887628   359.89963398
 C     50  49  48     1.380043001233   120.55608660   357.60656905
 C     46  45  44     1.387916517701   120.51675811   214.93125685
 C     52  46  45     1.380165281745   120.02861278   177.58305668
 C     53  52  46     1.388344053432   120.52836170   358.72067492
 C     54  53  52     1.378009082027   120.00573315     2.06154041
 H      1   2   3     1.080693457728   119.40281581   179.47519983
 H      2   1   3     1.079284475604   120.23677200   179.70469795
 H      4   3   2     1.079254444908   119.17563922   179.81923558
 H      5   4   3     1.079947290187   120.48035990   180.65813581
 H     14  13  11     1.079604019709   118.46702711     1.21758294
 H     15  14  13     1.076607839080   119.57629678   182.63654929
 H     17  16  15     1.076522074851   120.11668748   185.19150062
 H     18  17  16     1.079327344013   120.69981684   180.27098259
 H     20  19   9     1.079722293685   119.15903267   359.82344060
 H     21  20  19     1.077651617548   119.28452607   179.07566359
 H     23  22  21     1.077614445666   120.02013948   178.15691403
 H     24  23  22     1.079756055374   119.60403862   179.73227438
 H     27  25   6     1.339142865683    95.60525261   183.25831931
 H     34  32  31     1.081561329073   119.69803249     0.00000000
 H     35  34  32     1.081254303591   119.64957381   179.63680307
 H     36  35  34     1.081095617071   120.15502792   181.74645377
 H     37  36  35     1.081433931367   120.94130905   180.63191224
 H     38  29  28     1.081484598386   119.08062424     1.22798166
 H     39  38  29     1.081174626509   119.84252491   179.33786911
 H     40  39  38     1.081331738101   120.11501567   180.59331572
 H     41  40  39     1.081575035620   120.53831818   182.83563339
 H     48  43  42     1.080919980829   119.77536273     2.29316690
 H     49  48  43     1.080560654588   119.76986818   180.41542598
 H     50  49  48     1.080967801518   119.91656385   179.81276012
 H     51  50  49     1.081172960769   120.46603349   183.25759925
 H     52  46  45     1.081206404113   119.50677458   359.34397682
 H     53  52  46     1.081007100134   119.53017018   180.73362916
 H     54  53  52     1.080600045452   120.24596499   182.74360318
 H     55  54  53     1.080816965789   120.79430315   180.99597541

---------------------------
INTERNAL COORDINATES (A.U.)
---------------------------
 C      0   0   0     0.000000000000     0.00000000     0.00000000
 C      1   0   0     2.606206396810     0.00000000     0.00000000
 C      2   1   0     2.623791627780   120.37533277     0.00000000
 C      3   2   1     2.629053897555   119.21025606   359.26474677
 C      4   3   2     2.600904675084   120.41072460   359.70424517
 C      5   4   3     2.631080092393   120.58600346     0.98454199
 C      3   2   1     2.784274893649   120.60442679   178.91632023
 N      7   3   2     2.498103424201   118.11147800   187.07375547
 C      8   7   3     2.520055602779   117.53014810   179.09994824
 N      9   8   7     2.533950135710   122.36892421     0.45926273
 C     10   9   8     2.490805857165   115.60622165     0.10512867
 N     11  10   9     2.499917206352   126.08445885   359.51233683
 C     11  10   9     2.793828517352   116.73938022   179.64723505
 C     13  11  10     2.645478613094   120.72149817   184.54734766
 C     14  13  11     2.578202315892   120.89299608   180.13887841
 C     15  14  13     2.682171396549   120.30203151     1.21439839
 C     16  15  14     2.681578448377   118.30766271   356.08446104
 C     17  16  15     2.575702054717   120.31020206     3.57284049
 C      9   8   7     2.743311221061   118.92771280   180.70041962
 C     19   9   8     2.633597237221   121.13072514   180.22337163
 C     20  19   9     2.592286673686   121.40699207   180.10081394
 C     21  20  19     2.650420841341   120.69365540     0.00000000
 C     22  21  20     2.650025353898   117.91339904     0.87827972
 C     23  22  21     2.592565084494   120.76271336   359.01188118
 C      6   5   4     2.799967830184   119.74477582   179.74188317
 S     25   6   5     3.063229457365   123.15242589    32.33920247
 S     25   6   5     3.299266010077   113.06041999   212.85746451
 N     22  21  20     2.615756119018   120.99423295   180.45705582
 C     28  22  21     2.689781755896   120.62565708   348.67558122
 C     29  28  22     2.624434600605   118.46793712   253.90439648
 S     30  29  28     3.330350714597   119.05231757   357.48651865
 C     31  30  29     3.331820508811    98.06231517   324.27432216
 C     32  31  30     2.624368451140   119.10317730    36.01392795
 C     32  31  30     2.619804589260   120.94792588   217.00215194
 C     34  32  31     2.612101575677   119.77886538   179.24405787
 C     35  34  32     2.619051730154   120.24004668   358.06700136
 C     36  35  34     2.612320257814   120.02482646     1.00656822
 C     29  28  22     2.615862465813   121.50009104    74.98680909
 C     38  29  28     2.612388379970   119.93820860   182.21267726
 C     39  38  29     2.619450980664   119.99589177   358.56161832
 C     40  39  38     2.612042988311   120.22803851   358.81952018
 N     16  15  14     2.568283268177   120.99883288   178.78607010
 C     42  16  15     2.692876745758   122.50895345   176.27228502
 C     43  42  16     2.629098027676   117.69038812   237.21729358
 S     44  43  42     3.311782879891   120.42045966   356.27508988
 C     45  44  43     3.313599861870    97.62890117   326.05813144
 C     46  45  44     2.630063773093   120.49722212    34.42688181
 C     43  42  16     2.622357183454   121.33264662    58.95171811
 C     48  43  42     2.604125590033   119.36842977   181.83583722
 C     49  48  43     2.624377029021   119.97887628   359.89963398
 C     50  49  48     2.607903325365   120.55608660   357.60656905
 C     46  45  44     2.622782115201   120.51675811   214.93125685
 C     52  46  45     2.608134402045   120.02861278   177.58305668
 C     53  52  46     2.623590040645   120.52836170   358.72067492
 C     54  53  52     2.604059775087   120.00573315     2.06154041
 H      1   2   3     2.042214669826   119.40281581   179.47519983
 H      2   1   3     2.039552079484   120.23677200   179.70469795
 H      4   3   2     2.039495329693   119.17563922   179.81923558
 H      5   4   3     2.040804617524   120.48035990   180.65813581
 H     14  13  11     2.040155930330   118.46702711     1.21758294
 H     15  14  13     2.034493969495   119.57629678   182.63654929
 H     17  16  15     2.034331898588   120.11668748   185.19150062
 H     18  17  16     2.039633089036   120.69981684   180.27098259
 H     20  19   9     2.040379435755   119.15903267   359.82344060
 H     21  20  19     2.036466424943   119.28452607   179.07566359
 H     23  22  21     2.036396180267   120.02013948   178.15691403
 H     24  23  22     2.040443236099   119.60403862   179.73227438
 H     27  25   6     2.530613270336    95.60525261   183.25831931
 H     34  32  31     2.043854708988   119.69803249     0.00000000
 H     35  34  32     2.043274514910   119.64957381   179.63680307
 H     36  35  34     2.042974640847   120.15502792   181.74645377
 H     37  36  35     2.043613962213   120.94130905   180.63191224
 H     38  29  28     2.043709709003   119.08062424     1.22798166
 H     39  38  29     2.043123947046   119.84252491   179.33786911
 H     40  39  38     2.043420844928   120.11501567   180.59331572
 H     41  40  39     2.043880610609   120.53831818   182.83563339
 H     48  43  42     2.042642736451   119.77536273     2.29316690
 H     49  48  43     2.041963708262   119.76986818   180.41542598
 H     50  49  48     2.042733104456   119.91656385   179.81276012
 H     51  50  49     2.043120799254   120.46603349   183.25759925
 H     52  46  45     2.043183998015   119.50677458   359.34397682
 H     53  52  46     2.042807368079   119.53017018   180.73362916
 H     54  53  52     2.042038146207   120.24596499   182.74360318
 H     55  54  53     2.042448066237   120.79430315   180.99597541

---------------------
BASIS SET INFORMATION
---------------------
There are 4 groups of distinct atoms

 Group   1 Type C   : 11s6p2d1f contracted to 5s3p2d1f pattern {62111/411/11/1}
 Group   2 Type N   : 11s6p2d1f contracted to 5s3p2d1f pattern {62111/411/11/1}
 Group   3 Type S   : 14s9p3d1f contracted to 5s5p2d1f pattern {73211/51111/21/1}
 Group   4 Type H   : 5s1p contracted to 3s1p pattern {311/1}

Atom   0C    basis set group =>   1
Atom   1C    basis set group =>   1
Atom   2C    basis set group =>   1
Atom   3C    basis set group =>   1
Atom   4C    basis set group =>   1
Atom   5C    basis set group =>   1
Atom   6C    basis set group =>   1
Atom   7N    basis set group =>   2
Atom   8C    basis set group =>   1
Atom   9N    basis set group =>   2
Atom  10C    basis set group =>   1
Atom  11N    basis set group =>   2
Atom  12C    basis set group =>   1
Atom  13C    basis set group =>   1
Atom  14C    basis set group =>   1
Atom  15C    basis set group =>   1
Atom  16C    basis set group =>   1
Atom  17C    basis set group =>   1
Atom  18C    basis set group =>   1
Atom  19C    basis set group =>   1
Atom  20C    basis set group =>   1
Atom  21C    basis set group =>   1
Atom  22C    basis set group =>   1
Atom  23C    basis set group =>   1
Atom  24C    basis set group =>   1
Atom  25S    basis set group =>   3
Atom  26S    basis set group =>   3
Atom  27N    basis set group =>   2
Atom  28C    basis set group =>   1
Atom  29C    basis set group =>   1
Atom  30S    basis set group =>   3
Atom  31C    basis set group =>   1
Atom  32C    basis set group =>   1
Atom  33C    basis set group =>   1
Atom  34C    basis set group =>   1
Atom  35C    basis set group =>   1
Atom  36C    basis set group =>   1
Atom  37C    basis set group =>   1
Atom  38C    basis set group =>   1
Atom  39C    basis set group =>   1
Atom  40C    basis set group =>   1
Atom  41N    basis set group =>   2
Atom  42C    basis set group =>   1
Atom  43C    basis set group =>   1
Atom  44S    basis set group =>   3
Atom  45C    basis set group =>   1
Atom  46C    basis set group =>   1
Atom  47C    basis set group =>   1
Atom  48C    basis set group =>   1
Atom  49C    basis set group =>   1
Atom  50C    basis set group =>   1
Atom  51C    basis set group =>   1
Atom  52C    basis set group =>   1
Atom  53C    basis set group =>   1
Atom  54C    basis set group =>   1
Atom  55H    basis set group =>   4
Atom  56H    basis set group =>   4
Atom  57H    basis set group =>   4
Atom  58H    basis set group =>   4
Atom  59H    basis set group =>   4
Atom  60H    basis set group =>   4
Atom  61H    basis set group =>   4
Atom  62H    basis set group =>   4
Atom  63H    basis set group =>   4
Atom  64H    basis set group =>   4
Atom  65H    basis set group =>   4
Atom  66H    basis set group =>   4
Atom  67H    basis set group =>   4
Atom  68H    basis set group =>   4
Atom  69H    basis set group =>   4
Atom  70H    basis set group =>   4
Atom  71H    basis set group =>   4
Atom  72H    basis set group =>   4
Atom  73H    basis set group =>   4
Atom  74H    basis set group =>   4
Atom  75H    basis set group =>   4
Atom  76H    basis set group =>   4
Atom  77H    basis set group =>   4
Atom  78H    basis set group =>   4
Atom  79H    basis set group =>   4
Atom  80H    basis set group =>   4
Atom  81H    basis set group =>   4
Atom  82H    basis set group =>   4
Atom  83H    basis set group =>   4
---------------------------------
AUXILIARY/J BASIS SET INFORMATION
---------------------------------
There are 4 groups of distinct atoms

 Group   1 Type C   : 12s5p4d2f1g contracted to 6s4p3d1f1g pattern {711111/2111/211/2/1}
 Group   2 Type N   : 12s5p4d2f1g contracted to 6s4p3d1f1g pattern {711111/2111/211/2/1}
 Group   3 Type S   : 14s5p5d2f1g contracted to 8s4p3d1f1g pattern {71111111/2111/311/2/1}
 Group   4 Type H   : 5s2p1d contracted to 3s1p1d pattern {311/2/1}

Atom   0C    basis set group =>   1
Atom   1C    basis set group =>   1
Atom   2C    basis set group =>   1
Atom   3C    basis set group =>   1
Atom   4C    basis set group =>   1
Atom   5C    basis set group =>   1
Atom   6C    basis set group =>   1
Atom   7N    basis set group =>   2
Atom   8C    basis set group =>   1
Atom   9N    basis set group =>   2
Atom  10C    basis set group =>   1
Atom  11N    basis set group =>   2
Atom  12C    basis set group =>   1
Atom  13C    basis set group =>   1
Atom  14C    basis set group =>   1
Atom  15C    basis set group =>   1
Atom  16C    basis set group =>   1
Atom  17C    basis set group =>   1
Atom  18C    basis set group =>   1
Atom  19C    basis set group =>   1
Atom  20C    basis set group =>   1
Atom  21C    basis set group =>   1
Atom  22C    basis set group =>   1
Atom  23C    basis set group =>   1
Atom  24C    basis set group =>   1
Atom  25S    basis set group =>   3
Atom  26S    basis set group =>   3
Atom  27N    basis set group =>   2
Atom  28C    basis set group =>   1
Atom  29C    basis set group =>   1
Atom  30S    basis set group =>   3
Atom  31C    basis set group =>   1
Atom  32C    basis set group =>   1
Atom  33C    basis set group =>   1
Atom  34C    basis set group =>   1
Atom  35C    basis set group =>   1
Atom  36C    basis set group =>   1
Atom  37C    basis set group =>   1
Atom  38C    basis set group =>   1
Atom  39C    basis set group =>   1
Atom  40C    basis set group =>   1
Atom  41N    basis set group =>   2
Atom  42C    basis set group =>   1
Atom  43C    basis set group =>   1
Atom  44S    basis set group =>   3
Atom  45C    basis set group =>   1
Atom  46C    basis set group =>   1
Atom  47C    basis set group =>   1
Atom  48C    basis set group =>   1
Atom  49C    basis set group =>   1
Atom  50C    basis set group =>   1
Atom  51C    basis set group =>   1
Atom  52C    basis set group =>   1
Atom  53C    basis set group =>   1
Atom  54C    basis set group =>   1
Atom  55H    basis set group =>   4
Atom  56H    basis set group =>   4
Atom  57H    basis set group =>   4
Atom  58H    basis set group =>   4
Atom  59H    basis set group =>   4
Atom  60H    basis set group =>   4
Atom  61H    basis set group =>   4
Atom  62H    basis set group =>   4
Atom  63H    basis set group =>   4
Atom  64H    basis set group =>   4
Atom  65H    basis set group =>   4
Atom  66H    basis set group =>   4
Atom  67H    basis set group =>   4
Atom  68H    basis set group =>   4
Atom  69H    basis set group =>   4
Atom  70H    basis set group =>   4
Atom  71H    basis set group =>   4
Atom  72H    basis set group =>   4
Atom  73H    basis set group =>   4
Atom  74H    basis set group =>   4
Atom  75H    basis set group =>   4
Atom  76H    basis set group =>   4
Atom  77H    basis set group =>   4
Atom  78H    basis set group =>   4
Atom  79H    basis set group =>   4
Atom  80H    basis set group =>   4
Atom  81H    basis set group =>   4
Atom  82H    basis set group =>   4
Atom  83H    basis set group =>   4


           ************************************************************
           *        Program running with 36 parallel MPI-processes    *
           *              working on a shared directory               *
           ************************************************************
Error: Cannot open input file Combo62_Cf2tc_2.60424_-2.60424_ck-1.int.tmp

ORCA finished by error termination in GTOInt
Calling Command: mpirun -np 36  /software/rapids/r23.04/ORCA/5.0.3-gompi-2021b/bin/orca_gtoint_mpi Combo62_Cf2tc_2.60424_-2.60424_ck-1.int.tmp Combo62_Cf2tc_2.60424_-2.60424_ck-1 
[file orca_tools/qcmsg.cpp, line 465]: 
  .... aborting the run

