
                                 *****************
                                 * O   R   C   A *
                                 *****************

                                            #,                                       
                                            ###                                      
                                            ####                                     
                                            #####                                    
                                            ######                                   
                                           ########,                                 
                                     ,,################,,,,,                         
                               ,,#################################,,                 
                          ,,##########################################,,             
                       ,#########################################, ''#####,          
                    ,#############################################,,   '####,        
                  ,##################################################,,,,####,       
                ,###########''''           ''''###############################       
              ,#####''   ,,,,##########,,,,          '''####'''          '####       
            ,##' ,,,,###########################,,,                        '##       
           ' ,,###''''                  '''############,,,                           
         ,,##''                                '''############,,,,        ,,,,,,###''
      ,#''                                            '''#######################'''  
     '                                                          ''''####''''         
             ,#######,   #######,   ,#######,      ##                                
            ,#'     '#,  ##    ##  ,#'     '#,    #''#        ######   ,####,        
            ##       ##  ##   ,#'  ##            #'  '#       #        #'  '#        
            ##       ##  #######   ##           ,######,      #####,   #    #        
            '#,     ,#'  ##    ##  '#,     ,#' ,#      #,         ##   #,  ,#        
             '#######'   ##     ##  '#######'  #'      '#     #####' # '####'        



                  #######################################################
                  #                        -***-                        #
                  #          Department of theory and spectroscopy      #
                  #    Directorship and core code : Frank Neese         #
                  #        Max Planck Institute fuer Kohlenforschung    #
                  #                Kaiser Wilhelm Platz 1               #
                  #                 D-45470 Muelheim/Ruhr               #
                  #                      Germany                        #
                  #                                                     #
                  #                  All rights reserved                #
                  #                        -***-                        #
                  #######################################################


                         Program Version 5.0.3 -  RELEASE  -


 With contributions from (in alphabetic order):
   Daniel Aravena         : Magnetic Suceptibility
   Michael Atanasov       : Ab Initio Ligand Field Theory (pilot matlab implementation)
   Alexander A. Auer      : GIAO ZORA, VPT2 properties, NMR spectrum
   Ute Becker             : Parallelization
   Giovanni Bistoni       : ED, misc. LED, open-shell LED, HFLD
   Martin Brehm           : Molecular dynamics
   Dmytro Bykov           : SCF Hessian
   Vijay G. Chilkuri      : MRCI spin determinant printing, contributions to CSF-ICE
   Dipayan Datta          : RHF DLPNO-CCSD density
   Achintya Kumar Dutta   : EOM-CC, STEOM-CC
   Dmitry Ganyushin       : Spin-Orbit,Spin-Spin,Magnetic field MRCI
   Miquel Garcia          : C-PCM and meta-GGA Hessian, CC/C-PCM, Gaussian charge scheme
   Yang Guo               : DLPNO-NEVPT2, F12-NEVPT2, CIM, IAO-localization
   Andreas Hansen         : Spin unrestricted coupled pair/coupled cluster methods
   Benjamin Helmich-Paris : MC-RPA, TRAH-SCF, COSX integrals
   Lee Huntington         : MR-EOM, pCC
   Robert Izsak           : Overlap fitted RIJCOSX, COSX-SCS-MP3, EOM
   Marcus Kettner         : VPT2
   Christian Kollmar      : KDIIS, OOCD, Brueckner-CCSD(T), CCSD density, CASPT2, CASPT2-K
   Simone Kossmann        : Meta GGA functionals, TD-DFT gradient, OOMP2, MP2 Hessian
   Martin Krupicka        : Initial AUTO-CI
   Lucas Lang             : DCDCAS
   Marvin Lechner         : AUTO-CI (C++ implementation), FIC-MRCC
   Dagmar Lenk            : GEPOL surface, SMD
   Dimitrios Liakos       : Extrapolation schemes; Compound Job, initial MDCI parallelization
   Dimitrios Manganas     : Further ROCIS development; embedding schemes
   Dimitrios Pantazis     : SARC Basis sets
   Anastasios Papadopoulos: AUTO-CI, single reference methods and gradients
   Taras Petrenko         : DFT Hessian,TD-DFT gradient, ASA, ECA, R-Raman, ABS, FL, XAS/XES, NRVS
   Peter Pinski           : DLPNO-MP2, DLPNO-MP2 Gradient
   Christoph Reimann      : Effective Core Potentials
   Marius Retegan         : Local ZFS, SOC
   Christoph Riplinger    : Optimizer, TS searches, QM/MM, DLPNO-CCSD(T), (RO)-DLPNO pert. Triples
   Tobias Risthaus        : Range-separated hybrids, TD-DFT gradient, RPA, STAB
   Michael Roemelt        : Original ROCIS implementation
   Masaaki Saitow         : Open-shell DLPNO-CCSD energy and density
   Barbara Sandhoefer     : DKH picture change effects
   Avijit Sen             : IP-ROCIS
   Kantharuban Sivalingam : CASSCF convergence, NEVPT2, FIC-MRCI
   Bernardo de Souza      : ESD, SOC TD-DFT
   Georgi Stoychev        : AutoAux, RI-MP2 NMR, DLPNO-MP2 response
   Willem Van den Heuvel  : Paramagnetic NMR
   Boris Wezisla          : Elementary symmetry handling
   Frank Wennmohs         : Technical directorship


 We gratefully acknowledge several colleagues who have allowed us to
 interface, adapt or use parts of their codes:
   Stefan Grimme, W. Hujo, H. Kruse, P. Pracht,  : VdW corrections, initial TS optimization,
                  C. Bannwarth, S. Ehlert          DFT functionals, gCP, sTDA/sTD-DF
   Ed Valeev, F. Pavosevic, A. Kumar             : LibInt (2-el integral package), F12 methods
   Garnet Chan, S. Sharma, J. Yang, R. Olivares  : DMRG
   Ulf Ekstrom                                   : XCFun DFT Library
   Mihaly Kallay                                 : mrcc  (arbitrary order and MRCC methods)
   Jiri Pittner, Ondrej Demel                    : Mk-CCSD
   Frank Weinhold                                : gennbo (NPA and NBO analysis)
   Christopher J. Cramer and Donald G. Truhlar   : smd solvation model
   Lars Goerigk                                  : TD-DFT with DH, B97 family of functionals
   V. Asgeirsson, H. Jonsson                     : NEB implementation
   FAccTs GmbH                                   : IRC, NEB, NEB-TS, DLPNO-Multilevel, CI-OPT
                                                   MM, QMMM, 2- and 3-layer-ONIOM, Crystal-QMMM,
                                                   LR-CPCM, SF, NACMEs, symmetry and pop. for TD-DFT,
                                                   nearIR, NL-DFT gradient (VV10), updates on ESD,
                                                   ML-optimized integration grids
   S Lehtola, MJT Oliveira, MAL Marques          : LibXC Library
   Liviu Ungur et al                             : ANISO software


 Your calculation uses the libint2 library for the computation of 2-el integrals
 For citations please refer to: http://libint.valeyev.net

 Your ORCA version has been built with support for libXC version: 5.1.0
 For citations please refer to: https://tddft.org/programs/libxc/

 This ORCA versions uses:
   CBLAS   interface :  Fast vector & matrix operations
   LAPACKE interface :  Fast linear algebra routines
   SCALAPACK package :  Parallel linear algebra routines
   Shared memory     :  Shared parallel matrices
   BLAS/LAPACK       :  OpenBLAS 0.3.15  USE64BITINT DYNAMIC_ARCH NO_AFFINITY Prescott SINGLE_THREADED
        Core in use  :  Prescott
   Copyright (c) 2011-2014, The OpenBLAS Project


Your calculation utilizes the atom-pairwise dispersion correction
based on tight binding partial charges (D4)
Cite in your paper:
E.Caldeweyher, C.Bannwarth, S.Grimme, J.Chem.Phys., (2017), 147, 034112.
E.Caldeweyher, S.Ehlert, A.Hansen, H.Neugebauer, S.Grimme, J.Chem.Phys., (2018), in progress.
   

XCFun DFT library Copyright 2009-2010 Ulf Ekstrom and contributors.
See http://admol.org/xcfun for more information.
This is free software; see the source code for copying conditions.
There is ABSOLUTELY NO WARRANTY; not even for MERCHANTABILITY or FITNESS FOR A PARTICULAR PURPOSE.
For details see the documentation.
Scientific users of this library should cite U. Ekstrom, L. Visscher, R. Bast, A. J. Thorvaldsen and K. Ruud;
J.Chem.Theor.Comp. 2010, DOI: 10.1021/ct100117s
XCFun Version 0.99 

================================================================================

----- Orbital basis set information -----
Your calculation utilizes the basis: def2-TZVP
   F. Weigend and R. Ahlrichs, Phys. Chem. Chem. Phys. 7, 3297 (2005).

----- AuxJ basis set information -----
Your calculation utilizes the auxiliary basis: def2/J
   F. Weigend, Phys. Chem. Chem. Phys. 8, 1057 (2006).

================================================================================
                                        WARNINGS
                       Please study these warnings very carefully!
================================================================================


WARNING: Geometry Optimization
  ===> : Switching off AutoStart
         For restart on a previous wavefunction, please use MOREAD

INFO   : the flag for use of the SHARK integral package has been found!

================================================================================
                                       INPUT FILE
================================================================================
NAME = Combo62_Cf7tc_2.60424_-2.60424_ck-1.inp
|  1> ## Generated with Autochar
|  2> ! UKS OPT CAM-B3LYP D4 def2-TZVP  CHELPG
|  3> % pointcharges "pointcharges.pc"
|  4> %scf
|  5> 	SCFMode Direct
|  6> 	MaxIter 500
|  7> end
|  8> %pal
|  9> 	nprocs 36
| 10> end
| 11> %elprop
| 12>     Dipole true
| 13> end
| 14> %chelpg
| 15> 	GRID 0.3
| 16> 	RMAX 4
| 17> end
| 18> * xyz 1 2
| 19>  C -8.32432158 -1.22750544 -0.12601356
| 20>  C -6.94563915 -1.20482352 -0.13641756
| 21>  C -6.26355320 0.00506825 -0.14543262
| 22>  C -6.98839431 1.19238235 -0.13761845
| 23>  C -8.36460140 1.16969051 -0.11080418
| 24>  C -9.05305402 -0.04074601 -0.10669962
| 25>  C -4.78973759 0.02208371 -0.15368880
| 26>  N -4.17003851 1.20639233 -0.16054039
| 27>  C -2.84845778 1.14045659 -0.16118664
| 28>  N -2.12655476 0.03744399 -0.15457197
| 29>  C -2.82100951 -1.10955941 -0.14493176
| 30>  N -4.15396674 -1.13724003 -0.14684909
| 31>  C -2.09358368 -2.36609688 -0.12449148
| 32>  C -0.70034391 -2.39375937 -0.10881498
| 33>  C -0.00910262 -3.57843801 -0.07427296
| 34>  C -0.68998642 -4.80448869 -0.05257326
| 35>  C -2.09145511 -4.77737384 -0.09354931
| 36>  C -2.76958476 -3.58532998 -0.12519390
| 37>  C -2.10707690 2.41997451 -0.15431831
| 38>  C -2.78892514 3.64221122 -0.14362074
| 39>  C -2.10796341 4.82422962 -0.10976196
| 40>  C -0.68939025 4.83297147 -0.06731551
| 41>  C -0.00691543 3.59202486 -0.15245766
| 42>  C -0.70703746 2.42268012 -0.18406322
| 43>  C -10.53508835 -0.04468606 -0.06837242
| 44>  S -11.40481908 1.11383356 0.66240858
| 45>  S -11.24152713 -1.40850938 -0.89521902
| 46>  N 0.00000000 6.00299198 0.00000000
| 47>  C 1.42293390 6.06176298 -0.05171249
| 48>  C 2.00170833 6.84612224 -1.04481573
| 49>  S 1.00035157 7.79972455 -2.12140043
| 50>  C -0.26761103 8.18984583 -0.97604775
| 51>  C -0.63945186 7.27539665 0.00475334
| 52>  C -0.90896454 9.41973441 -1.02712043
| 53>  C -1.87085417 9.73625200 -0.08961816
| 54>  C -2.18720178 8.84352453 0.92579720
| 55>  C -1.57047150 7.61248946 0.97760970
| 56>  C 2.20937991 5.39384347 0.87636970
| 57>  C 3.58175320 5.44822856 0.76463986
| 58>  C 4.16642830 6.16963142 -0.26791846
| 59>  C 3.38480332 6.87631691 -1.15877969
| 60>  N 0.00000000 -6.00299198 -0.00000000
| 61>  C 1.40900239 -6.04143918 -0.19634627
| 62>  C 1.89708838 -6.55567054 -1.39047205
| 63>  S 0.75895202 -7.19195001 -2.57641315
| 64>  C -0.40353591 -7.89202050 -1.45074590
| 65>  C -0.65979095 -7.23927288 -0.25198449
| 66>  C 2.28769810 -5.60545482 0.78048738
| 67>  C 3.64888970 -5.61913568 0.53990408
| 68>  C 4.13455821 -6.09673520 -0.66733058
| 69>  C 3.26362489 -6.58257774 -1.62436681
| 70>  C -1.04268853 -9.08832155 -1.73770291
| 71>  C -1.93707646 -9.62385338 -0.83002643
| 72>  C -2.16570887 -8.99032425 0.38129464
| 73>  C -1.51458926 -7.80732081 0.67696710
| 74>  H -8.83681010 -2.17861187 -0.10300590
| 75>  H -6.38426413 -2.12638754 -0.13372582
| 76>  H -6.46050356 2.13367695 -0.14963759
| 77>  H -8.92888624 2.09030495 -0.09322269
| 78>  H -0.15542675 -1.46176181 -0.12697702
| 79>  H 1.06845323 -3.56047831 -0.07682263
| 80>  H -2.64830489 -5.69974366 -0.11140400
| 81>  H -3.84884741 -3.58647219 -0.15548869
| 82>  H -3.86800782 3.62973523 -0.17349897
| 83>  H -2.65280858 5.75244336 -0.13767900
| 84>  H 1.06753862 3.56906225 -0.21421641
| 85>  H -0.19370355 1.47516138 -0.24431078
| 86>  H -12.50853082 -1.10753307 -0.58343248
| 87>  H -0.62836422 10.13530627 -1.78751847
| 88>  H -2.35643544 10.70121295 -0.12972786
| 89>  H -2.90915099 9.11420405 1.68289306
| 90>  H -1.79596575 6.91293333 1.77004420
| 91>  H 1.74175335 4.84538874 1.68181867
| 92>  H 4.19927865 4.93541287 1.48802998
| 93>  H 5.24302690 6.20938614 -0.35637784
| 94>  H 3.84222306 7.48040986 -1.93001487
| 95>  H 1.89214294 -5.24356723 1.71974232
| 96>  H 4.33317325 -5.26895339 1.30022792
| 97>  H 5.19948867 -6.11740141 -0.85371738
| 98>  H 3.63979128 -6.99817706 -2.54930628
| 99>  H -0.82803955 -9.60129161 -2.66535560
|100>  H -2.43874326 -10.55401638 -1.05857762
|101>  H -2.84369609 -9.42542646 1.10226168
|102>  H -1.67408163 -7.30629344 1.62195366
|103>   
|104> *
|105> 
|106> 
|107>                          ****END OF INPUT****
================================================================================

                       *****************************
                       * Geometry Optimization Run *
                       *****************************

Geometry optimization settings:
Update method            Update   .... BFGS
Choice of coordinates    CoordSys .... Z-matrix Internals
Initial Hessian          InHess   .... Almoef's Model

Convergence Tolerances:
Energy Change            TolE     ....  5.0000e-06 Eh
Max. Gradient            TolMAXG  ....  3.0000e-04 Eh/bohr
RMS Gradient             TolRMSG  ....  1.0000e-04 Eh/bohr
Max. Displacement        TolMAXD  ....  4.0000e-03 bohr
RMS Displacement         TolRMSD  ....  2.0000e-03 bohr
Strict Convergence                ....  False
------------------------------------------------------------------------------
                        ORCA OPTIMIZATION COORDINATE SETUP
------------------------------------------------------------------------------

The optimization will be done in new redundant internal coordinates
Making redundant internal coordinates   ...  (new redundants) done
Evaluating the initial hessian          ...  (Almloef) done
Evaluating the coordinates              ...  done
Calculating the B-matrix                .... done
Calculating the G-matrix                .... done
Diagonalizing the G-matrix              .... done
Small eigenvalue found = 2.653e-04
Small eigenvalue found = 7.207e-04
Small eigenvalue found = 1.512e-03
Small eigenvalue found = 1.756e-03
Small eigenvalue found = 2.512e-03
Small eigenvalue found = 3.267e-03
Small eigenvalue found = 3.699e-03
Small eigenvalue found = 8.651e-03
Small eigenvalue found = 1.069e-02
Small eigenvalue found = 1.429e-02
Small eigenvalue found = 2.067e-02
Small eigenvalue found = 2.338e-02
Small eigenvalue found = 2.634e-02
The first mode is                       ....  227
The number of degrees of freedom        ....  246

    -----------------------------------------------------------------
                    Redundant Internal Coordinates


    -----------------------------------------------------------------
         Definition                    Initial Value    Approx d2E/dq
    -----------------------------------------------------------------
      1. B(C   1,C   0)                  1.3789         0.650781   
      2. B(C   2,C   1)                  1.3889         0.627229   
      3. B(C   3,C   2)                  1.3911         0.622267   
      4. B(C   4,C   3)                  1.3767         0.656189   
      5. B(C   5,C   4)                  1.3925         0.619016   
      6. B(C   5,C   0)                  1.3928         0.618460   
      7. B(C   6,C   2)                  1.4739         0.459010   
      8. B(N   7,C   6)                  1.3367         0.680731   
      9. B(C   8,N   7)                  1.3232         0.715173   
     10. B(N   9,C   8)                  1.3183         0.728321   
     11. B(C  10,N   9)                  1.3409         0.670243   
     12. B(N  11,C   6)                  1.3222         0.717801   
     13. B(N  11,C  10)                  1.3332         0.689323   
     14. B(C  12,C  10)                  1.4521         0.497439   
     15. B(C  13,C  12)                  1.3936         0.616582   
     16. B(C  14,C  13)                  1.3720         0.667430   
     17. B(C  15,C  14)                  1.4026         0.596545   
     18. B(C  16,C  15)                  1.4023         0.597128   
     19. B(C  17,C  16)                  1.3718         0.668003   
     20. B(C  17,C  12)                  1.3941         0.615462   
     21. B(C  18,C   8)                  1.4788         0.450878   
     22. B(C  19,C  18)                  1.3996         0.603135   
     23. B(C  20,C  19)                  1.3646         0.686005   
     24. B(C  21,C  20)                  1.4192         0.561172   
     25. B(C  22,C  21)                  1.4188         0.562087   
     26. B(C  23,C  22)                  1.3633         0.689233   
     27. B(C  23,C  18)                  1.4004         0.601469   
     28. B(C  24,C   5)                  1.4825         0.444739   
     29. B(S  25,C  24)                  1.6225         0.716971   
     30. B(S  26,C  24)                  1.7443         0.458320   
     31. B(N  27,C  21)                  1.3597         0.625524   
     32. B(C  28,N  27)                  1.4251         0.491925   
     33. B(C  29,C  28)                  1.3916         0.621215   
     34. B(S  30,C  29)                  1.7525         0.444865   
     35. B(C  31,S  30)                  1.7526         0.444563   
     36. B(C  32,C  31)                  1.3916         0.621214   
     37. B(C  32,N  27)                  1.4241         0.493789   
     38. B(C  33,C  31)                  1.3880         0.629383   
     39. B(C  34,C  33)                  1.3800         0.648240   
     40. B(C  35,C  34)                  1.3886         0.628104   
     41. B(C  36,C  35)                  1.3779         0.653300   
     42. B(C  36,C  32)                  1.3881         0.629125   
     43. B(C  37,C  28)                  1.3878         0.629899   
     44. B(C  38,C  37)                  1.3780         0.652986   
     45. B(C  39,C  38)                  1.3887         0.627824   
     46. B(C  40,C  39)                  1.3798         0.648542   
     47. B(C  40,C  29)                  1.3881         0.629148   
     48. B(N  41,C  15)                  1.3839         0.572221   
     49. B(C  42,N  41)                  1.4231         0.495459   
     50. B(C  43,C  42)                  1.3887         0.627696   
     51. B(S  44,C  43)                  1.7626         0.428638   
     52. B(C  45,S  44)                  1.7631         0.427772   
     53. B(C  46,C  45)                  1.3888         0.627549   
     54. B(C  46,N  41)                  1.4238         0.494251   
     55. B(C  47,C  42)                  1.3843         0.637928   
     56. B(C  48,C  47)                  1.3824         0.642588   
     57. B(C  49,C  48)                  1.3861         0.633714   
     58. B(C  50,C  49)                  1.3822         0.642951   
     59. B(C  50,C  43)                  1.3867         0.632487   
     60. B(C  51,C  45)                  1.3864         0.633205   
     61. B(C  52,C  51)                  1.3822         0.642853   
     62. B(C  53,C  52)                  1.3860         0.634100   
     63. B(C  54,C  46)                  1.3843         0.637998   
     64. B(C  54,C  53)                  1.3823         0.642617   
     65. B(H  55,C   0)                  1.0806         0.372701   
     66. B(H  56,C   1)                  1.0791         0.374829   
     67. B(H  57,C   3)                  1.0793         0.374562   
     68. B(H  58,C   4)                  1.0799         0.373665   
     69. B(H  59,C  13)                  1.0798         0.373903   
     70. B(H  60,C  14)                  1.0777         0.376733   
     71. B(H  61,C  16)                  1.0776         0.376918   
     72. B(H  62,C  17)                  1.0797         0.374003   
     73. B(H  63,C  19)                  1.0796         0.374168   
     74. B(H  64,C  20)                  1.0767         0.378174   
     75. B(H  65,C  22)                  1.0765         0.378447   
     76. B(H  66,C  23)                  1.0793         0.374508   
     77. B(H  67,S  26)                  1.3391         0.388887   
     78. B(H  68,C  33)                  1.0812         0.371937   
     79. B(H  69,C  34)                  1.0810         0.372213   
     80. B(H  70,C  35)                  1.0806         0.372768   
     81. B(H  71,C  36)                  1.0808         0.372447   
     82. B(H  72,C  37)                  1.0808         0.372417   
     83. B(H  73,C  38)                  1.0806         0.372806   
     84. B(H  74,C  39)                  1.0810         0.372262   
     85. B(H  75,C  40)                  1.0812         0.371950   
     86. B(H  76,C  47)                  1.0815         0.371532   
     87. B(H  77,C  48)                  1.0812         0.371950   
     88. B(H  78,C  49)                  1.0813         0.371773   
     89. B(H  79,C  50)                  1.0815         0.371462   
     90. B(H  80,C  51)                  1.0816         0.371453   
     91. B(H  81,C  52)                  1.0813         0.371859   
     92. B(H  82,C  53)                  1.0811         0.372070   
     93. B(H  83,C  54)                  1.0814         0.371633   
     94. A(C   1,C   0,H  55)          119.2622         0.357904   
     95. A(C   5,C   0,H  55)          120.1003         0.354822   
     96. A(C   1,C   0,C   5)          120.6123         0.437675   
     97. A(C   0,C   1,C   2)          120.3566         0.438788   
     98. A(C   0,C   1,H  56)          120.4030         0.358251   
     99. A(C   2,C   1,H  56)          119.2399         0.356014   
    100. A(C   3,C   2,C   6)          120.7431         0.411633   
    101. A(C   1,C   2,C   3)          119.1804         0.435259   
    102. A(C   1,C   2,C   6)          120.0751         0.412213   
    103. A(C   2,C   3,H  57)          119.3055         0.355492   
    104. A(C   4,C   3,H  57)          120.2349         0.358712   
    105. A(C   2,C   3,C   4)          120.4593         0.438814   
    106. A(C   3,C   4,H  58)          120.5715         0.358566   
    107. A(C   5,C   4,H  58)          118.8569         0.355031   
    108. A(C   3,C   4,C   5)          120.5716         0.438400   
    109. A(C   0,C   5,C   4)          118.8124         0.433748   
    110. A(C   4,C   5,C  24)          119.7759         0.408955   
    111. A(C   0,C   5,C  24)          121.4088         0.408890   
    112. A(N   7,C   6,N  11)          123.6394         0.447351   
    113. A(C   2,C   6,N   7)          118.2836         0.415548   
    114. A(C   2,C   6,N  11)          118.0760         0.419490   
    115. A(C   6,N   7,C   8)          114.7648         0.447054   
    116. A(N   7,C   8,N   9)          126.0596         0.452572   
    117. A(N   7,C   8,C  18)          117.2323         0.417883   
    118. A(N   9,C   8,C  18)          116.7048         0.419242   
    119. A(C   8,N   9,C  10)          115.6043         0.447272   
    120. A(N  11,C  10,C  12)          118.8756         0.422490   
    121. A(N   9,C  10,N  11)          122.3808         0.442837   
    122. A(N   9,C  10,C  12)          118.7427         0.420378   
    123. A(C   6,N  11,C  10)          117.5507         0.448370   
    124. A(C  10,C  12,C  17)          120.9229         0.416741   
    125. A(C  13,C  12,C  17)          117.8671         0.433062   
    126. A(C  10,C  12,C  13)          121.2095         0.416876   
    127. A(C  14,C  13,H  59)          119.4363         0.359643   
    128. A(C  12,C  13,H  59)          119.1574         0.354832   
    129. A(C  12,C  13,C  14)          121.4060         0.439433   
    130. A(C  13,C  14,C  15)          120.7027         0.436822   
    131. A(C  15,C  14,H  60)          119.9987         0.353303   
    132. A(C  13,C  14,H  60)          119.2938         0.360106   
    133. A(C  14,C  15,C  16)          117.8912         0.428169   
    134. A(C  16,C  15,N  41)          121.0723         0.422224   
    135. A(C  14,C  15,N  41)          121.0355         0.422150   
    136. A(C  15,C  16,C  17)          120.7644         0.436967   
    137. A(C  15,C  16,H  61)          120.0250         0.353391   
    138. A(C  17,C  16,H  61)          119.2072         0.360189   
    139. A(C  12,C  17,H  62)          119.0551         0.354739   
    140. A(C  12,C  17,C  16)          121.3492         0.439357   
    141. A(C  16,C  17,H  62)          119.5952         0.359712   
    142. A(C   8,C  18,C  19)          120.7563         0.408067   
    143. A(C  19,C  18,C  23)          119.0476         0.429572   
    144. A(C   8,C  18,C  23)          120.1853         0.407867   
    145. A(C  20,C  19,H  63)          120.6310         0.361374   
    146. A(C  18,C  19,H  63)          118.4668         0.353551   
    147. A(C  18,C  19,C  20)          120.8990         0.439861   
    148. A(C  19,C  20,H  64)          119.5781         0.362031   
    149. A(C  19,C  20,C  21)          120.3233         0.434181   
    150. A(C  21,C  20,H  64)          120.0845         0.349897   
    151. A(C  22,C  21,N  27)          120.7788         0.424387   
    152. A(C  20,C  21,N  27)          120.9017         0.424264   
    153. A(C  20,C  21,C  22)          118.2695         0.418962   
    154. A(C  23,C  22,H  65)          119.5358         0.362366   
    155. A(C  21,C  22,H  65)          120.1472         0.350036   
    156. A(C  21,C  22,C  23)          120.3036         0.434675   
    157. A(C  18,C  23,H  66)          118.3587         0.353440   
    158. A(C  22,C  23,H  66)          120.6666         0.361719   
    159. A(C  18,C  23,C  22)          120.9710         0.440015   
    160. A(S  25,C  24,S  26)          123.6875         0.470433   
    161. A(C   5,C  24,S  26)          113.2457         0.408897   
    162. A(C   5,C  24,S  25)          123.0653         0.442993   
    163. A(C  24,S  26,H  67)           95.5716         0.383542   
    164. A(C  28,N  27,C  32)          114.3073         0.394919   
    165. A(C  21,N  27,C  32)          122.7767         0.412016   
    166. A(C  21,N  27,C  28)          122.6801         0.411739   
    167. A(N  27,C  28,C  29)          117.6733         0.413908   
    168. A(C  29,C  28,C  37)          120.8532         0.435459   
    169. A(N  27,C  28,C  37)          121.4477         0.414931   
    170. A(C  28,C  29,S  30)          120.4960         0.431714   
    171. A(C  28,C  29,C  40)          119.0299         0.435365   
    172. A(S  30,C  29,C  40)          120.4684         0.432699   
    173. A(C  29,S  30,C  31)           97.6455         0.429023   
    174. A(C  32,C  31,C  33)          118.9956         0.435395   
    175. A(S  30,C  31,C  33)          120.4957         0.432676   
    176. A(S  30,C  31,C  32)          120.5069         0.431661   
    177. A(C  31,C  32,C  36)          120.9044         0.435362   
    178. A(N  27,C  32,C  36)          121.3651         0.415119   
    179. A(N  27,C  32,C  31)          117.6984         0.414187   
    180. A(C  31,C  33,H  68)          119.4983         0.355753   
    181. A(C  31,C  33,C  34)          120.0209         0.438749   
    182. A(C  34,C  33,H  68)          120.4569         0.357542   
    183. A(C  35,C  34,H  69)          119.9140         0.355675   
    184. A(C  33,C  34,H  69)          119.5146         0.357587   
    185. A(C  33,C  34,C  35)          120.5398         0.438588   
    186. A(C  36,C  35,H  70)          119.7687         0.358151   
    187. A(C  34,C  35,H  70)          120.2330         0.355765   
    188. A(C  34,C  35,C  36)          119.9955         0.439204   
    189. A(C  35,C  36,H  71)          120.8279         0.358098   
    190. A(C  32,C  36,H  71)          119.7750         0.355811   
    191. A(C  32,C  36,C  35)          119.3944         0.439333   
    192. A(C  28,C  37,H  72)          119.8278         0.355881   
    193. A(C  28,C  37,C  38)          119.4171         0.439392   
    194. A(C  38,C  37,H  72)          120.7528         0.358064   
    195. A(C  37,C  38,C  39)          120.0069         0.439131   
    196. A(C  39,C  38,H  73)          120.2454         0.355744   
    197. A(C  37,C  38,H  73)          119.7454         0.358127   
    198. A(C  38,C  39,C  40)          120.5050         0.438590   
    199. A(C  40,C  39,H  74)          119.5053         0.357623   
    200. A(C  38,C  39,H  74)          119.9526         0.355656   
    201. A(C  29,C  40,C  39)          120.0175         0.438757   
    202. A(C  39,C  40,H  75)          120.4668         0.357572   
    203. A(C  29,C  40,H  75)          119.4893         0.355733   
    204. A(C  42,N  41,C  46)          114.2629         0.395480   
    205. A(C  15,N  41,C  46)          120.9438         0.405636   
    206. A(C  15,N  41,C  42)          120.7821         0.405812   
    207. A(C  43,C  42,C  47)          120.0185         0.437271   
    208. A(N  41,C  42,C  47)          121.5051         0.416397   
    209. A(N  41,C  42,C  43)          118.4639         0.415201   
    210. A(S  44,C  43,C  50)          121.0545         0.430229   
    211. A(C  42,C  43,C  50)          119.9060         0.436596   
    212. A(C  42,C  43,S  44)          119.0309         0.429643   
    213. A(C  43,S  44,C  45)           98.0193         0.423250   
    214. A(C  46,C  45,C  51)          119.9450         0.436667   
    215. A(S  44,C  45,C  51)          120.9607         0.430161   
    216. A(S  44,C  45,C  46)          119.0859         0.429469   
    217. A(C  45,C  46,C  54)          120.0199         0.437261   
    218. A(N  41,C  46,C  54)          121.5798         0.416224   
    219. A(N  41,C  46,C  45)          118.3830         0.415003   
    220. A(C  42,C  47,C  48)          119.9403         0.439124   
    221. A(C  48,C  47,H  76)          120.9714         0.356944   
    222. A(C  42,C  47,H  76)          119.0817         0.356503   
    223. A(C  47,C  48,C  49)          119.9997         0.438599   
    224. A(C  49,C  48,H  77)          120.1530         0.356170   
    225. A(C  47,C  48,H  77)          119.8424         0.357012   
    226. A(C  48,C  49,C  50)          120.2232         0.438644   
    227. A(C  50,C  49,H  78)          119.6361         0.357017   
    228. A(C  48,C  49,H  78)          120.1174         0.356141   
    229. A(C  43,C  50,C  49)          119.8246         0.438490   
    230. A(C  49,C  50,H  79)          120.5345         0.356967   
    231. A(C  43,C  50,H  79)          119.6343         0.355973   
    232. A(C  45,C  51,C  52)          119.7827         0.438568   
    233. A(C  52,C  51,H  80)          120.5233         0.356956   
    234. A(C  45,C  51,H  80)          119.6898         0.356040   
    235. A(C  51,C  52,C  53)          120.2358         0.438680   
    236. A(C  53,C  52,H  81)          120.0946         0.356192   
    237. A(C  51,C  52,H  81)          119.6504         0.357022   
    238. A(C  52,C  53,C  54)          120.0278         0.438651   
    239. A(C  54,C  53,H  82)          119.8135         0.357034   
    240. A(C  52,C  53,H  82)          120.1544         0.356226   
    241. A(C  46,C  54,C  53)          119.9004         0.439136   
    242. A(C  53,C  54,H  83)          120.9262         0.356963   
    243. A(C  46,C  54,H  83)          119.1666         0.356526   
    244. D(H  56,C   1,C   0,C   5)    178.9132         0.029493   
    245. D(H  56,C   1,C   0,H  55)      0.7368         0.029493   
    246. D(C   2,C   1,C   0,H  55)   -179.0216         0.029493   
    247. D(C   2,C   1,C   0,C   5)     -0.8452         0.029493   
    248. D(C   3,C   2,C   1,H  56)   -179.4681         0.027262   
    249. D(C   6,C   2,C   1,C   0)    179.8723         0.027262   
    250. D(C   3,C   2,C   1,C   0)      0.2931         0.027262   
    251. D(C   6,C   2,C   1,H  56)      0.1111         0.027262   
    252. D(C   4,C   3,C   2,C   1)      0.4998         0.026806   
    253. D(C   4,C   3,C   2,C   6)   -179.0765         0.026806   
    254. D(H  57,C   3,C   2,C   1)   -179.6933         0.026806   
    255. D(H  57,C   3,C   2,C   6)      0.7304         0.026806   
    256. D(H  58,C   4,C   3,C   2)    179.2928         0.030021   
    257. D(C   5,C   4,C   3,H  57)    179.4487         0.030021   
    258. D(C   5,C   4,C   3,C   2)     -0.7462         0.030021   
    259. D(H  58,C   4,C   3,H  57)     -0.5123         0.030021   
    260. D(C   4,C   5,C   0,C   1)      0.5976         0.026459   
    261. D(C   0,C   5,C   4,H  58)   -179.8416         0.026510   
    262. D(C  24,C   5,C   4,C   3)    179.5864         0.026510   
    263. D(C  24,C   5,C   4,H  58)     -0.4520         0.026510   
    264. D(C  24,C   5,C   0,H  55)     -0.6205         0.026459   
    265. D(C   0,C   5,C   4,C   3)      0.1968         0.026510   
    266. D(C   4,C   5,C   0,H  55)    178.7587         0.026459   
    267. D(C  24,C   5,C   0,C   1)   -178.7816         0.026459   
    268. D(N  11,C   6,C   2,C   1)     -0.2632         0.014353   
    269. D(N   7,C   6,C   2,C   3)     -0.3444         0.014353   
    270. D(N  11,C   6,C   2,C   3)    179.3093         0.014353   
    271. D(N   7,C   6,C   2,C   1)   -179.9169         0.014353   
    272. D(C   8,N   7,C   6,N  11)      0.0559         0.034522   
    273. D(C   8,N   7,C   6,C   2)    179.6889         0.034522   
    274. D(N   9,C   8,N   7,C   6)     -0.0655         0.038464   
    275. D(C  18,C   8,N   7,C   6)   -179.3758         0.038464   
    276. D(C  10,N   9,C   8,C  18)    179.2385         0.040038   
    277. D(C  10,N   9,C   8,N   7)     -0.0751         0.040038   
    278. D(C  12,C  10,N   9,C   8)   -179.4274         0.033373   
    279. D(N  11,C  10,N   9,C   8)      0.2374         0.033373   
    280. D(C   6,N  11,C  10,C  12)    179.4157         0.035480   
    281. D(C  10,N  11,C   6,N   7)      0.0939         0.038775   
    282. D(C  10,N  11,C   6,C   2)   -179.5398         0.038775   
    283. D(C   6,N  11,C  10,N   9)     -0.2487         0.035480   
    284. D(C  17,C  12,C  10,N  11)      0.8676         0.016853   
    285. D(C  13,C  12,C  10,N  11)   -179.3843         0.016853   
    286. D(C  13,C  12,C  10,N   9)      0.2924         0.016853   
    287. D(C  17,C  12,C  10,N   9)   -179.4557         0.016853   
    288. D(H  59,C  13,C  12,C  17)    178.8447         0.026289   
    289. D(H  59,C  13,C  12,C  10)     -0.9108         0.026289   
    290. D(C  14,C  13,C  12,C  17)     -0.9886         0.026289   
    291. D(C  14,C  13,C  12,C  10)    179.2558         0.026289   
    292. D(C  15,C  14,C  13,H  59)   -179.8817         0.031136   
    293. D(H  60,C  14,C  13,H  59)     -0.6724         0.031136   
    294. D(C  15,C  14,C  13,C  12)     -0.0488         0.031136   
    295. D(H  60,C  14,C  13,C  12)    179.1605         0.031136   
    296. D(N  41,C  15,C  14,H  60)      1.6522         0.024518   
    297. D(N  41,C  15,C  14,C  13)   -179.1440         0.024518   
    298. D(C  16,C  15,C  14,C  13)      1.2129         0.024518   
    299. D(C  16,C  15,C  14,H  60)   -177.9909         0.024518   
    300. D(H  61,C  16,C  15,N  41)     -1.6622         0.024568   
    301. D(H  61,C  16,C  15,C  14)    177.9808         0.024568   
    302. D(C  17,C  16,C  15,N  41)    179.0086         0.024568   
    303. D(C  17,C  16,C  15,C  14)     -1.3484         0.024568   
    304. D(C  16,C  17,C  12,C  13)      0.8516         0.026188   
    305. D(C  16,C  17,C  12,C  10)   -179.3921         0.026188   
    306. D(H  62,C  17,C  12,C  10)      0.8658         0.026188   
    307. D(H  62,C  17,C  16,H  61)      0.7288         0.031194   
    308. D(H  62,C  17,C  16,C  15)   -179.9366         0.031194   
    309. D(C  12,C  17,C  16,H  61)   -179.0119         0.031194   
    310. D(C  12,C  17,C  16,C  15)      0.3228         0.031194   
    311. D(H  62,C  17,C  12,C  13)   -178.8904         0.026188   
    312. D(C  23,C  18,C   8,N   9)      2.0186         0.013857   
    313. D(C  23,C  18,C   8,N   7)   -178.6055         0.013857   
    314. D(C  19,C  18,C   8,N   9)   -179.1931         0.013857   
    315. D(C  19,C  18,C   8,N   7)      0.1828         0.013857   
    316. D(H  63,C  19,C  18,C  23)    176.8092         0.025092   
    317. D(H  63,C  19,C  18,C   8)     -1.9927         0.025092   
    318. D(C  20,C  19,C  18,C  23)     -2.5439         0.025092   
    319. D(C  20,C  19,C  18,C   8)    178.6541         0.025092   
    320. D(H  64,C  20,C  19,H  63)     -1.5153         0.033034   
    321. D(H  64,C  20,C  19,C  18)    177.8238         0.033034   
    322. D(C  21,C  20,C  19,H  63)    179.8473         0.033034   
    323. D(C  21,C  20,C  19,C  18)     -0.8135         0.033034   
    324. D(N  27,C  21,C  20,H  64)      3.0064         0.021575   
    325. D(C  22,C  21,C  20,H  64)   -174.4421         0.021575   
    326. D(C  22,C  21,C  20,C  19)      4.1883         0.021575   
    327. D(N  27,C  21,C  20,C  19)   -178.3632         0.021575   
    328. D(H  65,C  22,C  21,N  27)     -3.0640         0.021648   
    329. D(H  65,C  22,C  21,C  20)    174.3878         0.021648   
    330. D(C  23,C  22,C  21,N  27)    178.2721         0.021648   
    331. D(C  23,C  22,C  21,C  20)     -4.2761         0.021648   
    332. D(H  66,C  23,C  22,H  65)      1.6040         0.033371   
    333. D(C  18,C  23,C  22,H  65)   -177.6811         0.033371   
    334. D(C  18,C  23,C  22,C  21)      0.9910         0.033371   
    335. D(H  66,C  23,C  18,C  19)   -176.8455         0.024946   
    336. D(H  66,C  23,C  22,C  21)   -179.7239         0.033371   
    337. D(H  66,C  23,C  18,C   8)      1.9635         0.024946   
    338. D(C  22,C  23,C  18,C  19)      2.4557         0.024946   
    339. D(C  22,C  23,C  18,C   8)   -178.7353         0.024946   
    340. D(S  26,C  24,C   5,C   4)    148.8383         0.013489   
    341. D(S  26,C  24,C   5,C   0)    -31.7883         0.013489   
    342. D(S  25,C  24,C   5,C   4)    -30.7310         0.013489   
    343. D(S  25,C  24,C   5,C   0)    148.6423         0.013489   
    344. D(H  67,S  26,C  24,S  25)     -3.7285         0.004588   
    345. D(H  67,S  26,C  24,C   5)    176.7053         0.004588   
    346. D(C  32,N  27,C  21,C  22)    176.0829         0.031728   
    347. D(C  32,N  27,C  21,C  20)     -1.3015         0.031728   
    348. D(C  28,N  27,C  21,C  22)      1.9832         0.031728   
    349. D(C  28,N  27,C  21,C  20)   -175.4012         0.031728   
    350. D(C  37,C  28,N  27,C  32)    126.9634         0.019113   
    351. D(C  37,C  28,N  27,C  21)    -58.4786         0.019113   
    352. D(C  29,C  28,N  27,C  32)    -51.2068         0.019113   
    353. D(C  29,C  28,N  27,C  21)    123.3512         0.019113   
    354. D(C  40,C  29,C  28,C  37)      4.6735         0.026710   
    355. D(C  40,C  29,C  28,N  27)   -177.1448         0.026710   
    356. D(S  30,C  29,C  28,C  37)   -174.4653         0.026710   
    357. D(S  30,C  29,C  28,N  27)      3.7164         0.026710   
    358. D(C  31,S  30,C  29,C  40)   -145.2857         0.004402   
    359. D(C  31,S  30,C  29,C  28)     33.8406         0.004402   
    360. D(C  33,C  31,S  30,C  29)    145.2011         0.004397   
    361. D(C  32,C  31,S  30,C  29)    -34.2983         0.004397   
    362. D(C  36,C  32,C  31,C  33)     -4.3990         0.026710   
    363. D(C  36,C  32,C  31,S  30)    175.1078         0.026710   
    364. D(N  27,C  32,C  31,C  33)    177.6315         0.026710   
    365. D(N  27,C  32,C  31,S  30)     -2.8616         0.026710   
    366. D(C  36,C  32,N  27,C  28)   -127.2349         0.019262   
    367. D(C  36,C  32,N  27,C  21)     58.2130         0.019262   
    368. D(C  31,C  32,N  27,C  28)     50.7247         0.019262   
    369. D(C  31,C  32,N  27,C  21)   -123.8274         0.019262   
    370. D(C  34,C  33,C  31,S  30)   -177.5678         0.027462   
    371. D(H  68,C  33,C  31,C  32)   -179.8335         0.027462   
    372. D(H  68,C  33,C  31,S  30)      0.6596         0.027462   
    373. D(C  34,C  33,C  31,C  32)      1.9392         0.027462   
    374. D(H  69,C  34,C  33,H  68)      1.0346         0.029247   
    375. D(H  69,C  34,C  33,C  31)    179.2448         0.029247   
    376. D(C  35,C  34,C  33,H  68)   -176.9209         0.029247   
    377. D(C  35,C  34,C  33,C  31)      1.2893         0.029247   
    378. D(H  70,C  35,C  34,H  69)     -0.6917         0.027343   
    379. D(H  70,C  35,C  34,C  33)    177.2556         0.027343   
    380. D(C  36,C  35,C  34,H  69)    179.9220         0.027343   
    381. D(C  36,C  35,C  34,C  33)     -2.1307         0.027343   
    382. D(H  71,C  36,C  35,H  70)     -0.2796         0.029738   
    383. D(H  71,C  36,C  35,C  34)    179.1096         0.029738   
    384. D(C  32,C  36,C  35,H  70)   -179.6864         0.029738   
    385. D(C  32,C  36,C  35,C  34)     -0.2972         0.029738   
    386. D(H  71,C  36,C  32,C  31)   -175.8290         0.027438   
    387. D(H  71,C  36,C  32,N  27)      2.0653         0.027438   
    388. D(C  35,C  36,C  32,C  31)      3.5841         0.027438   
    389. D(C  35,C  36,C  32,N  27)   -178.5216         0.027438   
    390. D(H  72,C  37,C  28,C  29)    175.7398         0.027510   
    391. D(H  72,C  37,C  28,N  27)     -2.3725         0.027510   
    392. D(C  38,C  37,C  28,C  29)     -3.7205         0.027510   
    393. D(C  38,C  37,C  28,N  27)    178.1671         0.027510   
    394. D(H  73,C  38,C  37,H  72)      0.1519         0.029707   
    395. D(H  73,C  38,C  37,C  28)    179.6071         0.029707   
    396. D(C  39,C  38,C  37,H  72)   -179.2921         0.029707   
    397. D(C  39,C  38,C  37,C  28)      0.1631         0.029707   
    398. D(H  74,C  39,C  38,H  73)      0.7326         0.027317   
    399. D(H  74,C  39,C  38,C  37)   -179.8262         0.027317   
    400. D(C  40,C  39,C  38,H  73)   -177.0416         0.027317   
    401. D(C  40,C  39,C  38,C  37)      2.3996         0.027317   
    402. D(H  75,C  40,C  39,H  74)     -1.0807         0.029276   
    403. D(H  75,C  40,C  39,C  38)    176.7034         0.029276   
    404. D(C  29,C  40,C  39,H  74)   -179.2023         0.029276   
    405. D(C  29,C  40,C  39,C  38)     -1.4182         0.029276   
    406. D(H  75,C  40,C  29,S  30)     -1.0812         0.027440   
    407. D(H  75,C  40,C  29,C  28)    179.7798         0.027440   
    408. D(C  39,C  40,C  29,S  30)    177.0589         0.027440   
    409. D(C  39,C  40,C  29,C  28)     -2.0802         0.027440   
    410. D(C  46,N  41,C  15,C  16)     12.6117         0.026217   
    411. D(C  46,N  41,C  15,C  14)   -167.0201         0.026217   
    412. D(C  42,N  41,C  15,C  16)    168.7913         0.026217   
    413. D(C  42,N  41,C  15,C  14)    -10.8405         0.026217   
    414. D(C  47,C  42,N  41,C  46)   -127.9254         0.019396   
    415. D(C  47,C  42,N  41,C  15)     74.4052         0.019396   
    416. D(C  43,C  42,N  41,C  46)     50.7881         0.019396   
    417. D(C  43,C  42,N  41,C  15)   -106.8813         0.019396   
    418. D(C  50,C  43,C  42,C  47)     -2.5604         0.027306   
    419. D(C  50,C  43,C  42,N  41)    178.7064         0.027306   
    420. D(S  44,C  43,C  42,C  47)    176.3810         0.027306   
    421. D(S  44,C  43,C  42,N  41)     -2.3522         0.027306   
    422. D(C  45,S  44,C  43,C  50)    143.0336         0.004185   
    423. D(C  45,S  44,C  43,C  42)    -35.8953         0.004185   
    424. D(C  51,C  45,S  44,C  43)   -142.8382         0.004174   
    425. D(C  46,C  45,S  44,C  43)     36.1083         0.004174   
    426. D(C  54,C  46,C  45,C  51)      2.3963         0.027292   
    427. D(C  54,C  46,C  45,S  44)   -176.5612         0.027292   
    428. D(N  41,C  46,C  45,C  51)   -179.0910         0.027292   
    429. D(N  41,C  46,C  45,S  44)      1.9515         0.027292   
    430. D(C  54,C  46,N  41,C  42)    127.9533         0.019299   
    431. D(C  54,C  46,N  41,C  15)    -74.4170         0.019299   
    432. D(C  45,C  46,N  41,C  42)    -50.5350         0.019299   
    433. D(C  45,C  46,N  41,C  15)    107.0947         0.019299   
    434. D(H  76,C  47,C  42,C  43)   -177.6403         0.028262   
    435. D(H  76,C  47,C  42,N  41)      1.0535         0.028262   
    436. D(C  48,C  47,C  42,C  43)      3.2808         0.028262   
    437. D(C  48,C  47,C  42,N  41)   -178.0255         0.028262   
    438. D(H  77,C  48,C  47,H  76)      0.3250         0.028705   
    439. D(H  77,C  48,C  47,C  42)    179.3862         0.028705   
    440. D(C  49,C  48,C  47,H  76)    179.5138         0.028705   
    441. D(C  49,C  48,C  47,C  42)     -1.4250         0.028705   
    442. D(H  78,C  49,C  48,H  77)     -0.2088         0.027866   
    443. D(H  78,C  49,C  48,C  47)   -179.3950         0.027866   
    444. D(C  50,C  49,C  48,H  77)    178.0268         0.027866   
    445. D(C  50,C  49,C  48,C  47)     -1.1595         0.027866   
    446. D(H  79,C  50,C  49,H  78)      1.0633         0.028739   
    447. D(H  79,C  50,C  49,C  48)   -177.1808         0.028739   
    448. D(C  43,C  50,C  49,H  78)   -179.8796         0.028739   
    449. D(C  43,C  50,C  49,C  48)      1.8764         0.028739   
    450. D(H  79,C  50,C  43,S  44)      0.1285         0.027751   
    451. D(H  79,C  50,C  43,C  42)    179.0481         0.027751   
    452. D(C  49,C  50,C  43,S  44)   -178.9373         0.027751   
    453. D(C  49,C  50,C  43,C  42)     -0.0177         0.027751   
    454. D(H  80,C  51,C  45,C  46)   -179.0141         0.027818   
    455. D(H  80,C  51,C  45,S  44)     -0.0766         0.027818   
    456. D(C  52,C  51,C  45,C  46)      0.2420         0.027818   
    457. D(C  52,C  51,C  45,S  44)    179.1795         0.027818   
    458. D(H  81,C  52,C  51,H  80)     -1.1089         0.028730   
    459. D(H  81,C  52,C  51,C  45)    179.6413         0.028730   
    460. D(C  53,C  52,C  51,H  80)    177.2956         0.028730   
    461. D(C  53,C  52,C  51,C  45)     -1.9542         0.028730   
    462. D(H  82,C  53,C  52,H  81)      0.1827         0.027902   
    463. D(H  82,C  53,C  52,C  51)   -178.2148         0.027902   
    464. D(C  54,C  53,C  52,H  81)    179.4276         0.027902   
    465. D(C  54,C  53,C  52,C  51)      1.0302         0.027902   
    466. D(H  83,C  54,C  53,H  82)     -0.0938         0.028708   
    467. D(H  83,C  54,C  53,C  52)   -179.3413         0.028708   
    468. D(C  46,C  54,C  53,H  82)   -179.1382         0.028708   
    469. D(C  46,C  54,C  53,C  52)      1.6142         0.028708   
    470. D(H  83,C  54,C  46,C  45)    177.6163         0.028269   
    471. D(H  83,C  54,C  46,N  41)     -0.8476         0.028269   
    472. D(C  53,C  54,C  46,C  45)     -3.3224         0.028269   
    473. D(C  53,C  54,C  46,N  41)    178.2136         0.028269   
    -----------------------------------------------------------------

Number of atoms                         .... 84
Number of degrees of freedom            .... 473

         *************************************************************
         *                GEOMETRY OPTIMIZATION CYCLE   1            *
         *************************************************************
---------------------------------
CARTESIAN COORDINATES (ANGSTROEM)
---------------------------------
  C     -8.324322   -1.227505   -0.126014
  C     -6.945639   -1.204824   -0.136418
  C     -6.263553    0.005068   -0.145433
  C     -6.988394    1.192382   -0.137618
  C     -8.364601    1.169691   -0.110804
  C     -9.053054   -0.040746   -0.106700
  C     -4.789738    0.022084   -0.153689
  N     -4.170039    1.206392   -0.160540
  C     -2.848458    1.140457   -0.161187
  N     -2.126555    0.037444   -0.154572
  C     -2.821010   -1.109559   -0.144932
  N     -4.153967   -1.137240   -0.146849
  C     -2.093584   -2.366097   -0.124491
  C     -0.700344   -2.393759   -0.108815
  C     -0.009103   -3.578438   -0.074273
  C     -0.689986   -4.804489   -0.052573
  C     -2.091455   -4.777374   -0.093549
  C     -2.769585   -3.585330   -0.125194
  C     -2.107077    2.419975   -0.154318
  C     -2.788925    3.642211   -0.143621
  C     -2.107963    4.824230   -0.109762
  C     -0.689390    4.832971   -0.067316
  C     -0.006915    3.592025   -0.152458
  C     -0.707037    2.422680   -0.184063
  C    -10.535088   -0.044686   -0.068372
  S    -11.404819    1.113834    0.662409
  S    -11.241527   -1.408509   -0.895219
  N      0.000000    6.002992    0.000000
  C      1.422934    6.061763   -0.051712
  C      2.001708    6.846122   -1.044816
  S      1.000352    7.799725   -2.121400
  C     -0.267611    8.189846   -0.976048
  C     -0.639452    7.275397    0.004753
  C     -0.908965    9.419734   -1.027120
  C     -1.870854    9.736252   -0.089618
  C     -2.187202    8.843525    0.925797
  C     -1.570471    7.612489    0.977610
  C      2.209380    5.393843    0.876370
  C      3.581753    5.448229    0.764640
  C      4.166428    6.169631   -0.267918
  C      3.384803    6.876317   -1.158780
  N      0.000000   -6.002992   -0.000000
  C      1.409002   -6.041439   -0.196346
  C      1.897088   -6.555671   -1.390472
  S      0.758952   -7.191950   -2.576413
  C     -0.403536   -7.892021   -1.450746
  C     -0.659791   -7.239273   -0.251984
  C      2.287698   -5.605455    0.780487
  C      3.648890   -5.619136    0.539904
  C      4.134558   -6.096735   -0.667331
  C      3.263625   -6.582578   -1.624367
  C     -1.042689   -9.088322   -1.737703
  C     -1.937076   -9.623853   -0.830026
  C     -2.165709   -8.990324    0.381295
  C     -1.514589   -7.807321    0.676967
  H     -8.836810   -2.178612   -0.103006
  H     -6.384264   -2.126388   -0.133726
  H     -6.460504    2.133677   -0.149638
  H     -8.928886    2.090305   -0.093223
  H     -0.155427   -1.461762   -0.126977
  H      1.068453   -3.560478   -0.076823
  H     -2.648305   -5.699744   -0.111404
  H     -3.848847   -3.586472   -0.155489
  H     -3.868008    3.629735   -0.173499
  H     -2.652809    5.752443   -0.137679
  H      1.067539    3.569062   -0.214216
  H     -0.193704    1.475161   -0.244311
  H    -12.508531   -1.107533   -0.583432
  H     -0.628364   10.135306   -1.787518
  H     -2.356435   10.701213   -0.129728
  H     -2.909151    9.114204    1.682893
  H     -1.795966    6.912933    1.770044
  H      1.741753    4.845389    1.681819
  H      4.199279    4.935413    1.488030
  H      5.243027    6.209386   -0.356378
  H      3.842223    7.480410   -1.930015
  H      1.892143   -5.243567    1.719742
  H      4.333173   -5.268953    1.300228
  H      5.199489   -6.117401   -0.853717
  H      3.639791   -6.998177   -2.549306
  H     -0.828040   -9.601292   -2.665356
  H     -2.438743  -10.554016   -1.058578
  H     -2.843696   -9.425426    1.102262
  H     -1.674082   -7.306293    1.621954

----------------------------
CARTESIAN COORDINATES (A.U.)
----------------------------
  NO LB      ZA    FRAG     MASS         X           Y           Z
   0 C     6.0000    0    12.011  -15.730688   -2.319649   -0.238131
   1 C     6.0000    0    12.011  -13.125356   -2.276786   -0.257792
   2 C     6.0000    0    12.011  -11.836400    0.009578   -0.274828
   3 C     6.0000    0    12.011  -13.206151    2.253276   -0.260061
   4 C     6.0000    0    12.011  -15.806806    2.210395   -0.209390
   5 C     6.0000    0    12.011  -17.107793   -0.076999   -0.201633
   6 C     6.0000    0    12.011   -9.051292    0.041732   -0.290430
   7 N     7.0000    0    14.007   -7.880231    2.279751   -0.303377
   8 C     6.0000    0    12.011   -5.382805    2.155151   -0.304599
   9 N     7.0000    0    14.007   -4.018606    0.070759   -0.292099
  10 C     6.0000    0    12.011   -5.330935   -2.096763   -0.273881
  11 N     7.0000    0    14.007   -7.849860   -2.149072   -0.277505
  12 C     6.0000    0    12.011   -3.956300   -4.471275   -0.235255
  13 C     6.0000    0    12.011   -1.323458   -4.523550   -0.205631
  14 C     6.0000    0    12.011   -0.017201   -6.762268   -0.140356
  15 C     6.0000    0    12.011   -1.303885   -9.079168   -0.099349
  16 C     6.0000    0    12.011   -3.952277   -9.027928   -0.176783
  17 C     6.0000    0    12.011   -5.233757   -6.775292   -0.236582
  18 C     6.0000    0    12.011   -3.981798    4.573089   -0.291619
  19 C     6.0000    0    12.011   -5.270305    6.882782   -0.271404
  20 C     6.0000    0    12.011   -3.983474    9.116473   -0.207420
  21 C     6.0000    0    12.011   -1.302759    9.132992   -0.127208
  22 C     6.0000    0    12.011   -0.013068    6.787943   -0.288103
  23 C     6.0000    0    12.011   -1.336107    4.578202   -0.347829
  24 C     6.0000    0    12.011  -19.908432   -0.084444   -0.129205
  25 S    16.0000    0    32.060  -21.551985    2.104840    1.251771
  26 S    16.0000    0    32.060  -21.243408   -2.661697   -1.691719
  27 N     7.0000    0    14.007    0.000000   11.344011    0.000000
  28 C     6.0000    0    12.011    2.688955   11.455072   -0.097722
  29 C     6.0000    0    12.011    3.782681   12.937296   -1.974416
  30 S    16.0000    0    32.060    1.890391   14.739343   -4.008866
  31 C     6.0000    0    12.011   -0.505712   15.476566   -1.844463
  32 C     6.0000    0    12.011   -1.208389   13.748507    0.008983
  33 C     6.0000    0    12.011   -1.717694   17.800718   -1.940976
  34 C     6.0000    0    12.011   -3.535402   18.398850   -0.169354
  35 C     6.0000    0    12.011   -4.133212   16.711839    1.749503
  36 C     6.0000    0    12.011   -2.967761   14.385520    1.847415
  37 C     6.0000    0    12.011    4.175123   10.192887    1.656099
  38 C     6.0000    0    12.011    6.768533   10.295660    1.444960
  39 C     6.0000    0    12.011    7.873408   11.658914   -0.506293
  40 C     6.0000    0    12.011    6.396351   12.994356   -2.189776
  41 N     7.0000    0    14.007    0.000000  -11.344011   -0.000000
  42 C     6.0000    0    12.011    2.662629  -11.416666   -0.371041
  43 C     6.0000    0    12.011    3.584977  -12.388422   -2.627611
  44 S    16.0000    0    32.060    1.434211  -13.590816   -4.868715
  45 C     6.0000    0    12.011   -0.762572  -14.913757   -2.741512
  46 C     6.0000    0    12.011   -1.246824  -13.680243   -0.476182
  47 C     6.0000    0    12.011    4.323123  -10.592774    1.474907
  48 C     6.0000    0    12.011    6.895402  -10.618628    1.020271
  49 C     6.0000    0    12.011    7.813183  -11.521160   -1.261072
  50 C     6.0000    0    12.011    6.167357  -12.439269   -3.069608
  51 C     6.0000    0    12.011   -1.970396  -17.174439   -3.283783
  52 C     6.0000    0    12.011   -3.660544  -18.186447   -1.568523
  53 C     6.0000    0    12.011   -4.092597  -16.989251    0.720542
  54 C     6.0000    0    12.011   -2.862159  -14.753698    1.279282
  55 H     1.0000    0     1.008  -16.699151   -4.116980   -0.194653
  56 H     1.0000    0     1.008  -12.064511   -4.018290   -0.252705
  57 H     1.0000    0     1.008  -12.208582    4.032065   -0.282774
  58 H     1.0000    0     1.008  -16.873150    3.950104   -0.176165
  59 H     1.0000    0     1.008   -0.293714   -2.762329   -0.239952
  60 H     1.0000    0     1.008    2.019084   -6.728329   -0.145174
  61 H     1.0000    0     1.008   -5.004571  -10.770955   -0.210523
  62 H     1.0000    0     1.008   -7.273268   -6.777450   -0.293831
  63 H     1.0000    0     1.008   -7.309475    6.859206   -0.327866
  64 H     1.0000    0     1.008   -5.013082   10.870543   -0.260176
  65 H     1.0000    0     1.008    2.017356    6.744550   -0.404810
  66 H     1.0000    0     1.008   -0.366047    2.787651   -0.461680
  67 H     1.0000    0     1.008  -23.637698   -2.092934   -1.102528
  68 H     1.0000    0     1.008   -1.187436   19.152953   -3.377920
  69 H     1.0000    0     1.008   -4.453018   20.222362   -0.245150
  70 H     1.0000    0     1.008   -5.497499   17.223350    3.180207
  71 H     1.0000    0     1.008   -3.393883   13.063551    3.344899
  72 H     1.0000    0     1.008    3.291437    9.156458    3.178177
  73 H     1.0000    0     1.008    7.935487    9.326579    2.811969
  74 H     1.0000    0     1.008    9.907885   11.734039   -0.673457
  75 H     1.0000    0     1.008    7.260749   14.135926   -3.647200
  76 H     1.0000    0     1.008    3.575632   -9.908906    3.249842
  77 H     1.0000    0     1.008    8.188511   -9.956879    2.457075
  78 H     1.0000    0     1.008    9.825610  -11.560213   -1.613292
  79 H     1.0000    0     1.008    6.878209  -13.224638   -4.817491
  80 H     1.0000    0     1.008   -1.564768  -18.143812   -5.036792
  81 H     1.0000    0     1.008   -4.608557  -19.944201   -2.000422
  82 H     1.0000    0     1.008   -5.373807  -17.811475    2.082973
  83 H     1.0000    0     1.008   -3.163556  -13.806894    3.065048

--------------------------------
INTERNAL COORDINATES (ANGSTROEM)
--------------------------------
 C      0   0   0     0.000000000000     0.00000000     0.00000000
 C      1   0   0     1.378908247673     0.00000000     0.00000000
 C      2   1   0     1.388942262878   120.35659820     0.00000000
 C      3   2   1     1.391104046453   119.18039045     0.29312831
 C      4   3   2     1.376655323327   120.45927045     0.49980072
 C      5   4   3     1.392530224572   120.57155523   359.25381750
 C      3   2   1     1.473936953423   120.07511830   179.87232312
 N      7   3   2     1.336660316402   118.28361780   180.08306625
 C      8   7   3     1.323224684381   114.76477722   179.68890512
 N      9   8   7     1.318265724315   126.05957037   359.93452199
 C     10   9   8     1.340886696577   115.60430544   359.92493665
 N      7   3   2     1.322226489475   118.07604616   359.73676804
 C     11  10   9     1.452051154991   118.74271637   180.57259394
 C     13  11  10     1.393602533980   121.20952597     0.29241896
 C     14  13  11     1.372031760645   121.40604639   179.25582717
 C     15  14  13     1.402595414227   120.70273656   359.95116303
 C     16  15  14     1.402329754663   117.89117424     1.21287824
 C     17  16  15     1.371798004973   120.76438331   358.65160021
 C      9   8   7     1.478803195421   117.23227187   180.62421713
 C     19   9   8     1.399604957003   120.75625250     0.18282474
 C     20  19   9     1.364559559948   120.89902400   178.65414252
 C     21  20  19     1.419234981013   120.32332367   359.18647956
 C     22  21  20     1.418791582478   118.26946270     4.18833238
 C     23  22  21     1.363281661756   120.30363820   355.72388434
 C      6   5   4     1.482535076668   119.77590879   179.58636265
 S     25   6   5     1.622541254512   123.06533894   329.26899078
 S     25   6   5     1.744346610624   113.24565964   148.83831262
 N     22  21  20     1.359683157395   120.90174107   181.63684557
 C     28  22  21     1.425085645087   122.68012244   184.59878207
 C     29  28  22     1.391565066703   117.67334936   123.35121291
 S     30  29  28     1.752457515237   120.49602018     3.71637214
 C     31  30  29     1.752642727338    97.64550488    33.84061582
 C     32  31  30     1.391565192078   120.50691444   325.70165535
 C     32  31  30     1.388008884210   120.49566614   145.20109210
 C     34  32  31     1.379973025583   120.02088184   182.43222636
 C     35  34  32     1.388562745924   120.53982361     1.28929954
 C     36  35  34     1.377856348461   119.99546615   357.86931491
 C     29  28  22     1.387786132615   121.44769492   301.52140962
 C     38  29  28     1.377987569707   119.41710578   178.16714966
 C     39  38  29     1.388684176902   120.00687548     0.16306835
 C     40  39  38     1.379846267616   120.50500834     2.39961964
 N     16  15  14     1.383927506625   121.03549528   180.85603821
 C     42  16  15     1.423136599191   120.78210129   349.15952334
 C     43  42  16     1.388739789774   118.46393945   253.11868613
 S     44  43  42     1.762572617105   119.03089579   357.64780982
 C     45  44  43     1.763123261740    98.01929487   324.10474423
 C     46  45  44     1.388803448673   119.08592281    36.10834959
 C     43  42  16     1.384338286948   121.50506923    74.40520517
 C     48  43  42     1.382356705803   119.94034796   181.97454938
 C     49  48  43     1.386142390743   119.99968070   358.57500527
 C     50  49  48     1.382203373998   120.22315890   358.84053654
 C     46  45  44     1.386360919628   120.96072850   217.16179420
 C     52  46  45     1.382244805604   119.78267827   179.17953436
 C     53  52  46     1.385976432731   120.23578205   358.04580472
 C     54  53  52     1.382344417712   120.02783598     1.03021172
 H      1   2   3     1.080637440004   119.26219743   180.97841312
 H      2   1   3     1.079087300223   120.40302814   179.75840034
 H      4   3   2     1.079281533082   119.30552142   180.30671644
 H      5   4   3     1.079933996400   120.57150589   179.29280108
 H     14  13  11     1.079761095245   119.15741623   359.08917304
 H     15  14  13     1.077708523447   119.29382540   179.16053827
 H     17  16  15     1.077574383645   120.02504275   177.98082978
 H     18  17  16     1.079688356254   119.59522747   180.06343183
 H     20  19   9     1.079568334674   118.46678938   358.00730825
 H     21  20  19     1.076669107720   119.57814579   177.82383817
 H     23  22  21     1.076472447497   120.14723780   174.38775427
 H     24  23  22     1.079320728186   120.66657190   180.27605345
 H     27  25   6     1.339065321850    95.57162776   176.70528225
 H     34  32  31     1.081196007042   119.49826420     0.65958386
 H     35  34  32     1.080993798703   119.51459575   179.24479892
 H     36  35  34     1.080588823557   120.23299229   177.25560052
 H     37  36  35     1.080823238367   120.82790729   179.10956622
 H     38  29  28     1.080844685304   119.82781405   357.62745618
 H     39  38  29     1.080560446723   119.74538334   179.60705004
 H     40  39  38     1.080957929428   119.95260762   180.17381839
 H     41  40  39     1.081186761689   120.46677749   176.70344691
 H     48  43  42     1.081492651252   119.08172474     1.05350602
 H     49  48  43     1.081186364464   119.84237812   179.38618152
 H     50  49  48     1.081315872484   120.11735289   180.60495759
 H     51  50  49     1.081543790567   120.53446340   182.81919174
 H     52  46  45     1.081550729432   119.68984456   359.92344700
 H     53  52  46     1.081253176292   119.65036437   179.64126605
 H     54  53  52     1.081098550733   120.15439189   181.78524554
 H     55  54  53     1.081418438976   120.92617444   180.65867615

---------------------------
INTERNAL COORDINATES (A.U.)
---------------------------
 C      0   0   0     0.000000000000     0.00000000     0.00000000
 C      1   0   0     2.605758951908     0.00000000     0.00000000
 C      2   1   0     2.624720492668   120.35659820     0.00000000
 C      3   2   1     2.628805671586   119.18039045     0.29312831
 C      4   3   2     2.601501541893   120.45927045     0.49980072
 C      5   4   3     2.631500757649   120.57155523   359.25381750
 C      3   2   1     2.785337180636   120.07511830   179.87232312
 N      7   3   2     2.525921932081   118.28361780   180.08306625
 C      8   7   3     2.500532267125   114.76477722   179.68890512
 N      9   8   7     2.491161190690   126.05957037   359.93452199
 C     10   9   8     2.533908633149   115.60430544   359.92493665
 N      7   3   2     2.498645952124   118.07604616   359.73676804
 C     11  10   9     2.743979015378   118.74271637   180.57259394
 C     13  11  10     2.633527128760   121.20952597     0.29241896
 C     14  13  11     2.592764274661   121.40604639   179.25582717
 C     15  14  13     2.650521209583   120.70273656   359.95116303
 C     16  15  14     2.650019185763   117.89117424     1.21287824
 C     17  16  15     2.592322540459   120.76438331   358.65160021
 C      9   8   7     2.794533045314   117.23227187   180.62421713
 C     19   9   8     2.644870064414   120.75625250     0.18282474
 C     20  19   9     2.578643861726   120.89902400   178.65414252
 C     21  20  19     2.681965433796   120.32332367   359.18647956
 C     22  21  20     2.681127531997   118.26946270     4.18833238
 C     23  22  21     2.576228984116   120.30363820   355.72388434
 C      6   5   4     2.801585278835   119.77590879   179.58636265
 S     25   6   5     3.066158612016   123.06533894   329.26899078
 S     25   6   5     3.296337376713   113.24565964   148.83831262
 N     22  21  20     2.569428796381   120.90174107   181.63684557
 C     28  22  21     2.693021586596   122.68012244   184.59878207
 C     29  28  22     2.629676873600   117.67334936   123.35121291
 S     30  29  28     3.311664765129   120.49602018     3.71637214
 C     31  30  29     3.312014765278    97.64550488    33.84061582
 C     32  31  30     2.629677110525   120.50691444   325.70165535
 C     32  31  30     2.622956662607   120.49566614   145.20109210
 C     34  32  31     2.607771090550   120.02088184   182.43222636
 C     35  34  32     2.624003309563   120.53982361     1.28929954
 C     36  35  34     2.603771150477   119.99546615   357.86931491
 C     29  28  22     2.622535723096   121.44769492   301.52140962
 C     38  29  28     2.604019122693   119.41710578   178.16714966
 C     39  38  29     2.624232780854   120.00687548     0.16306835
 C     40  39  38     2.607531552708   120.50500834     2.39961964
 N     16  15  14     2.615243976721   121.03549528   180.85603821
 C     42  16  15     2.689338423631   120.78210129   349.15952334
 C     43  42  16     2.624337873953   118.46393945   253.11868613
 S     44  43  42     3.330779537476   119.03089579   357.64780982
 C     45  44  43     3.331820105034    98.01929487   324.10474423
 C     46  45  44     2.624458171837   119.08592281    36.10834959
 C     43  42  16     2.616020239033   121.50506923    74.40520517
 C     48  43  42     2.612275593358   119.94034796   181.97454938
 C     49  48  43     2.619429501123   119.99968070   358.57500527
 C     50  49  48     2.611985838239   120.22315890   358.84053654
 C     46  45  44     2.619842460868   120.96072850   217.16179420
 C     52  46  45     2.612064132626   119.78267827   179.17953436
 C     53  52  46     2.619115885932   120.23578205   358.04580472
 C     54  53  52     2.612252372231   120.02783598     1.03021172
 H      1   2   3     2.042108811669   119.26219743   180.97841312
 H      2   1   3     2.039179472014   120.40302814   179.75840034
 H      4   3   2     2.039546518923   119.30552142   180.30671644
 H      5   4   3     2.040779495908   120.57150589   179.29280108
 H     14  13  11     2.040452760077   119.15741623   359.08917304
 H     15  14  13     2.036573961508   119.29382540   179.16053827
 H     17  16  15     2.036320474018   120.02504275   177.98082978
 H     18  17  16     2.040315303303   119.59522747   180.06343183
 H     20  19   9     2.040088495387   118.46678938   358.00730825
 H     21  20  19     2.034609750445   119.57814579   177.82383817
 H     23  22  21     2.034238116482   120.14723780   174.38775427
 H     24  23  22     2.039620586937   120.66657190   180.27605345
 H     27  25   6     2.530466733727    95.57162776   176.70528225
 H     34  32  31     2.043164350399   119.49826420     0.65958386
 H     35  34  32     2.042782232015   119.51459575   179.24479892
 H     36  35  34     2.042016939899   120.23299229   177.25560052
 H     37  36  35     2.042459919691   120.82790729   179.10956622
 H     38  29  28     2.042500448530   119.82781405   357.62745618
 H     39  38  29     2.041963315453   119.74538334   179.60705004
 H     40  39  38     2.042714448910   119.95260762   180.17381839
 H     41  40  39     2.043146879213   120.46677749   176.70344691
 H     48  43  42     2.043724926716   119.08172474     1.05350602
 H     49  48  43     2.043146128567   119.84237812   179.38618152
 H     50  49  48     2.043390863257   120.11735289   180.60495759
 H     51  50  49     2.043821566015   120.53446340   182.81919174
 H     52  46  45     2.043834678570   119.68984456   359.92344700
 H     53  52  46     2.043272384624   119.65036437   179.64126605
 H     54  53  52     2.042980184664   120.15439189   181.78524554
 H     55  54  53     2.043584685838   120.92617444   180.65867615

---------------------
BASIS SET INFORMATION
---------------------
There are 4 groups of distinct atoms

 Group   1 Type C   : 11s6p2d1f contracted to 5s3p2d1f pattern {62111/411/11/1}
 Group   2 Type N   : 11s6p2d1f contracted to 5s3p2d1f pattern {62111/411/11/1}
 Group   3 Type S   : 14s9p3d1f contracted to 5s5p2d1f pattern {73211/51111/21/1}
 Group   4 Type H   : 5s1p contracted to 3s1p pattern {311/1}

Atom   0C    basis set group =>   1
Atom   1C    basis set group =>   1
Atom   2C    basis set group =>   1
Atom   3C    basis set group =>   1
Atom   4C    basis set group =>   1
Atom   5C    basis set group =>   1
Atom   6C    basis set group =>   1
Atom   7N    basis set group =>   2
Atom   8C    basis set group =>   1
Atom   9N    basis set group =>   2
Atom  10C    basis set group =>   1
Atom  11N    basis set group =>   2
Atom  12C    basis set group =>   1
Atom  13C    basis set group =>   1
Atom  14C    basis set group =>   1
Atom  15C    basis set group =>   1
Atom  16C    basis set group =>   1
Atom  17C    basis set group =>   1
Atom  18C    basis set group =>   1
Atom  19C    basis set group =>   1
Atom  20C    basis set group =>   1
Atom  21C    basis set group =>   1
Atom  22C    basis set group =>   1
Atom  23C    basis set group =>   1
Atom  24C    basis set group =>   1
Atom  25S    basis set group =>   3
Atom  26S    basis set group =>   3
Atom  27N    basis set group =>   2
Atom  28C    basis set group =>   1
Atom  29C    basis set group =>   1
Atom  30S    basis set group =>   3
Atom  31C    basis set group =>   1
Atom  32C    basis set group =>   1
Atom  33C    basis set group =>   1
Atom  34C    basis set group =>   1
Atom  35C    basis set group =>   1
Atom  36C    basis set group =>   1
Atom  37C    basis set group =>   1
Atom  38C    basis set group =>   1
Atom  39C    basis set group =>   1
Atom  40C    basis set group =>   1
Atom  41N    basis set group =>   2
Atom  42C    basis set group =>   1
Atom  43C    basis set group =>   1
Atom  44S    basis set group =>   3
Atom  45C    basis set group =>   1
Atom  46C    basis set group =>   1
Atom  47C    basis set group =>   1
Atom  48C    basis set group =>   1
Atom  49C    basis set group =>   1
Atom  50C    basis set group =>   1
Atom  51C    basis set group =>   1
Atom  52C    basis set group =>   1
Atom  53C    basis set group =>   1
Atom  54C    basis set group =>   1
Atom  55H    basis set group =>   4
Atom  56H    basis set group =>   4
Atom  57H    basis set group =>   4
Atom  58H    basis set group =>   4
Atom  59H    basis set group =>   4
Atom  60H    basis set group =>   4
Atom  61H    basis set group =>   4
Atom  62H    basis set group =>   4
Atom  63H    basis set group =>   4
Atom  64H    basis set group =>   4
Atom  65H    basis set group =>   4
Atom  66H    basis set group =>   4
Atom  67H    basis set group =>   4
Atom  68H    basis set group =>   4
Atom  69H    basis set group =>   4
Atom  70H    basis set group =>   4
Atom  71H    basis set group =>   4
Atom  72H    basis set group =>   4
Atom  73H    basis set group =>   4
Atom  74H    basis set group =>   4
Atom  75H    basis set group =>   4
Atom  76H    basis set group =>   4
Atom  77H    basis set group =>   4
Atom  78H    basis set group =>   4
Atom  79H    basis set group =>   4
Atom  80H    basis set group =>   4
Atom  81H    basis set group =>   4
Atom  82H    basis set group =>   4
Atom  83H    basis set group =>   4
---------------------------------
AUXILIARY/J BASIS SET INFORMATION
---------------------------------
There are 4 groups of distinct atoms

 Group   1 Type C   : 12s5p4d2f1g contracted to 6s4p3d1f1g pattern {711111/2111/211/2/1}
 Group   2 Type N   : 12s5p4d2f1g contracted to 6s4p3d1f1g pattern {711111/2111/211/2/1}
 Group   3 Type S   : 14s5p5d2f1g contracted to 8s4p3d1f1g pattern {71111111/2111/311/2/1}
 Group   4 Type H   : 5s2p1d contracted to 3s1p1d pattern {311/2/1}

Atom   0C    basis set group =>   1
Atom   1C    basis set group =>   1
Atom   2C    basis set group =>   1
Atom   3C    basis set group =>   1
Atom   4C    basis set group =>   1
Atom   5C    basis set group =>   1
Atom   6C    basis set group =>   1
Atom   7N    basis set group =>   2
Atom   8C    basis set group =>   1
Atom   9N    basis set group =>   2
Atom  10C    basis set group =>   1
Atom  11N    basis set group =>   2
Atom  12C    basis set group =>   1
Atom  13C    basis set group =>   1
Atom  14C    basis set group =>   1
Atom  15C    basis set group =>   1
Atom  16C    basis set group =>   1
Atom  17C    basis set group =>   1
Atom  18C    basis set group =>   1
Atom  19C    basis set group =>   1
Atom  20C    basis set group =>   1
Atom  21C    basis set group =>   1
Atom  22C    basis set group =>   1
Atom  23C    basis set group =>   1
Atom  24C    basis set group =>   1
Atom  25S    basis set group =>   3
Atom  26S    basis set group =>   3
Atom  27N    basis set group =>   2
Atom  28C    basis set group =>   1
Atom  29C    basis set group =>   1
Atom  30S    basis set group =>   3
Atom  31C    basis set group =>   1
Atom  32C    basis set group =>   1
Atom  33C    basis set group =>   1
Atom  34C    basis set group =>   1
Atom  35C    basis set group =>   1
Atom  36C    basis set group =>   1
Atom  37C    basis set group =>   1
Atom  38C    basis set group =>   1
Atom  39C    basis set group =>   1
Atom  40C    basis set group =>   1
Atom  41N    basis set group =>   2
Atom  42C    basis set group =>   1
Atom  43C    basis set group =>   1
Atom  44S    basis set group =>   3
Atom  45C    basis set group =>   1
Atom  46C    basis set group =>   1
Atom  47C    basis set group =>   1
Atom  48C    basis set group =>   1
Atom  49C    basis set group =>   1
Atom  50C    basis set group =>   1
Atom  51C    basis set group =>   1
Atom  52C    basis set group =>   1
Atom  53C    basis set group =>   1
Atom  54C    basis set group =>   1
Atom  55H    basis set group =>   4
Atom  56H    basis set group =>   4
Atom  57H    basis set group =>   4
Atom  58H    basis set group =>   4
Atom  59H    basis set group =>   4
Atom  60H    basis set group =>   4
Atom  61H    basis set group =>   4
Atom  62H    basis set group =>   4
Atom  63H    basis set group =>   4
Atom  64H    basis set group =>   4
Atom  65H    basis set group =>   4
Atom  66H    basis set group =>   4
Atom  67H    basis set group =>   4
Atom  68H    basis set group =>   4
Atom  69H    basis set group =>   4
Atom  70H    basis set group =>   4
Atom  71H    basis set group =>   4
Atom  72H    basis set group =>   4
Atom  73H    basis set group =>   4
Atom  74H    basis set group =>   4
Atom  75H    basis set group =>   4
Atom  76H    basis set group =>   4
Atom  77H    basis set group =>   4
Atom  78H    basis set group =>   4
Atom  79H    basis set group =>   4
Atom  80H    basis set group =>   4
Atom  81H    basis set group =>   4
Atom  82H    basis set group =>   4
Atom  83H    basis set group =>   4


           ************************************************************
           *        Program running with 36 parallel MPI-processes    *
           *              working on a shared directory               *
           ************************************************************
Error: Cannot open input file Combo62_Cf7tc_2.60424_-2.60424_ck-1.int.tmp

ORCA finished by error termination in GTOInt
Calling Command: mpirun -np 36  /software/rapids/r23.04/ORCA/5.0.3-gompi-2021b/bin/orca_gtoint_mpi Combo62_Cf7tc_2.60424_-2.60424_ck-1.int.tmp Combo62_Cf7tc_2.60424_-2.60424_ck-1 
[file orca_tools/qcmsg.cpp, line 465]: 
  .... aborting the run

