
                                 *****************
                                 * O   R   C   A *
                                 *****************

                                            #,                                       
                                            ###                                      
                                            ####                                     
                                            #####                                    
                                            ######                                   
                                           ########,                                 
                                     ,,################,,,,,                         
                               ,,#################################,,                 
                          ,,##########################################,,             
                       ,#########################################, ''#####,          
                    ,#############################################,,   '####,        
                  ,##################################################,,,,####,       
                ,###########''''           ''''###############################       
              ,#####''   ,,,,##########,,,,          '''####'''          '####       
            ,##' ,,,,###########################,,,                        '##       
           ' ,,###''''                  '''############,,,                           
         ,,##''                                '''############,,,,        ,,,,,,###''
      ,#''                                            '''#######################'''  
     '                                                          ''''####''''         
             ,#######,   #######,   ,#######,      ##                                
            ,#'     '#,  ##    ##  ,#'     '#,    #''#        ######   ,####,        
            ##       ##  ##   ,#'  ##            #'  '#       #        #'  '#        
            ##       ##  #######   ##           ,######,      #####,   #    #        
            '#,     ,#'  ##    ##  '#,     ,#' ,#      #,         ##   #,  ,#        
             '#######'   ##     ##  '#######'  #'      '#     #####' # '####'        



                  #######################################################
                  #                        -***-                        #
                  #          Department of theory and spectroscopy      #
                  #    Directorship and core code : Frank Neese         #
                  #        Max Planck Institute fuer Kohlenforschung    #
                  #                Kaiser Wilhelm Platz 1               #
                  #                 D-45470 Muelheim/Ruhr               #
                  #                      Germany                        #
                  #                                                     #
                  #                  All rights reserved                #
                  #                        -***-                        #
                  #######################################################


                         Program Version 5.0.3 -  RELEASE  -


 With contributions from (in alphabetic order):
   Daniel Aravena         : Magnetic Suceptibility
   Michael Atanasov       : Ab Initio Ligand Field Theory (pilot matlab implementation)
   Alexander A. Auer      : GIAO ZORA, VPT2 properties, NMR spectrum
   Ute Becker             : Parallelization
   Giovanni Bistoni       : ED, misc. LED, open-shell LED, HFLD
   Martin Brehm           : Molecular dynamics
   Dmytro Bykov           : SCF Hessian
   Vijay G. Chilkuri      : MRCI spin determinant printing, contributions to CSF-ICE
   Dipayan Datta          : RHF DLPNO-CCSD density
   Achintya Kumar Dutta   : EOM-CC, STEOM-CC
   Dmitry Ganyushin       : Spin-Orbit,Spin-Spin,Magnetic field MRCI
   Miquel Garcia          : C-PCM and meta-GGA Hessian, CC/C-PCM, Gaussian charge scheme
   Yang Guo               : DLPNO-NEVPT2, F12-NEVPT2, CIM, IAO-localization
   Andreas Hansen         : Spin unrestricted coupled pair/coupled cluster methods
   Benjamin Helmich-Paris : MC-RPA, TRAH-SCF, COSX integrals
   Lee Huntington         : MR-EOM, pCC
   Robert Izsak           : Overlap fitted RIJCOSX, COSX-SCS-MP3, EOM
   Marcus Kettner         : VPT2
   Christian Kollmar      : KDIIS, OOCD, Brueckner-CCSD(T), CCSD density, CASPT2, CASPT2-K
   Simone Kossmann        : Meta GGA functionals, TD-DFT gradient, OOMP2, MP2 Hessian
   Martin Krupicka        : Initial AUTO-CI
   Lucas Lang             : DCDCAS
   Marvin Lechner         : AUTO-CI (C++ implementation), FIC-MRCC
   Dagmar Lenk            : GEPOL surface, SMD
   Dimitrios Liakos       : Extrapolation schemes; Compound Job, initial MDCI parallelization
   Dimitrios Manganas     : Further ROCIS development; embedding schemes
   Dimitrios Pantazis     : SARC Basis sets
   Anastasios Papadopoulos: AUTO-CI, single reference methods and gradients
   Taras Petrenko         : DFT Hessian,TD-DFT gradient, ASA, ECA, R-Raman, ABS, FL, XAS/XES, NRVS
   Peter Pinski           : DLPNO-MP2, DLPNO-MP2 Gradient
   Christoph Reimann      : Effective Core Potentials
   Marius Retegan         : Local ZFS, SOC
   Christoph Riplinger    : Optimizer, TS searches, QM/MM, DLPNO-CCSD(T), (RO)-DLPNO pert. Triples
   Tobias Risthaus        : Range-separated hybrids, TD-DFT gradient, RPA, STAB
   Michael Roemelt        : Original ROCIS implementation
   Masaaki Saitow         : Open-shell DLPNO-CCSD energy and density
   Barbara Sandhoefer     : DKH picture change effects
   Avijit Sen             : IP-ROCIS
   Kantharuban Sivalingam : CASSCF convergence, NEVPT2, FIC-MRCI
   Bernardo de Souza      : ESD, SOC TD-DFT
   Georgi Stoychev        : AutoAux, RI-MP2 NMR, DLPNO-MP2 response
   Willem Van den Heuvel  : Paramagnetic NMR
   Boris Wezisla          : Elementary symmetry handling
   Frank Wennmohs         : Technical directorship


 We gratefully acknowledge several colleagues who have allowed us to
 interface, adapt or use parts of their codes:
   Stefan Grimme, W. Hujo, H. Kruse, P. Pracht,  : VdW corrections, initial TS optimization,
                  C. Bannwarth, S. Ehlert          DFT functionals, gCP, sTDA/sTD-DF
   Ed Valeev, F. Pavosevic, A. Kumar             : LibInt (2-el integral package), F12 methods
   Garnet Chan, S. Sharma, J. Yang, R. Olivares  : DMRG
   Ulf Ekstrom                                   : XCFun DFT Library
   Mihaly Kallay                                 : mrcc  (arbitrary order and MRCC methods)
   Jiri Pittner, Ondrej Demel                    : Mk-CCSD
   Frank Weinhold                                : gennbo (NPA and NBO analysis)
   Christopher J. Cramer and Donald G. Truhlar   : smd solvation model
   Lars Goerigk                                  : TD-DFT with DH, B97 family of functionals
   V. Asgeirsson, H. Jonsson                     : NEB implementation
   FAccTs GmbH                                   : IRC, NEB, NEB-TS, DLPNO-Multilevel, CI-OPT
                                                   MM, QMMM, 2- and 3-layer-ONIOM, Crystal-QMMM,
                                                   LR-CPCM, SF, NACMEs, symmetry and pop. for TD-DFT,
                                                   nearIR, NL-DFT gradient (VV10), updates on ESD,
                                                   ML-optimized integration grids
   S Lehtola, MJT Oliveira, MAL Marques          : LibXC Library
   Liviu Ungur et al                             : ANISO software


 Your calculation uses the libint2 library for the computation of 2-el integrals
 For citations please refer to: http://libint.valeyev.net

 Your ORCA version has been built with support for libXC version: 5.1.0
 For citations please refer to: https://tddft.org/programs/libxc/

 This ORCA versions uses:
   CBLAS   interface :  Fast vector & matrix operations
   LAPACKE interface :  Fast linear algebra routines
   SCALAPACK package :  Parallel linear algebra routines
   Shared memory     :  Shared parallel matrices
   BLAS/LAPACK       :  OpenBLAS 0.3.15  USE64BITINT DYNAMIC_ARCH NO_AFFINITY Prescott SINGLE_THREADED
        Core in use  :  Prescott
   Copyright (c) 2011-2014, The OpenBLAS Project


Your calculation utilizes the atom-pairwise dispersion correction
based on tight binding partial charges (D4)
Cite in your paper:
E.Caldeweyher, C.Bannwarth, S.Grimme, J.Chem.Phys., (2017), 147, 034112.
E.Caldeweyher, S.Ehlert, A.Hansen, H.Neugebauer, S.Grimme, J.Chem.Phys., (2018), in progress.
   

XCFun DFT library Copyright 2009-2010 Ulf Ekstrom and contributors.
See http://admol.org/xcfun for more information.
This is free software; see the source code for copying conditions.
There is ABSOLUTELY NO WARRANTY; not even for MERCHANTABILITY or FITNESS FOR A PARTICULAR PURPOSE.
For details see the documentation.
Scientific users of this library should cite U. Ekstrom, L. Visscher, R. Bast, A. J. Thorvaldsen and K. Ruud;
J.Chem.Theor.Comp. 2010, DOI: 10.1021/ct100117s
XCFun Version 0.99 

================================================================================

----- Orbital basis set information -----
Your calculation utilizes the basis: def2-TZVP
   F. Weigend and R. Ahlrichs, Phys. Chem. Chem. Phys. 7, 3297 (2005).

----- AuxJ basis set information -----
Your calculation utilizes the auxiliary basis: def2/J
   F. Weigend, Phys. Chem. Chem. Phys. 8, 1057 (2006).

================================================================================
                                        WARNINGS
                       Please study these warnings very carefully!
================================================================================


WARNING: Geometry Optimization
  ===> : Switching off AutoStart
         For restart on a previous wavefunction, please use MOREAD

INFO   : the flag for use of the SHARK integral package has been found!

================================================================================
                                       INPUT FILE
================================================================================
NAME = Combo6_Cf1tc_-0.43404_0.43404_ck0.inp
|  1> ## Generated with Autochar
|  2> ! UKS OPT CAM-B3LYP D4 def2-TZVP  CHELPG
|  3> % pointcharges "pointcharges.pc"
|  4> %scf
|  5> 	SCFMode Direct
|  6> 	MaxIter 500
|  7> end
|  8> %pal
|  9> 	nprocs 36
| 10> end
| 11> %elprop
| 12>     Dipole true
| 13> end
| 14> %chelpg
| 15> 	GRID 0.3
| 16> 	RMAX 4
| 17> end
| 18> * xyz 1 2
| 19>  C -5.21608878 -0.00032418 -0.07523140
| 20>  C -5.92754221 0.28549258 1.07790395
| 21>  C -7.30661059 0.30915743 1.05098445
| 22>  C -7.99304052 0.03636171 -0.12855422
| 23>  C -7.27147509 -0.25368562 -1.28065860
| 24>  C -5.89055880 -0.26447864 -1.25414898
| 25>  S -9.74841331 0.07693461 -0.07879185
| 26>  N -3.79540080 -0.00874884 -0.04879679
| 27>  C -2.99791482 -1.12255540 -0.06227899
| 28>  C -1.64425027 -0.72313902 -0.01327173
| 29>  C -1.64081856 0.71587778 0.01543758
| 30>  C -2.98500411 1.11522685 -0.00151579
| 31>  C -0.64897751 -1.68495398 0.00907330
| 32>  C -1.02550357 -3.01061831 -0.03373833
| 33>  C -2.35911777 -3.40515871 -0.09839983
| 34>  C -3.36381896 -2.46114471 -0.10852964
| 35>  C -3.34910341 2.45249898 0.00964578
| 36>  C -2.33428643 3.38408108 0.02939504
| 37>  C -0.98900222 3.00622015 0.03164279
| 38>  C -0.63625935 1.67328638 0.02481148
| 39>  N 0.00000000 -4.02976552 0.00000000
| 40>  C 0.31036047 -4.58188118 1.22878869
| 41>  C 1.28921498 -5.58183557 1.38004830
| 42>  S 2.22156173 -6.19967113 0.08081958
| 43>  C 1.61902891 -5.34276601 -1.27620055
| 44>  C 0.59534692 -4.38035925 -1.19703934
| 45>  N 0.00000000 4.02976552 0.00000000
| 46>  C 0.71329500 4.32003467 1.18153974
| 47>  C 1.49550859 5.47382564 1.25827963
| 48>  S 1.46199785 6.65580900 -0.04092902
| 49>  C 1.25854792 5.56811262 -1.40431643
| 50>  C 0.50276931 4.40369271 -1.26474129
| 51>  C -0.36333160 -4.14328561 2.38279016
| 52>  C -0.08373187 -4.68714354 3.60585718
| 53>  C 0.88142078 -5.68891109 3.74343429
| 54>  C 1.56063365 -6.12500784 2.63993685
| 55>  C 2.20372817 -5.65779652 -2.50698264
| 56>  C 1.78524431 -5.03841840 -3.65167570
| 57>  C 0.76161456 -4.08897040 -3.58533220
| 58>  C 0.17799537 -3.76657958 -2.39146079
| 59>  C 1.77405482 5.92822783 -2.63652933
| 60>  C 1.50440892 5.17266169 -3.76368159
| 61>  C 0.73118712 4.03574447 -3.63961164
| 62>  C 0.24637039 3.64595591 -2.40263245
| 63>  C 0.64613234 3.49786399 2.30110690
| 64>  C 1.34975064 3.80628798 3.45337358
| 65>  C 2.15321525 4.92754457 3.50652222
| 66>  C 2.22654252 5.75325287 2.39900505
| 67>  H -5.39653039 0.49574575 1.99653412
| 68>  H -7.85618909 0.54028630 1.95366740
| 69>  H -7.78658945 -0.46257192 -2.20812913
| 70>  H -5.33101933 -0.47271646 -2.15629502
| 71>  H -9.95442642 -0.16864199 -1.37750434
| 72>  H 0.39705348 -1.41193931 0.05898842
| 73>  H -2.60322055 -4.45837692 -0.13165705
| 74>  H -4.40250418 -2.75553729 -0.14998188
| 75>  H -4.38641125 2.75446905 -0.00348295
| 76>  H -2.56468440 4.44038417 0.03183958
| 77>  H 0.40927151 1.39498428 0.01460729
| 78>  H -1.10853287 -3.37055381 2.29809795
| 79>  H -0.61869995 -4.33276975 4.47555409
| 80>  H 1.09369092 -6.11315749 4.71420795
| 81>  H 2.31615173 -6.89457463 2.72747140
| 82>  H 2.99067731 -6.39967719 -2.53896612
| 83>  H 2.24099170 -5.28495168 -4.59978627
| 84>  H 0.42195219 -3.60066202 -4.48771497
| 85>  H -0.61090659 -3.03419747 -2.36073807
| 86>  H 2.37397219 6.82564781 -2.70963202
| 87>  H 1.89202485 5.47591278 -4.72589664
| 88>  H 0.50140944 3.43548223 -4.50955301
| 89>  H -0.35438480 2.75337107 -2.33037735
| 90>  H 0.02358214 2.61766518 2.28675391
| 91>  H 1.26619535 3.15454567 4.31257504
| 92>  H 2.71214862 5.16668840 4.40011953
| 93>  H 2.84029021 6.64396430 2.42035473
| 94>   
| 95> *
| 96> 
| 97> 
| 98>                          ****END OF INPUT****
================================================================================

                       *****************************
                       * Geometry Optimization Run *
                       *****************************

Geometry optimization settings:
Update method            Update   .... BFGS
Choice of coordinates    CoordSys .... Z-matrix Internals
Initial Hessian          InHess   .... Almoef's Model

Convergence Tolerances:
Energy Change            TolE     ....  5.0000e-06 Eh
Max. Gradient            TolMAXG  ....  3.0000e-04 Eh/bohr
RMS Gradient             TolRMSG  ....  1.0000e-04 Eh/bohr
Max. Displacement        TolMAXD  ....  4.0000e-03 bohr
RMS Displacement         TolRMSD  ....  2.0000e-03 bohr
Strict Convergence                ....  False
------------------------------------------------------------------------------
                        ORCA OPTIMIZATION COORDINATE SETUP
------------------------------------------------------------------------------

The optimization will be done in new redundant internal coordinates
Making redundant internal coordinates   ...  (new redundants) done
Evaluating the initial hessian          ...  (Almloef) done
Evaluating the coordinates              ...  done
Calculating the B-matrix                .... done
Calculating the G-matrix                .... done
Diagonalizing the G-matrix              .... done
Small eigenvalue found = 1.370e-03
Small eigenvalue found = 1.618e-03
Small eigenvalue found = 2.070e-03
Small eigenvalue found = 2.887e-03
Small eigenvalue found = 3.705e-03
Small eigenvalue found = 4.708e-03
Small eigenvalue found = 9.419e-03
Small eigenvalue found = 1.360e-02
Small eigenvalue found = 1.535e-02
Small eigenvalue found = 2.307e-02
Small eigenvalue found = 2.776e-02
The first mode is                       ....  221
The number of degrees of freedom        ....  219

    -----------------------------------------------------------------
                    Redundant Internal Coordinates


    -----------------------------------------------------------------
         Definition                    Initial Value    Approx d2E/dq
    -----------------------------------------------------------------
      1. B(C   1,C   0)                  1.3848         0.636925   
      2. B(C   2,C   1)                  1.3795         0.649286   
      3. B(C   3,C   2)                  1.3917         0.620836   
      4. B(C   4,C   3)                  1.3900         0.624773   
      5. B(C   5,C   4)                  1.3812         0.645294   
      6. B(C   5,C   0)                  1.3837         0.639503   
      7. B(S   6,C   3)                  1.7565         0.438232   
      8. B(N   7,C   0)                  1.4210         0.499439   
      9. B(C   8,N   7)                  1.3699         0.602397   
     10. B(C   9,C   8)                  1.4122         0.575838   
     11. B(C  10,C   9)                  1.4393         0.521281   
     12. B(C  11,C  10)                  1.4024         0.597070   
     13. B(C  11,N   7)                  1.3865         0.566901   
     14. B(C  12,C   9)                  1.3843         0.638129   
     15. B(C  13,C  12)                  1.3788         0.651125   
     16. B(C  14,C  13)                  1.3923         0.619645   
     17. B(C  15,C   8)                  1.3885         0.628320   
     18. B(C  15,C  14)                  1.3787         0.651387   
     19. B(C  16,C  11)                  1.3860         0.634051   
     20. B(C  17,C  16)                  1.3777         0.653648   
     21. B(C  18,C  17)                  1.3973         0.608163   
     22. B(C  19,C  18)                  1.3788         0.650955   
     23. B(C  19,C  10)                  1.3878         0.629975   
     24. B(N  20,C  13)                  1.4462         0.455232   
     25. B(C  21,N  20)                  1.3824         0.575405   
     26. B(C  22,C  21)                  1.4075         0.585979   
     27. B(S  23,C  22)                  1.7143         0.511718   
     28. B(C  24,S  23)                  1.7143         0.511801   
     29. B(C  25,C  24)                  1.4073         0.586381   
     30. B(C  25,N  20)                  1.3821         0.576032   
     31. B(N  26,C  18)                  1.4236         0.494531   
     32. B(C  27,N  26)                  1.4103         0.519291   
     33. B(C  28,C  27)                  1.3961         0.611043   
     34. B(S  29,C  28)                  1.7567         0.437914   
     35. B(C  30,S  29)                  1.7559         0.439222   
     36. B(C  31,C  30)                  1.3952         0.612996   
     37. B(C  31,N  26)                  1.4114         0.517209   
     38. B(C  32,C  21)                  1.4064         0.588277   
     39. B(C  33,C  32)                  1.3674         0.678822   
     40. B(C  34,C  33)                  1.3979         0.607035   
     41. B(C  35,C  34)                  1.3672         0.679400   
     42. B(C  35,C  22)                  1.3986         0.605412   
     43. B(C  36,C  24)                  1.3985         0.605477   
     44. B(C  37,C  36)                  1.3671         0.679525   
     45. B(C  38,C  37)                  1.3977         0.607286   
     46. B(C  39,C  38)                  1.3674         0.678799   
     47. B(C  39,C  25)                  1.4063         0.588581   
     48. B(C  40,C  30)                  1.3834         0.640144   
     49. B(C  41,C  40)                  1.3835         0.639905   
     50. B(C  42,C  41)                  1.3805         0.646930   
     51. B(C  43,C  42)                  1.3846         0.637329   
     52. B(C  43,C  31)                  1.3909         0.622653   
     53. B(C  44,C  27)                  1.3906         0.623307   
     54. B(C  45,C  44)                  1.3849         0.636634   
     55. B(C  46,C  45)                  1.3804         0.647145   
     56. B(C  47,C  46)                  1.3834         0.640156   
     57. B(C  47,C  28)                  1.3834         0.640174   
     58. B(H  48,C   1)                  1.0817         0.371258   
     59. B(H  49,C   2)                  1.0818         0.371111   
     60. B(H  50,C   4)                  1.0813         0.371815   
     61. B(H  51,C   5)                  1.0818         0.371098   
     62. B(H  52,S   6)                  1.3377         0.390862   
     63. B(H  53,C  12)                  1.0822         0.370535   
     64. B(H  54,C  14)                  1.0816         0.371321   
     65. B(H  55,C  15)                  1.0804         0.373034   
     66. B(H  56,C  16)                  1.0804         0.372962   
     67. B(H  57,C  17)                  1.0811         0.372012   
     68. B(H  58,C  19)                  1.0820         0.370861   
     69. B(H  59,C  32)                  1.0769         0.377919   
     70. B(H  60,C  33)                  1.0808         0.372468   
     71. B(H  61,C  34)                  1.0805         0.372911   
     72. B(H  62,C  35)                  1.0820         0.370853   
     73. B(H  63,C  36)                  1.0820         0.370856   
     74. B(H  64,C  37)                  1.0805         0.372941   
     75. B(H  65,C  38)                  1.0808         0.372490   
     76. B(H  66,C  39)                  1.0769         0.377866   
     77. B(H  67,C  40)                  1.0819         0.370913   
     78. B(H  68,C  41)                  1.0808         0.372519   
     79. B(H  69,C  42)                  1.0816         0.371353   
     80. B(H  70,C  43)                  1.0783         0.375848   
     81. B(H  71,C  44)                  1.0782         0.376047   
     82. B(H  72,C  45)                  1.0817         0.371311   
     83. B(H  73,C  46)                  1.0808         0.372489   
     84. B(H  74,C  47)                  1.0819         0.370975   
     85. A(C   5,C   0,N   7)          120.1375         0.417173   
     86. A(C   1,C   0,N   7)          119.9607         0.416873   
     87. A(C   1,C   0,C   5)          119.8989         0.438618   
     88. A(C   0,C   1,H  48)          119.6764         0.356363   
     89. A(C   2,C   1,H  48)          120.2636         0.357528   
     90. A(C   0,C   1,C   2)          120.0588         0.439822   
     91. A(C   3,C   2,H  49)          119.9018         0.354795   
     92. A(C   1,C   2,C   3)          120.4130         0.437796   
     93. A(C   1,C   2,H  49)          119.6851         0.357505   
     94. A(C   4,C   3,S   6)          123.1657         0.430992   
     95. A(C   2,C   3,C   4)          119.1660         0.434771   
     96. A(C   2,C   3,S   6)          117.6683         0.430503   
     97. A(C   3,C   4,H  50)          120.2619         0.355290   
     98. A(C   5,C   4,H  50)          119.4222         0.357245   
     99. A(C   3,C   4,C   5)          120.3127         0.437808   
    100. A(C   0,C   5,H  51)          119.6795         0.356581   
    101. A(C   4,C   5,H  51)          120.1730         0.357128   
    102. A(C   0,C   5,C   4)          120.1462         0.439653   
    103. A(C   3,S   6,H  52)           97.0167         0.380903   
    104. A(C   0,N   7,C  11)          125.4660         0.405715   
    105. A(C   0,N   7,C   8)          125.9203         0.410099   
    106. A(C   8,N   7,C  11)          108.6135         0.419440   
    107. A(N   7,C   8,C   9)          109.1296         0.423364   
    108. A(N   7,C   8,C  15)          129.1051         0.430030   
    109. A(C   9,C   8,C  15)          121.7646         0.429368   
    110. A(C   8,C   9,C  10)          106.6037         0.415280   
    111. A(C  10,C   9,C  12)          133.8402         0.422955   
    112. A(C   8,C   9,C  12)          119.5531         0.430564   
    113. A(C   9,C  10,C  11)          106.3907         0.417965   
    114. A(C   9,C  10,C  19)          133.7585         0.421984   
    115. A(C  11,C  10,C  19)          119.8326         0.432374   
    116. A(C  10,C  11,C  16)          121.7668         0.432875   
    117. A(N   7,C  11,C  16)          128.9691         0.426066   
    118. A(N   7,C  11,C  10)          109.2575         0.421513   
    119. A(C  13,C  12,H  53)          120.5270         0.357582   
    120. A(C   9,C  12,H  53)          121.3598         0.356359   
    121. A(C   9,C  12,C  13)          118.1132         0.440196   
    122. A(C  14,C  13,N  20)          118.7260         0.408075   
    123. A(C  12,C  13,C  14)          122.3777         0.437868   
    124. A(C  12,C  13,N  20)          118.8945         0.411674   
    125. A(C  15,C  14,H  54)          120.1357         0.357735   
    126. A(C  13,C  14,H  54)          119.5731         0.354714   
    127. A(C  13,C  14,C  15)          120.2889         0.437899   
    128. A(C   8,C  15,C  14)          117.8944         0.438999   
    129. A(C   8,C  15,H  55)          121.1535         0.355829   
    130. A(C  14,C  15,H  55)          120.9521         0.358015   
    131. A(C  17,C  16,H  56)          121.2234         0.358215   
    132. A(C  11,C  16,C  17)          117.3240         0.439994   
    133. A(C  11,C  16,H  56)          121.4512         0.356366   
    134. A(C  18,C  17,H  57)          117.9930         0.353703   
    135. A(C  16,C  17,H  57)          120.2455         0.358059   
    136. A(C  16,C  17,C  18)          121.7576         0.436698   
    137. A(C  19,C  18,N  26)          121.1442         0.417759   
    138. A(C  17,C  18,N  26)          118.3178         0.412737   
    139. A(C  17,C  18,C  19)          120.5107         0.436373   
    140. A(C  10,C  19,H  58)          121.4645         0.355635   
    141. A(C  18,C  19,H  58)          119.7295         0.357620   
    142. A(C  10,C  19,C  18)          118.8016         0.439155   
    143. A(C  21,N  20,C  25)          124.8776         0.417214   
    144. A(C  13,N  20,C  25)          117.6457         0.400265   
    145. A(C  13,N  20,C  21)          117.4766         0.400188   
    146. A(C  22,C  21,C  32)          117.8092         0.425660   
    147. A(N  20,C  21,C  22)          122.3720         0.421222   
    148. A(N  20,C  21,C  32)          119.8188         0.421517   
    149. A(S  23,C  22,C  35)          115.9249         0.440690   
    150. A(C  21,C  22,C  35)          120.5114         0.427855   
    151. A(C  21,C  22,S  23)          123.5616         0.438103   
    152. A(C  22,S  23,C  24)          103.2156         0.451339   
    153. A(C  25,C  24,C  36)          120.5087         0.427916   
    154. A(S  23,C  24,C  36)          115.9185         0.440712   
    155. A(S  23,C  24,C  25)          123.5720         0.438170   
    156. A(N  20,C  25,C  24)          122.3799         0.421356   
    157. A(C  24,C  25,C  39)          117.8137         0.425752   
    158. A(N  20,C  25,C  39)          119.8064         0.421638   
    159. A(C  27,N  26,C  31)          121.0649         0.401956   
    160. A(C  18,N  26,C  31)          117.2481         0.398514   
    161. A(C  18,N  26,C  27)          118.7311         0.398796   
    162. A(N  26,C  27,C  28)          119.9686         0.416687   
    163. A(C  28,C  27,C  44)          118.1267         0.433346   
    164. A(N  26,C  27,C  44)          121.8941         0.418165   
    165. A(C  27,C  28,S  29)          120.3131         0.429221   
    166. A(S  29,C  28,C  47)          118.9475         0.432826   
    167. A(C  27,C  28,C  47)          120.5539         0.435433   
    168. A(C  28,S  29,C  30)           99.1871         0.426888   
    169. A(S  29,C  30,C  31)          120.1371         0.429696   
    170. A(C  31,C  30,C  40)          120.5456         0.435680   
    171. A(S  29,C  30,C  40)          119.1547         0.433054   
    172. A(N  26,C  31,C  30)          120.2456         0.416626   
    173. A(C  30,C  31,C  43)          118.2081         0.433513   
    174. A(N  26,C  31,C  43)          121.5379         0.417787   
    175. A(C  21,C  32,C  33)          120.7928         0.437056   
    176. A(C  33,C  32,H  59)          119.8178         0.361340   
    177. A(C  21,C  32,H  59)          119.3893         0.352657   
    178. A(C  34,C  33,H  60)          119.8369         0.353665   
    179. A(C  32,C  33,H  60)          119.2166         0.360446   
    180. A(C  32,C  33,C  34)          120.9465         0.439538   
    181. A(C  33,C  34,H  61)          120.3620         0.353736   
    182. A(C  33,C  34,C  35)          119.4831         0.439605   
    183. A(C  35,C  34,H  61)          120.1543         0.360571   
    184. A(C  34,C  35,H  62)          120.5617         0.360231   
    185. A(C  22,C  35,H  62)          118.9877         0.353245   
    186. A(C  22,C  35,C  34)          120.4506         0.439393   
    187. A(C  37,C  36,H  63)          120.5653         0.360243   
    188. A(C  24,C  36,H  63)          118.9821         0.353251   
    189. A(C  24,C  36,C  37)          120.4525         0.439416   
    190. A(C  38,C  37,H  64)          120.3681         0.353766   
    191. A(C  36,C  37,H  64)          120.1480         0.360587   
    192. A(C  36,C  37,C  38)          119.4835         0.439652   
    193. A(C  39,C  38,H  65)          119.2291         0.360447   
    194. A(C  37,C  38,H  65)          119.8299         0.353693   
    195. A(C  37,C  38,C  39)          120.9409         0.439568   
    196. A(C  38,C  39,H  66)          119.8618         0.361329   
    197. A(C  25,C  39,H  66)          119.3418         0.352679   
    198. A(C  25,C  39,C  38)          120.7964         0.437094   
    199. A(C  41,C  40,H  67)          120.3983         0.356589   
    200. A(C  30,C  40,H  67)          118.8632         0.356612   
    201. A(C  30,C  40,C  41)          120.7229         0.439067   
    202. A(C  42,C  41,H  68)          120.7948         0.357514   
    203. A(C  40,C  41,H  68)          120.1460         0.356851   
    204. A(C  40,C  41,C  42)          119.0585         0.439904   
    205. A(C  41,C  42,H  69)          120.2475         0.357323   
    206. A(C  41,C  42,C  43)          120.5473         0.439583   
    207. A(C  43,C  42,H  69)          119.2044         0.356417   
    208. A(C  31,C  43,C  42)          120.8607         0.436561   
    209. A(C  42,C  43,H  70)          119.2063         0.357146   
    210. A(C  31,C  43,H  70)          119.9207         0.355736   
    211. A(C  27,C  44,C  45)          120.9062         0.436558   
    212. A(C  45,C  44,H  71)          119.0937         0.357112   
    213. A(C  27,C  44,H  71)          119.9874         0.355831   
    214. A(C  44,C  45,C  46)          120.5734         0.439523   
    215. A(C  46,C  45,H  72)          120.2512         0.357336   
    216. A(C  44,C  45,H  72)          119.1748         0.356344   
    217. A(C  45,C  46,C  47)          119.0019         0.439961   
    218. A(C  47,C  46,H  73)          120.1616         0.356870   
    219. A(C  45,C  46,H  73)          120.8344         0.357529   
    220. A(C  28,C  47,C  46)          120.7693         0.439102   
    221. A(C  46,C  47,H  74)          120.3757         0.356623   
    222. A(C  28,C  47,H  74)          118.8385         0.356625   
    223. D(H  48,C   1,C   0,C   5)   -179.7313         0.028168   
    224. D(C   2,C   1,C   0,C   5)     -0.1124         0.028168   
    225. D(C   2,C   1,C   0,N   7)    179.2634         0.028168   
    226. D(H  48,C   1,C   0,N   7)     -0.3554         0.028168   
    227. D(C   3,C   2,C   1,H  48)   -179.8642         0.029348   
    228. D(C   3,C   2,C   1,C   0)      0.5192         0.029348   
    229. D(H  49,C   2,C   1,C   0)   -179.5520         0.029348   
    230. D(H  49,C   2,C   1,H  48)      0.0646         0.029348   
    231. D(S   6,C   3,C   2,C   1)    179.6403         0.026676   
    232. D(S   6,C   3,C   2,H  49)     -0.2883         0.026676   
    233. D(C   4,C   3,C   2,C   1)     -0.3174         0.026676   
    234. D(C   4,C   3,C   2,H  49)    179.7540         0.026676   
    235. D(C   5,C   4,C   3,S   6)    179.7541         0.027036   
    236. D(H  50,C   4,C   3,C   2)   -179.6404         0.027036   
    237. D(C   5,C   4,C   3,C   2)     -0.2906         0.027036   
    238. D(H  50,C   4,C   3,S   6)      0.4044         0.027036   
    239. D(C   4,C   5,C   0,C   1)     -0.4948         0.028411   
    240. D(H  51,C   5,C   4,H  50)      0.4749         0.028964   
    241. D(C   0,C   5,C   4,H  50)   -179.9477         0.028964   
    242. D(C   4,C   5,C   0,N   7)   -179.8695         0.028411   
    243. D(H  51,C   5,C   0,C   1)    179.0847         0.028411   
    244. D(H  51,C   5,C   0,N   7)     -0.2900         0.028411   
    245. D(C   0,C   5,C   4,C   3)      0.6971         0.028964   
    246. D(H  51,C   5,C   4,C   3)   -178.8803         0.028964   
    247. D(H  52,S   6,C   3,C   2)    177.3252         0.004312   
    248. D(H  52,S   6,C   3,C   4)     -2.7189         0.004312   
    249. D(C  11,N   7,C   0,C   5)    104.5894         0.019719   
    250. D(C  11,N   7,C   0,C   1)    -74.7850         0.019719   
    251. D(C   8,N   7,C   0,C   5)    -75.5819         0.019719   
    252. D(C   8,N   7,C   0,C   1)    105.0437         0.019719   
    253. D(C   9,C   8,N   7,C   0)   -179.4242         0.029257   
    254. D(C   9,C   8,N   7,C  11)      0.4286         0.029257   
    255. D(C  15,C   8,N   7,C  11)   -179.8706         0.029257   
    256. D(C  15,C   8,N   7,C   0)      0.2767         0.029257   
    257. D(C  12,C   9,C   8,C  15)     -0.9502         0.022766   
    258. D(C  12,C   9,C   8,N   7)    178.7768         0.022766   
    259. D(C  10,C   9,C   8,N   7)     -0.6873         0.022766   
    260. D(C  10,C   9,C   8,C  15)    179.5857         0.022766   
    261. D(C  19,C  10,C   9,C  12)      2.9396         0.018534   
    262. D(C  19,C  10,C   9,C   8)   -177.7067         0.018534   
    263. D(C  11,C  10,C   9,C  12)   -178.6775         0.018534   
    264. D(C  11,C  10,C   9,C   8)      0.6762         0.018534   
    265. D(C  16,C  11,C  10,C   9)   -179.5765         0.024563   
    266. D(C  16,C  11,C  10,C  19)     -0.9228         0.024563   
    267. D(N   7,C  11,C  10,C  19)    178.2208         0.024563   
    268. D(C  16,C  11,N   7,C   8)    179.0755         0.025703   
    269. D(C  10,C  11,N   7,C   0)    179.8656         0.025703   
    270. D(C  16,C  11,N   7,C   0)     -1.0709         0.025703   
    271. D(C  10,C  11,N   7,C   8)      0.0120         0.025703   
    272. D(N   7,C  11,C  10,C   9)     -0.4329         0.024563   
    273. D(H  53,C  12,C   9,C  10)      0.0584         0.028281   
    274. D(C  13,C  12,C   9,C  10)   -179.9615         0.028281   
    275. D(C  13,C  12,C   9,C   8)      0.7505         0.028281   
    276. D(H  53,C  12,C   9,C   8)   -179.2296         0.028281   
    277. D(N  20,C  13,C  12,H  53)      0.4904         0.029527   
    278. D(N  20,C  13,C  12,C   9)   -179.4898         0.029527   
    279. D(C  14,C  13,C  12,H  53)   -179.9960         0.029527   
    280. D(C  14,C  13,C  12,C   9)      0.0238         0.029527   
    281. D(H  54,C  14,C  13,N  20)     -0.5820         0.026567   
    282. D(H  54,C  14,C  13,C  12)    179.9037         0.026567   
    283. D(C  15,C  14,C  13,N  20)    178.8662         0.026567   
    284. D(C  15,C  14,C  13,C  12)     -0.6482         0.026567   
    285. D(C  14,C  15,C   8,N   7)   -179.3375         0.027363   
    286. D(H  55,C  15,C  14,H  54)     -0.0295         0.029552   
    287. D(C   8,C  15,C  14,H  54)    179.8990         0.029552   
    288. D(C   8,C  15,C  14,C  13)      0.4540         0.029552   
    289. D(H  55,C  15,C   8,C   9)   -179.7416         0.027363   
    290. D(H  55,C  15,C  14,C  13)   -179.4745         0.029552   
    291. D(H  55,C  15,C   8,N   7)      0.5908         0.027363   
    292. D(C  14,C  15,C   8,C   9)      0.3300         0.027363   
    293. D(H  56,C  16,C  11,C  10)   -179.9979         0.027897   
    294. D(H  56,C  16,C  11,N   7)      1.0420         0.027897   
    295. D(C  17,C  16,C  11,C  10)      0.4144         0.027897   
    296. D(C  17,C  16,C  11,N   7)   -178.5457         0.027897   
    297. D(H  57,C  17,C  16,H  56)     -0.0127         0.029772   
    298. D(H  57,C  17,C  16,C  11)    179.5760         0.029772   
    299. D(C  18,C  17,C  16,H  56)   -179.2836         0.029772   
    300. D(C  18,C  17,C  16,C  11)      0.3050         0.029772   
    301. D(N  26,C  18,C  17,H  57)     -1.6921         0.025536   
    302. D(N  26,C  18,C  17,C  16)    177.5946         0.025536   
    303. D(C  19,C  18,C  17,H  57)   -179.8119         0.025536   
    304. D(C  19,C  18,C  17,C  16)     -0.5251         0.025536   
    305. D(H  58,C  19,C  18,N  26)      1.1996         0.029510   
    306. D(H  58,C  19,C  18,C  17)    179.2656         0.029510   
    307. D(C  10,C  19,C  18,N  26)   -178.0547         0.029510   
    308. D(C  10,C  19,C  18,C  17)      0.0113         0.029510   
    309. D(H  58,C  19,C  10,C  11)   -178.5531         0.027517   
    310. D(H  58,C  19,C  10,C   9)     -0.3415         0.027517   
    311. D(C  18,C  19,C  10,C  11)      0.6877         0.027517   
    312. D(C  18,C  19,C  10,C   9)    178.8993         0.027517   
    313. D(C  25,N  20,C  13,C  14)     95.7249         0.016323   
    314. D(C  25,N  20,C  13,C  12)    -84.7436         0.016323   
    315. D(C  21,N  20,C  13,C  14)    -84.2018         0.016323   
    316. D(C  21,N  20,C  13,C  12)     95.3298         0.016323   
    317. D(C  32,C  21,N  20,C  25)    179.9377         0.026528   
    318. D(C  32,C  21,N  20,C  13)     -0.1415         0.026528   
    319. D(C  22,C  21,N  20,C  25)     -0.0349         0.026528   
    320. D(C  22,C  21,N  20,C  13)    179.8859         0.026528   
    321. D(C  35,C  22,C  21,C  32)      0.8112         0.023614   
    322. D(C  35,C  22,C  21,N  20)   -179.2157         0.023614   
    323. D(S  23,C  22,C  21,C  32)   -178.6388         0.023614   
    324. D(S  23,C  22,C  21,N  20)      1.3343         0.023614   
    325. D(C  24,S  23,C  22,C  35)    179.2811         0.005390   
    326. D(C  24,S  23,C  22,C  21)     -1.2457         0.005390   
    327. D(C  36,C  24,S  23,C  22)   -179.5359         0.005392   
    328. D(C  25,C  24,S  23,C  22)      0.1174         0.005392   
    329. D(C  39,C  25,C  24,C  36)      0.7056         0.023648   
    330. D(C  39,C  25,C  24,S  23)   -178.9324         0.023648   
    331. D(N  20,C  25,C  24,C  36)   -179.3426         0.023648   
    332. D(N  20,C  25,C  24,S  23)      1.0194         0.023648   
    333. D(C  39,C  25,N  20,C  21)    178.7649         0.026590   
    334. D(C  24,C  25,N  20,C  21)     -1.1859         0.026590   
    335. D(C  24,C  25,N  20,C  13)    178.8934         0.026590   
    336. D(C  39,C  25,N  20,C  13)     -1.1557         0.026590   
    337. D(C  31,N  26,C  18,C  19)     84.2483         0.019321   
    338. D(C  31,N  26,C  18,C  17)    -93.8591         0.019321   
    339. D(C  27,N  26,C  18,C  19)    -76.5245         0.019321   
    340. D(C  27,N  26,C  18,C  17)    105.3682         0.019321   
    341. D(C  44,C  27,N  26,C  31)   -148.8785         0.021377   
    342. D(C  44,C  27,N  26,C  18)     11.1355         0.021377   
    343. D(C  28,C  27,N  26,C  31)     32.3279         0.021377   
    344. D(C  28,C  27,N  26,C  18)   -167.6581         0.021377   
    345. D(C  47,C  28,C  27,C  44)      2.7840         0.025792   
    346. D(C  47,C  28,C  27,N  26)   -178.3774         0.025792   
    347. D(S  29,C  28,C  27,C  44)   -172.2146         0.025792   
    348. D(S  29,C  28,C  27,N  26)      6.6240         0.025792   
    349. D(C  30,S  29,C  28,C  27)    -34.7600         0.004308   
    350. D(C  30,S  29,C  28,C  47)    150.1618         0.004308   
    351. D(C  40,C  30,S  29,C  28)   -150.3186         0.004325   
    352. D(C  31,C  30,S  29,C  28)     34.2902         0.004325   
    353. D(C  43,C  31,C  30,C  40)     -2.1713         0.025967   
    354. D(C  43,C  31,C  30,S  29)    173.1551         0.025967   
    355. D(N  26,C  31,C  30,C  40)    178.8641         0.025967   
    356. D(N  26,C  31,C  30,S  29)     -5.8095         0.025967   
    357. D(C  43,C  31,N  26,C  27)    148.2487         0.021199   
    358. D(C  43,C  31,N  26,C  18)    -12.0498         0.021199   
    359. D(C  30,C  31,N  26,C  27)    -32.8219         0.021199   
    360. D(C  30,C  31,N  26,C  18)    166.8797         0.021199   
    361. D(H  59,C  32,C  21,C  22)    179.2478         0.023809   
    362. D(H  59,C  32,C  21,N  20)     -0.7260         0.023809   
    363. D(C  33,C  32,C  21,C  22)     -0.8281         0.023809   
    364. D(C  33,C  32,C  21,N  20)    179.1980         0.023809   
    365. D(H  60,C  33,C  32,H  59)      0.0852         0.032292   
    366. D(H  60,C  33,C  32,C  21)   -179.8385         0.032292   
    367. D(C  34,C  33,C  32,H  59)   -179.8344         0.032292   
    368. D(C  34,C  33,C  32,C  21)      0.2419         0.032292   
    369. D(H  61,C  34,C  33,H  60)      0.1793         0.025436   
    370. D(H  61,C  34,C  33,C  32)   -179.9015         0.025436   
    371. D(C  35,C  34,C  33,H  60)   -179.5313         0.025436   
    372. D(C  35,C  34,C  33,C  32)      0.3879         0.025436   
    373. D(H  62,C  35,C  34,H  61)     -0.1436         0.032351   
    374. D(H  62,C  35,C  34,C  33)    179.5676         0.032351   
    375. D(C  22,C  35,C  34,H  61)    179.8882         0.032351   
    376. D(C  22,C  35,C  34,C  33)     -0.4006         0.032351   
    377. D(H  62,C  35,C  22,S  23)     -0.6858         0.025292   
    378. D(H  62,C  35,C  22,C  21)    179.8238         0.025292   
    379. D(C  34,C  35,C  22,S  23)    179.2829         0.025292   
    380. D(C  34,C  35,C  22,C  21)     -0.2076         0.025292   
    381. D(H  63,C  36,C  24,C  25)    179.8406         0.025298   
    382. D(H  63,C  36,C  24,S  23)     -0.4947         0.025298   
    383. D(C  37,C  36,C  24,C  25)     -0.2450         0.025298   
    384. D(C  37,C  36,C  24,S  23)    179.4196         0.025298   
    385. D(H  64,C  37,C  36,H  63)     -0.1400         0.032364   
    386. D(H  64,C  37,C  36,C  24)    179.9470         0.032364   
    387. D(C  38,C  37,C  36,H  63)    179.6360         0.032364   
    388. D(C  38,C  37,C  36,C  24)     -0.2770         0.032364   
    389. D(H  65,C  38,C  37,H  64)      0.1783         0.025458   
    390. D(H  65,C  38,C  37,C  36)   -179.5972         0.025458   
    391. D(C  39,C  38,C  37,H  64)   -179.9013         0.025458   
    392. D(C  39,C  38,C  37,C  36)      0.3232         0.025458   
    393. D(H  66,C  39,C  38,H  65)      0.0633         0.032290   
    394. D(H  66,C  39,C  38,C  37)   -179.8577         0.032290   
    395. D(C  25,C  39,C  38,H  65)   -179.9198         0.032290   
    396. D(C  25,C  39,C  38,C  37)      0.1592         0.032290   
    397. D(H  66,C  39,C  25,C  24)    179.3535         0.023834   
    398. D(H  66,C  39,C  25,N  20)     -0.5996         0.023834   
    399. D(C  38,C  39,C  25,C  24)     -0.6633         0.023834   
    400. D(C  38,C  39,C  25,N  20)    179.3836         0.023834   
    401. D(H  67,C  40,C  30,C  31)   -178.7102         0.028472   
    402. D(H  67,C  40,C  30,S  29)      5.9179         0.028472   
    403. D(C  41,C  40,C  30,C  31)      2.7218         0.028472   
    404. D(C  41,C  40,C  30,S  29)   -172.6501         0.028472   
    405. D(H  68,C  41,C  40,H  67)     -0.0403         0.028449   
    406. D(H  68,C  41,C  40,C  30)    178.5057         0.028449   
    407. D(C  42,C  41,C  40,H  67)   -179.7265         0.028449   
    408. D(C  42,C  41,C  40,C  30)     -1.1805         0.028449   
    409. D(H  69,C  42,C  41,H  68)     -0.2095         0.029121   
    410. D(H  69,C  42,C  41,C  40)    179.4746         0.029121   
    411. D(C  43,C  42,C  41,H  68)    179.4675         0.029121   
    412. D(C  43,C  42,C  41,C  40)     -0.8485         0.029121   
    413. D(H  70,C  43,C  42,H  69)     -0.2359         0.028206   
    414. D(H  70,C  43,C  42,C  41)   -179.9162         0.028206   
    415. D(C  31,C  43,C  42,H  69)   -178.9573         0.028206   
    416. D(C  31,C  43,C  42,C  41)      1.3624         0.028206   
    417. D(H  70,C  43,C  31,C  30)   -178.5602         0.026841   
    418. D(H  70,C  43,C  31,N  26)      0.3903         0.026841   
    419. D(C  42,C  43,C  31,C  30)      0.1521         0.026841   
    420. D(C  42,C  43,C  31,N  26)    179.1026         0.026841   
    421. D(H  71,C  44,C  27,C  28)    177.8504         0.026901   
    422. D(H  71,C  44,C  27,N  26)     -0.9646         0.026901   
    423. D(C  45,C  44,C  27,C  28)     -0.8408         0.026901   
    424. D(C  45,C  44,C  27,N  26)   -179.6558         0.026901   
    425. D(H  72,C  45,C  44,H  71)      0.4379         0.028140   
    426. D(H  72,C  45,C  44,C  27)    179.1406         0.028140   
    427. D(C  46,C  45,C  44,H  71)   -179.8382         0.028140   
    428. D(C  46,C  45,C  44,C  27)     -1.1356         0.028140   
    429. D(H  73,C  46,C  45,H  72)      0.3572         0.029142   
    430. D(H  73,C  46,C  45,C  44)   -179.3637         0.029142   
    431. D(C  47,C  46,C  45,H  72)   -179.1075         0.029142   
    432. D(C  47,C  46,C  45,C  44)      1.1716         0.029142   
    433. D(H  74,C  47,C  46,H  73)     -0.1809         0.028473   
    434. D(H  74,C  47,C  46,C  45)    179.2874         0.028473   
    435. D(C  28,C  47,C  46,H  73)   -178.6848         0.028473   
    436. D(C  28,C  47,C  46,C  45)      0.7836         0.028473   
    437. D(H  74,C  47,C  28,S  29)     -6.2602         0.028475   
    438. D(H  74,C  47,C  28,C  27)    178.6737         0.028475   
    439. D(C  46,C  47,C  28,S  29)    172.2663         0.028475   
    440. D(C  46,C  47,C  28,C  27)     -2.7998         0.028475   
    -----------------------------------------------------------------

Number of atoms                         .... 75
Number of degrees of freedom            .... 440

         *************************************************************
         *                GEOMETRY OPTIMIZATION CYCLE   1            *
         *************************************************************
---------------------------------
CARTESIAN COORDINATES (ANGSTROEM)
---------------------------------
  C     -5.216089   -0.000324   -0.075231
  C     -5.927542    0.285493    1.077904
  C     -7.306611    0.309157    1.050984
  C     -7.993041    0.036362   -0.128554
  C     -7.271475   -0.253686   -1.280659
  C     -5.890559   -0.264479   -1.254149
  S     -9.748413    0.076935   -0.078792
  N     -3.795401   -0.008749   -0.048797
  C     -2.997915   -1.122555   -0.062279
  C     -1.644250   -0.723139   -0.013272
  C     -1.640819    0.715878    0.015438
  C     -2.985004    1.115227   -0.001516
  C     -0.648978   -1.684954    0.009073
  C     -1.025504   -3.010618   -0.033738
  C     -2.359118   -3.405159   -0.098400
  C     -3.363819   -2.461145   -0.108530
  C     -3.349103    2.452499    0.009646
  C     -2.334286    3.384081    0.029395
  C     -0.989002    3.006220    0.031643
  C     -0.636259    1.673286    0.024811
  N      0.000000   -4.029766    0.000000
  C      0.310360   -4.581881    1.228789
  C      1.289215   -5.581836    1.380048
  S      2.221562   -6.199671    0.080820
  C      1.619029   -5.342766   -1.276201
  C      0.595347   -4.380359   -1.197039
  N      0.000000    4.029766    0.000000
  C      0.713295    4.320035    1.181540
  C      1.495509    5.473826    1.258280
  S      1.461998    6.655809   -0.040929
  C      1.258548    5.568113   -1.404316
  C      0.502769    4.403693   -1.264741
  C     -0.363332   -4.143286    2.382790
  C     -0.083732   -4.687144    3.605857
  C      0.881421   -5.688911    3.743434
  C      1.560634   -6.125008    2.639937
  C      2.203728   -5.657797   -2.506983
  C      1.785244   -5.038418   -3.651676
  C      0.761615   -4.088970   -3.585332
  C      0.177995   -3.766580   -2.391461
  C      1.774055    5.928228   -2.636529
  C      1.504409    5.172662   -3.763682
  C      0.731187    4.035744   -3.639612
  C      0.246370    3.645956   -2.402632
  C      0.646132    3.497864    2.301107
  C      1.349751    3.806288    3.453374
  C      2.153215    4.927545    3.506522
  C      2.226543    5.753253    2.399005
  H     -5.396530    0.495746    1.996534
  H     -7.856189    0.540286    1.953667
  H     -7.786589   -0.462572   -2.208129
  H     -5.331019   -0.472716   -2.156295
  H     -9.954426   -0.168642   -1.377504
  H      0.397053   -1.411939    0.058988
  H     -2.603221   -4.458377   -0.131657
  H     -4.402504   -2.755537   -0.149982
  H     -4.386411    2.754469   -0.003483
  H     -2.564684    4.440384    0.031840
  H      0.409272    1.394984    0.014607
  H     -1.108533   -3.370554    2.298098
  H     -0.618700   -4.332770    4.475554
  H      1.093691   -6.113157    4.714208
  H      2.316152   -6.894575    2.727471
  H      2.990677   -6.399677   -2.538966
  H      2.240992   -5.284952   -4.599786
  H      0.421952   -3.600662   -4.487715
  H     -0.610907   -3.034197   -2.360738
  H      2.373972    6.825648   -2.709632
  H      1.892025    5.475913   -4.725897
  H      0.501409    3.435482   -4.509553
  H     -0.354385    2.753371   -2.330377
  H      0.023582    2.617665    2.286754
  H      1.266195    3.154546    4.312575
  H      2.712149    5.166688    4.400120
  H      2.840290    6.643964    2.420355

----------------------------
CARTESIAN COORDINATES (A.U.)
----------------------------
  NO LB      ZA    FRAG     MASS         X           Y           Z
   0 C     6.0000    0    12.011   -9.856979   -0.000613   -0.142167
   1 C     6.0000    0    12.011  -11.201431    0.539503    2.036943
   2 C     6.0000    0    12.011  -13.807493    0.584223    1.986073
   3 C     6.0000    0    12.011  -15.104658    0.068714   -0.242932
   4 C     6.0000    0    12.011  -13.741097   -0.479396   -2.420094
   5 C     6.0000    0    12.011  -11.131543   -0.499792   -2.369998
   6 S    16.0000    0    32.060  -18.421831    0.145385   -0.148895
   7 N     7.0000    0    14.007   -7.172268   -0.016533   -0.092213
   8 C     6.0000    0    12.011   -5.665238   -2.121322   -0.117690
   9 C     6.0000    0    12.011   -3.107183   -1.366535   -0.025080
  10 C     6.0000    0    12.011   -3.100698    1.352813    0.029173
  11 C     6.0000    0    12.011   -5.640840    2.107473   -0.002864
  12 C     6.0000    0    12.011   -1.226390   -3.184102    0.017146
  13 C     6.0000    0    12.011   -1.937921   -5.689244   -0.063756
  14 C     6.0000    0    12.011   -4.458087   -6.434817   -0.185949
  15 C     6.0000    0    12.011   -6.356697   -4.650889   -0.205091
  16 C     6.0000    0    12.011   -6.328888    4.634551    0.018228
  17 C     6.0000    0    12.011   -4.411162    6.394986    0.055549
  18 C     6.0000    0    12.011   -1.868943    5.680933    0.059796
  19 C     6.0000    0    12.011   -1.202356    3.162053    0.046887
  20 N     7.0000    0    14.007    0.000000   -7.615153    0.000000
  21 C     6.0000    0    12.011    0.586496   -8.658501    2.322074
  22 C     6.0000    0    12.011    2.436263  -10.548141    2.607913
  23 S    16.0000    0    32.060    4.198143  -11.715681    0.152727
  24 C     6.0000    0    12.011    3.059521  -10.096365   -2.411670
  25 C     6.0000    0    12.011    1.125043   -8.277679   -2.262077
  26 N     7.0000    0    14.007    0.000000    7.615153    0.000000
  27 C     6.0000    0    12.011    1.347932    8.163682    2.232787
  28 C     6.0000    0    12.011    2.826102   10.344031    2.377804
  29 S    16.0000    0    32.060    2.762776   12.577656   -0.077345
  30 C     6.0000    0    12.011    2.378311   10.522208   -2.653773
  31 C     6.0000    0    12.011    0.950096    8.321773   -2.390015
  32 C     6.0000    0    12.011   -0.686597   -7.829675    4.502821
  33 C     6.0000    0    12.011   -0.158230   -8.857418    6.814083
  34 C     6.0000    0    12.011    1.665644  -10.750484    7.074066
  35 C     6.0000    0    12.011    2.949170  -11.574587    4.988758
  36 C     6.0000    0    12.011    4.164443  -10.691686   -4.737511
  37 C     6.0000    0    12.011    3.373623   -9.521231   -6.900667
  38 C     6.0000    0    12.011    1.439243   -7.727034   -6.775296
  39 C     6.0000    0    12.011    0.336363   -7.117804   -4.519206
  40 C     6.0000    0    12.011    3.352478   11.202727   -4.982318
  41 C     6.0000    0    12.011    2.842921    9.774914   -7.112327
  42 C     6.0000    0    12.011    1.381743    7.626452   -6.877869
  43 C     6.0000    0    12.011    0.465573    6.889858   -4.540317
  44 C     6.0000    0    12.011    1.221013    6.610005    4.348462
  45 C     6.0000    0    12.011    2.550659    7.192842    6.525930
  46 C     6.0000    0    12.011    4.068987    9.311710    6.626367
  47 C     6.0000    0    12.011    4.207556   10.872072    4.533463
  48 H     1.0000    0     1.008  -10.197965    0.936824    3.772903
  49 H     1.0000    0     1.008  -14.846046    1.020993    3.691896
  50 H     1.0000    0     1.008  -14.714522   -0.874134   -4.172759
  51 H     1.0000    0     1.008  -10.074167   -0.893305   -4.074807
  52 H     1.0000    0     1.008  -18.811140   -0.318687   -2.603106
  53 H     1.0000    0     1.008    0.750322   -2.668179    0.111472
  54 H     1.0000    0     1.008   -4.919374   -8.425111   -0.248796
  55 H     1.0000    0     1.008   -8.319527   -5.207211   -0.283425
  56 H     1.0000    0     1.008   -8.289116    5.205192   -0.006582
  57 H     1.0000    0     1.008   -4.846551    8.391110    0.060168
  58 H     1.0000    0     1.008    0.773411    2.636138    0.027604
  59 H     1.0000    0     1.008   -2.094824   -6.369424    4.342776
  60 H     1.0000    0     1.008   -1.169173   -8.187748    8.457572
  61 H     1.0000    0     1.008    2.066776  -11.552193    8.908562
  62 H     1.0000    0     1.008    4.376892  -13.028858    5.154174
  63 H     1.0000    0     1.008    5.651561  -12.093637   -4.797951
  64 H     1.0000    0     1.008    4.234861   -9.987111   -8.692336
  65 H     1.0000    0     1.008    0.797374   -6.804265   -8.480552
  66 H     1.0000    0     1.008   -1.154446   -5.733802   -4.461148
  67 H     1.0000    0     1.008    4.486157   12.898605   -5.120462
  68 H     1.0000    0     1.008    3.575409   10.347975   -8.930650
  69 H     1.0000    0     1.008    0.947527    6.492121   -8.521820
  70 H     1.0000    0     1.008   -0.669690    5.203117   -4.403775
  71 H     1.0000    0     1.008    0.044564    4.946670    4.321339
  72 H     1.0000    0     1.008    2.392762    5.961227    8.149586
  73 H     1.0000    0     1.008    5.125218    9.763626    8.315021
  74 H     1.0000    0     1.008    5.367371   12.555273    4.573808

--------------------------------
INTERNAL COORDINATES (ANGSTROEM)
--------------------------------
 C      0   0   0     0.000000000000     0.00000000     0.00000000
 C      1   0   0     1.384766528616     0.00000000     0.00000000
 C      2   1   0     1.379534081247   120.05884419     0.00000000
 C      3   2   1     1.391730946583   120.41301475     0.51921771
 C      4   3   2     1.390010297022   119.16596765   359.68264406
 C      5   4   3     1.381212890622   120.31270125   359.70936615
 S      4   3   2     1.756546636317   117.66834690   179.64032359
 N      1   2   3     1.420958866406   119.96068335   179.26342768
 C      8   1   2     1.369938214341   125.92028524   105.04373207
 C      9   8   1     1.412212048551   109.12962903   180.57581960
 C     10   9   8     1.439307247184   106.60373694   359.31269483
 C      8   1   2     1.386470208780   125.46602538   285.21503918
 C     10   9   8     1.384252572489   119.55314191   178.77681260
 C     13  10   9     1.378764165968   118.11319178     0.75052561
 C     14  13  10     1.392253594449   122.37771323     0.02377387
 C     15  14  13     1.378654970047   120.28886678   359.35177392
 C     12   8   1     1.385997702228   128.96908927   358.92907977
 C     17  12   8     1.377711415793   117.32402780   181.45430273
 C     18  17  12     1.397345175852   121.75764913     0.30504243
 C     19  18  17     1.378835245538   120.51066631   359.47487200
 N     14  13  10     1.446187015100   118.89450505   180.51017938
 C     21  14  13     1.382417074557   117.47663722    95.32979994
 C     22  21  14     1.407460267093   122.37202194   179.88591737
 S     23  22  21     1.714347254295   123.56161763     1.33429998
 C     24  23  22     1.714303303702   103.21563243   358.75428882
 C     21  14  13     1.382120508558   117.64570123   275.25642514
 N     19  18  17     1.423647351619   118.31778924   177.59462863
 C     27  19  18     1.410348217167   118.73109106   105.36819189
 C     28  27  19     1.396058993579   119.96860548   192.34190044
 S     29  28  27     1.756744360813   120.31311273     6.62403807
 C     30  29  28     1.755932948272    99.18709065   325.24001815
 C     31  30  29     1.395190400570   120.13709432    34.29017391
 C     22  21  14     1.406394849239   119.81875665   359.85850920
 C     33  22  21     1.367424730086   120.79284433   179.19802939
 C     34  33  22     1.397850250646   120.94649613     0.24187792
 C     35  34  33     1.367193145909   119.48310977     0.38786725
 C     25  24  23     1.398549963334   115.91846689   180.46413670
 C     37  25  24     1.367143078916   120.45254149   179.41964436
 C     38  37  25     1.397737754295   119.48350093   359.72299318
 C     39  38  37     1.367434145900   120.94088839     0.32324207
 C     31  30  29     1.383394000040   119.15474586   209.68135137
 C     41  31  30     1.383496050057   120.72291157   187.34988913
 C     42  41  31     1.380523838846   119.05848727   358.81951923
 C     43  42  41     1.384593767026   120.54727069   359.15154618
 C     28  27  19     1.390649515766   121.89412903    11.13552945
 C     45  28  27     1.384890815747   120.90617023   180.34421698
 C     46  45  28     1.380433445724   120.57341982   358.86444616
 C     29  28  27     1.383381605889   120.55388513   181.62259353
 H      2   1   3     1.081693735634   119.67641771   180.38115398
 H      3   2   1     1.081801086351   119.68509974   180.44798541
 H      5   4   3     1.081285288083   120.26191306   180.35959076
 H      6   5   4     1.081810928792   120.17298859   181.11970190
 H      7   4   3     1.337685837423    97.01674845   177.32523812
 H     13  10   9     1.082224265705   121.35977567   180.77044379
 H     15  14  13     1.081647265869   119.57313613   179.90366251
 H     16  15  14     1.080394495361   120.95211808   180.52549953
 H     17  12   8     1.080447056386   121.45121605     1.04199329
 H     18  17  12     1.081140794855   120.24546742   179.57602109
 H     20  19  18     1.081984733520   119.72950811   179.26557381
 H     33  22  21     1.076852885948   119.38931406   359.27400945
 H     34  33  22     1.080807265391   119.21656122   180.16150662
 H     35  34  33     1.080483743144   120.36197334   180.09847728
 H     36  35  34     1.081990254541   120.56172859   179.56759503
 H     37  25  24     1.081988364290   118.98213226   359.50528353
 H     38  37  25     1.080461935741   120.14801695   179.94699057
 H     39  38  37     1.080791498470   119.82992093   180.40276424
 H     40  39  38     1.076890775828   119.86180690   180.14231339
 H     41  31  30     1.081946151440   118.86316896     5.91790210
 H     42  41  31     1.080770621003   120.14597212   178.50569404
 H     43  42  41     1.081624022585   120.24754811   179.47456675
 H     44  43  42     1.078348410480   119.20627650   180.08378825
 H     45  28  27     1.078204389236   119.98740077   359.03539073
 H     46  45  28     1.081654600137   119.17478058   179.14060159
 H     47  46  45     1.080792503659   120.83441849   180.63629704
 H     48  29  28     1.081900590327   118.83852830   178.67372393

---------------------------
INTERNAL COORDINATES (A.U.)
---------------------------
 C      0   0   0     0.000000000000     0.00000000     0.00000000
 C      1   0   0     2.616829498505     0.00000000     0.00000000
 C      2   1   0     2.606941605967   120.05884419     0.00000000
 C      3   2   1     2.629990341144   120.41301475     0.51921771
 C      4   3   2     2.626738784702   119.16596765   359.68264406
 C      5   4   3     2.610114095917   120.31270125   359.70936615
 S      4   3   2     3.319392084099   117.66834690   179.64032359
 N      1   2   3     2.685223105075   119.96068335   179.26342768
 C      8   1   2     2.588808045498   125.92028524   105.04373207
 C      9   8   1     2.668694014785   109.12962903   180.57581960
 C     10   9   8     2.719896519746   106.60373694   359.31269483
 C      8   1   2     2.620048987435   125.46602538   285.21503918
 C     10   9   8     2.615858262181   119.55314191   178.77681260
 C     13  10   9     2.605486676943   118.11319178     0.75052561
 C     14  13  10     2.630978002476   122.37771323     0.02377387
 C     15  14  13     2.605280326557   120.28886678   359.35177392
 C     12   8   1     2.619156079454   128.96908927   358.92907977
 C     17  12   8     2.603497267426   117.32402780   181.45430273
 C     18  17  12     2.640599696916   121.75764913     0.30504243
 C     19  18  17     2.605620997865   120.51066631   359.47487200
 N     14  13  10     2.732897396973   118.89450505   180.51017938
 C     21  14  13     2.612389673770   117.47663722    95.32979994
 C     22  21  14     2.659714449181   122.37202194   179.88591737
 S     23  22  21     3.239646809057   123.56161763     1.33429998
 C     24  23  22     3.239563754474   103.21563243   358.75428882
 C     21  14  13     2.611829245250   117.64570123   275.25642514
 N     19  18  17     2.690303605843   118.31778924   177.59462863
 C     27  19  18     2.665171883910   118.73109106   105.36819189
 C     28  27  19     2.638169164661   119.96860548   192.34190044
 S     29  28  27     3.319765729246   120.31311273     6.62403807
 C     30  29  28     3.318232381764    99.18709065   325.24001815
 C     31  30  29     2.636527761754   120.13709432    34.29017391
 C     22  21  14     2.657701101220   119.81875665   359.85850920
 C     33  22  21     2.584058248614   120.79284433   179.19802939
 C     34  33  22     2.641554149954   120.94649613     0.24187792
 C     35  34  33     2.583620617942   119.48310977     0.38786725
 C     25  24  23     2.642876415306   115.91846689   180.46413670
 C     37  25  24     2.583526005037   120.45254149   179.41964436
 C     38  37  25     2.641341562659   119.48350093   359.72299318
 C     39  38  37     2.584076041923   120.94088839     0.32324207
 C     31  30  29     2.614235795386   119.15474586   209.68135137
 C     41  31  30     2.614428641970   120.72291157   187.34988913
 C     42  41  31     2.608811976768   119.05848727   358.81951923
 C     43  42  41     2.616503026414   120.54727069   359.15154618
 C     28  27  19     2.627946733068   121.89412903    11.13552945
 C     45  28  27     2.617064367145   120.90617023   180.34421698
 C     46  45  28     2.608641158524   120.57341982   358.86444616
 C     29  28  27     2.614212373834   120.55388513   181.62259353
 H      2   1   3     2.044104921126   119.67641771   180.38115398
 H      3   2   1     2.044307784582   119.68509974   180.44798541
 H      5   4   3     2.043333067115   120.26191306   180.35959076
 H      6   5   4     2.044326384100   120.17298859   181.11970190
 H      7   4   3     2.527859885954    97.01674845   177.32523812
 H     13  10   9     2.045107477666   121.35977567   180.77044379
 H     15  14  13     2.044017105997   119.57313613   179.90366251
 H     16  15  14     2.041649712828   120.95211808   180.52549953
 H     17  12   8     2.041749038770   121.45121605     1.04199329
 H     18  17  12     2.043060014486   120.24546742   179.57602109
 H     20  19  18     2.044654827437   119.72950811   179.26557381
 H     33  22  21     2.034957040965   119.38931406   359.27400945
 H     34  33  22     2.042429735141   119.21656122   180.16150662
 H     35  34  33     2.041818366696   120.36197334   180.09847728
 H     36  35  34     2.044665260654   120.56172859   179.56759503
 H     37  25  24     2.044661688598   118.98213226   359.50528353
 H     38  37  25     2.041777156677   120.14801695   179.94699057
 H     39  38  37     2.042399939979   119.82992093   180.40276424
 H     40  39  38     2.035028642461   119.86180690   180.14231339
 H     41  31  30     2.044581917872   118.86316896     5.91790210
 H     42  41  31     2.042360487283   120.14597212   178.50569404
 H     43  42  41     2.043973182556   120.24754811   179.47456675
 H     44  43  42     2.037783172757   119.20627650   180.08378825
 H     45  28  27     2.037511012048   119.98740077   359.03539073
 H     46  45  28     2.044030965755   119.17478058   179.14060159
 H     47  46  45     2.042401839511   120.83441849   180.63629704
 H     48  29  28     2.044495819845   118.83852830   178.67372393

---------------------
BASIS SET INFORMATION
---------------------
There are 4 groups of distinct atoms

 Group   1 Type C   : 11s6p2d1f contracted to 5s3p2d1f pattern {62111/411/11/1}
 Group   2 Type S   : 14s9p3d1f contracted to 5s5p2d1f pattern {73211/51111/21/1}
 Group   3 Type N   : 11s6p2d1f contracted to 5s3p2d1f pattern {62111/411/11/1}
 Group   4 Type H   : 5s1p contracted to 3s1p pattern {311/1}

Atom   0C    basis set group =>   1
Atom   1C    basis set group =>   1
Atom   2C    basis set group =>   1
Atom   3C    basis set group =>   1
Atom   4C    basis set group =>   1
Atom   5C    basis set group =>   1
Atom   6S    basis set group =>   2
Atom   7N    basis set group =>   3
Atom   8C    basis set group =>   1
Atom   9C    basis set group =>   1
Atom  10C    basis set group =>   1
Atom  11C    basis set group =>   1
Atom  12C    basis set group =>   1
Atom  13C    basis set group =>   1
Atom  14C    basis set group =>   1
Atom  15C    basis set group =>   1
Atom  16C    basis set group =>   1
Atom  17C    basis set group =>   1
Atom  18C    basis set group =>   1
Atom  19C    basis set group =>   1
Atom  20N    basis set group =>   3
Atom  21C    basis set group =>   1
Atom  22C    basis set group =>   1
Atom  23S    basis set group =>   2
Atom  24C    basis set group =>   1
Atom  25C    basis set group =>   1
Atom  26N    basis set group =>   3
Atom  27C    basis set group =>   1
Atom  28C    basis set group =>   1
Atom  29S    basis set group =>   2
Atom  30C    basis set group =>   1
Atom  31C    basis set group =>   1
Atom  32C    basis set group =>   1
Atom  33C    basis set group =>   1
Atom  34C    basis set group =>   1
Atom  35C    basis set group =>   1
Atom  36C    basis set group =>   1
Atom  37C    basis set group =>   1
Atom  38C    basis set group =>   1
Atom  39C    basis set group =>   1
Atom  40C    basis set group =>   1
Atom  41C    basis set group =>   1
Atom  42C    basis set group =>   1
Atom  43C    basis set group =>   1
Atom  44C    basis set group =>   1
Atom  45C    basis set group =>   1
Atom  46C    basis set group =>   1
Atom  47C    basis set group =>   1
Atom  48H    basis set group =>   4
Atom  49H    basis set group =>   4
Atom  50H    basis set group =>   4
Atom  51H    basis set group =>   4
Atom  52H    basis set group =>   4
Atom  53H    basis set group =>   4
Atom  54H    basis set group =>   4
Atom  55H    basis set group =>   4
Atom  56H    basis set group =>   4
Atom  57H    basis set group =>   4
Atom  58H    basis set group =>   4
Atom  59H    basis set group =>   4
Atom  60H    basis set group =>   4
Atom  61H    basis set group =>   4
Atom  62H    basis set group =>   4
Atom  63H    basis set group =>   4
Atom  64H    basis set group =>   4
Atom  65H    basis set group =>   4
Atom  66H    basis set group =>   4
Atom  67H    basis set group =>   4
Atom  68H    basis set group =>   4
Atom  69H    basis set group =>   4
Atom  70H    basis set group =>   4
Atom  71H    basis set group =>   4
Atom  72H    basis set group =>   4
Atom  73H    basis set group =>   4
Atom  74H    basis set group =>   4
---------------------------------
AUXILIARY/J BASIS SET INFORMATION
---------------------------------
There are 4 groups of distinct atoms

 Group   1 Type C   : 12s5p4d2f1g contracted to 6s4p3d1f1g pattern {711111/2111/211/2/1}
 Group   2 Type S   : 14s5p5d2f1g contracted to 8s4p3d1f1g pattern {71111111/2111/311/2/1}
 Group   3 Type N   : 12s5p4d2f1g contracted to 6s4p3d1f1g pattern {711111/2111/211/2/1}
 Group   4 Type H   : 5s2p1d contracted to 3s1p1d pattern {311/2/1}

Atom   0C    basis set group =>   1
Atom   1C    basis set group =>   1
Atom   2C    basis set group =>   1
Atom   3C    basis set group =>   1
Atom   4C    basis set group =>   1
Atom   5C    basis set group =>   1
Atom   6S    basis set group =>   2
Atom   7N    basis set group =>   3
Atom   8C    basis set group =>   1
Atom   9C    basis set group =>   1
Atom  10C    basis set group =>   1
Atom  11C    basis set group =>   1
Atom  12C    basis set group =>   1
Atom  13C    basis set group =>   1
Atom  14C    basis set group =>   1
Atom  15C    basis set group =>   1
Atom  16C    basis set group =>   1
Atom  17C    basis set group =>   1
Atom  18C    basis set group =>   1
Atom  19C    basis set group =>   1
Atom  20N    basis set group =>   3
Atom  21C    basis set group =>   1
Atom  22C    basis set group =>   1
Atom  23S    basis set group =>   2
Atom  24C    basis set group =>   1
Atom  25C    basis set group =>   1
Atom  26N    basis set group =>   3
Atom  27C    basis set group =>   1
Atom  28C    basis set group =>   1
Atom  29S    basis set group =>   2
Atom  30C    basis set group =>   1
Atom  31C    basis set group =>   1
Atom  32C    basis set group =>   1
Atom  33C    basis set group =>   1
Atom  34C    basis set group =>   1
Atom  35C    basis set group =>   1
Atom  36C    basis set group =>   1
Atom  37C    basis set group =>   1
Atom  38C    basis set group =>   1
Atom  39C    basis set group =>   1
Atom  40C    basis set group =>   1
Atom  41C    basis set group =>   1
Atom  42C    basis set group =>   1
Atom  43C    basis set group =>   1
Atom  44C    basis set group =>   1
Atom  45C    basis set group =>   1
Atom  46C    basis set group =>   1
Atom  47C    basis set group =>   1
Atom  48H    basis set group =>   4
Atom  49H    basis set group =>   4
Atom  50H    basis set group =>   4
Atom  51H    basis set group =>   4
Atom  52H    basis set group =>   4
Atom  53H    basis set group =>   4
Atom  54H    basis set group =>   4
Atom  55H    basis set group =>   4
Atom  56H    basis set group =>   4
Atom  57H    basis set group =>   4
Atom  58H    basis set group =>   4
Atom  59H    basis set group =>   4
Atom  60H    basis set group =>   4
Atom  61H    basis set group =>   4
Atom  62H    basis set group =>   4
Atom  63H    basis set group =>   4
Atom  64H    basis set group =>   4
Atom  65H    basis set group =>   4
Atom  66H    basis set group =>   4
Atom  67H    basis set group =>   4
Atom  68H    basis set group =>   4
Atom  69H    basis set group =>   4
Atom  70H    basis set group =>   4
Atom  71H    basis set group =>   4
Atom  72H    basis set group =>   4
Atom  73H    basis set group =>   4
Atom  74H    basis set group =>   4
n1225:rank35.orca_gtoint_mpi: Failed to modify UD QP to INIT on mlx5_0: Operation not permitted
n1225:rank35.orca_gtoint_mpi: Failed to modify UD QP to INIT on mlx5_0: Operation not permitted
n1225:rank33.orca_gtoint_mpi: Failed to modify UD QP to INIT on mlx5_0: Operation not permitted
n1225:rank34.orca_gtoint_mpi: Failed to modify UD QP to INIT on mlx5_0: Operation not permitted
n1225:rank32.orca_gtoint_mpi: Failed to modify UD QP to INIT on mlx5_0: Operation not permitted
n1225:rank35.orca_gtoint_mpi: Failed to modify UD QP to INIT on mlx5_0: Operation not permitted
n1225:rank34.orca_gtoint_mpi: Failed to modify UD QP to INIT on mlx5_0: Operation not permitted
n1225:rank33.orca_gtoint_mpi: Failed to modify UD QP to INIT on mlx5_0: Operation not permitted
n1225:rank32.orca_gtoint_mpi: Failed to modify UD QP to INIT on mlx5_0: Operation not permitted
n1225:rank32.orca_gtoint_mpi: Failed to modify UD QP to INIT on mlx5_0: Operation not permitted
n1225:rank33.orca_gtoint_mpi: Failed to modify UD QP to INIT on mlx5_0: Operation not permitted
n1225:rank34.orca_gtoint_mpi: Failed to modify UD QP to INIT on mlx5_0: Operation not permitted
n1225:rank32.orca_gtoint_mpi: Failed to modify UD QP to INIT on mlx5_0: Operation not permitted
n1225:rank33.orca_gtoint_mpi: Failed to modify UD QP to INIT on mlx5_0: Operation not permitted
n1225:rank34.orca_gtoint_mpi: Failed to modify UD QP to INIT on mlx5_0: Operation not permitted
n1225:rank35.orca_gtoint_mpi: Failed to modify UD QP to INIT on mlx5_0: Operation not permitted
n1220:rank5.orca_gtoint_mpi: Failed to modify UD QP to INIT on mlx5_0: Operation not permitted
n1220:rank5.orca_gtoint_mpi: Failed to modify UD QP to INIT on mlx5_0: Operation not permitted
n1220:rank5.orca_gtoint_mpi: Failed to modify UD QP to INIT on mlx5_0: Operation not permitted
n1220:rank10.orca_gtoint_mpi: Failed to modify UD QP to INIT on mlx5_0: Operation not permitted
n1220:rank5.orca_gtoint_mpi: Failed to modify UD QP to INIT on mlx5_0: Operation not permitted
n1220:rank10.orca_gtoint_mpi: Failed to modify UD QP to INIT on mlx5_0: Operation not permitted
n1220:rank0.orca_gtoint_mpi: Failed to modify UD QP to INIT on mlx5_0: Operation not permitted
n1220:rank15.orca_gtoint_mpi: Failed to modify UD QP to INIT on mlx5_0: Operation not permitted
n1220:rank10.orca_gtoint_mpi: Failed to modify UD QP to INIT on mlx5_0: Operation not permitted
n1220:rank15.orca_gtoint_mpi: Failed to modify UD QP to INIT on mlx5_0: Operation not permitted
n1220:rank0.orca_gtoint_mpi: Failed to modify UD QP to INIT on mlx5_0: Operation not permitted
n1220:rank0.orca_gtoint_mpi: Failed to modify UD QP to INIT on mlx5_0: Operation not permitted
n1220:rank15.orca_gtoint_mpi: Failed to modify UD QP to INIT on mlx5_0: Operation not permitted
n1220:rank19.orca_gtoint_mpi: Failed to modify UD QP to INIT on mlx5_0: Operation not permitted
n1220:rank10.orca_gtoint_mpi: Failed to modify UD QP to INIT on mlx5_0: Operation not permitted
n1220:rank0.orca_gtoint_mpi: Failed to modify UD QP to INIT on mlx5_0: Operation not permitted
n1220:rank19.orca_gtoint_mpi: Failed to modify UD QP to INIT on mlx5_0: Operation not permitted
n1220:rank31.orca_gtoint_mpi: Failed to modify UD QP to INIT on mlx5_0: Operation not permitted
n1220:rank19.orca_gtoint_mpi: Failed to modify UD QP to INIT on mlx5_0: Operation not permitted
n1220:rank15.orca_gtoint_mpi: Failed to modify UD QP to INIT on mlx5_0: Operation not permitted
n1220:rank31.orca_gtoint_mpi: Failed to modify UD QP to INIT on mlx5_0: Operation not permitted
n1220:rank24.orca_gtoint_mpi: Failed to modify UD QP to INIT on mlx5_0: Operation not permitted
n1220:rank31.orca_gtoint_mpi: Failed to modify UD QP to INIT on mlx5_0: Operation not permitted
n1220:rank24.orca_gtoint_mpi: Failed to modify UD QP to INIT on mlx5_0: Operation not permitted
n1220:rank20.orca_gtoint_mpi: Failed to modify UD QP to INIT on mlx5_0: Operation not permitted
n1220:rank24.orca_gtoint_mpi: Failed to modify UD QP to INIT on mlx5_0: Operation not permitted
n1220:rank20.orca_gtoint_mpi: Failed to modify UD QP to INIT on mlx5_0: Operation not permitted
n1220:rank20.orca_gtoint_mpi: Failed to modify UD QP to INIT on mlx5_0: Operation not permitted
n1220:rank19.orca_gtoint_mpi: Failed to modify UD QP to INIT on mlx5_0: Operation not permitted
n1220:rank24.orca_gtoint_mpi: Failed to modify UD QP to INIT on mlx5_0: Operation not permitted
n1220:rank31.orca_gtoint_mpi: Failed to modify UD QP to INIT on mlx5_0: Operation not permitted
n1220:rank20.orca_gtoint_mpi: Failed to modify UD QP to INIT on mlx5_0: Operation not permitted
n1220:rank7.orca_gtoint_mpi: Failed to modify UD QP to INIT on mlx5_0: Operation not permitted
n1220:rank18.orca_gtoint_mpi: Failed to modify UD QP to INIT on mlx5_0: Operation not permitted
n1220:rank11.orca_gtoint_mpi: Failed to modify UD QP to INIT on mlx5_0: Operation not permitted
n1220:rank7.orca_gtoint_mpi: Failed to modify UD QP to INIT on mlx5_0: Operation not permitted
n1220:rank11.orca_gtoint_mpi: Failed to modify UD QP to INIT on mlx5_0: Operation not permitted
n1220:rank18.orca_gtoint_mpi: Failed to modify UD QP to INIT on mlx5_0: Operation not permitted
n1220:rank7.orca_gtoint_mpi: Failed to modify UD QP to INIT on mlx5_0: Operation not permitted
n1220:rank29.orca_gtoint_mpi: Failed to modify UD QP to INIT on mlx5_0: Operation not permitted
n1220:rank23.orca_gtoint_mpi: Failed to modify UD QP to INIT on mlx5_0: Operation not permitted
n1220:rank11.orca_gtoint_mpi: Failed to modify UD QP to INIT on mlx5_0: Operation not permitted
n1220:rank18.orca_gtoint_mpi: Failed to modify UD QP to INIT on mlx5_0: Operation not permitted
n1220:rank17.orca_gtoint_mpi: Failed to modify UD QP to INIT on mlx5_0: Operation not permitted
n1220:rank26.orca_gtoint_mpi: Failed to modify UD QP to INIT on mlx5_0: Operation not permitted
n1220:rank29.orca_gtoint_mpi: Failed to modify UD QP to INIT on mlx5_0: Operation not permitted
n1220:rank23.orca_gtoint_mpi: Failed to modify UD QP to INIT on mlx5_0: Operation not permitted
n1220:rank22.orca_gtoint_mpi: Failed to modify UD QP to INIT on mlx5_0: Operation not permitted
n1220:rank17.orca_gtoint_mpi: Failed to modify UD QP to INIT on mlx5_0: Operation not permitted
n1220:rank29.orca_gtoint_mpi: Failed to modify UD QP to INIT on mlx5_0: Operation not permitted
n1220:rank16.orca_gtoint_mpi: Failed to modify UD QP to INIT on mlx5_0: Operation not permitted
n1220:rank1.orca_gtoint_mpi: Failed to modify UD QP to INIT on mlx5_0: Operation not permitted
n1220:rank25.orca_gtoint_mpi: Failed to modify UD QP to INIT on mlx5_0: Operation not permitted
n1220:rank14.orca_gtoint_mpi: Failed to modify UD QP to INIT on mlx5_0: Operation not permitted
n1220:rank8.orca_gtoint_mpi: Failed to modify UD QP to INIT on mlx5_0: Operation not permitted
n1220:rank3.orca_gtoint_mpi: Failed to modify UD QP to INIT on mlx5_0: Operation not permitted
n1220:rank26.orca_gtoint_mpi: Failed to modify UD QP to INIT on mlx5_0: Operation not permitted
n1220:rank23.orca_gtoint_mpi: Failed to modify UD QP to INIT on mlx5_0: Operation not permitted
n1220:rank17.orca_gtoint_mpi: Failed to modify UD QP to INIT on mlx5_0: Operation not permitted
n1220:rank26.orca_gtoint_mpi: Failed to modify UD QP to INIT on mlx5_0: Operation not permitted
n1220:rank27.orca_gtoint_mpi: Failed to modify UD QP to INIT on mlx5_0: Operation not permitted
n1220:rank22.orca_gtoint_mpi: Failed to modify UD QP to INIT on mlx5_0: Operation not permitted
n1220:rank30.orca_gtoint_mpi: Failed to modify UD QP to INIT on mlx5_0: Operation not permitted
n1220:rank21.orca_gtoint_mpi: Failed to modify UD QP to INIT on mlx5_0: Operation not permitted
n1220:rank28.orca_gtoint_mpi: Failed to modify UD QP to INIT on mlx5_0: Operation not permitted
n1220:rank4.orca_gtoint_mpi: Failed to modify UD QP to INIT on mlx5_0: Operation not permitted
n1220:rank9.orca_gtoint_mpi: Failed to modify UD QP to INIT on mlx5_0: Operation not permitted
n1220:rank16.orca_gtoint_mpi: Failed to modify UD QP to INIT on mlx5_0: Operation not permitted
n1220:rank1.orca_gtoint_mpi: Failed to modify UD QP to INIT on mlx5_0: Operation not permitted
n1220:rank3.orca_gtoint_mpi: Failed to modify UD QP to INIT on mlx5_0: Operation not permitted
n1220:rank8.orca_gtoint_mpi: Failed to modify UD QP to INIT on mlx5_0: Operation not permitted
n1220:rank2.orca_gtoint_mpi: Failed to modify UD QP to INIT on mlx5_0: Operation not permitted
n1220:rank14.orca_gtoint_mpi: Failed to modify UD QP to INIT on mlx5_0: Operation not permitted
n1220:rank25.orca_gtoint_mpi: Failed to modify UD QP to INIT on mlx5_0: Operation not permitted
n1220:rank13.orca_gtoint_mpi: Failed to modify UD QP to INIT on mlx5_0: Operation not permitted
n1220:rank6.orca_gtoint_mpi: Failed to modify UD QP to INIT on mlx5_0: Operation not permitted
n1220:rank12.orca_gtoint_mpi: Failed to modify UD QP to INIT on mlx5_0: Operation not permitted
n1220:rank22.orca_gtoint_mpi: Failed to modify UD QP to INIT on mlx5_0: Operation not permitted
n1220:rank16.orca_gtoint_mpi: Failed to modify UD QP to INIT on mlx5_0: Operation not permitted
n1220:rank1.orca_gtoint_mpi: Failed to modify UD QP to INIT on mlx5_0: Operation not permitted
n1220:rank3.orca_gtoint_mpi: Failed to modify UD QP to INIT on mlx5_0: Operation not permitted
n1220:rank8.orca_gtoint_mpi: Failed to modify UD QP to INIT on mlx5_0: Operation not permitted
n1220:rank27.orca_gtoint_mpi: Failed to modify UD QP to INIT on mlx5_0: Operation not permitted
n1220:rank30.orca_gtoint_mpi: Failed to modify UD QP to INIT on mlx5_0: Operation not permitted
n1220:rank14.orca_gtoint_mpi: Failed to modify UD QP to INIT on mlx5_0: Operation not permitted
n1220:rank25.orca_gtoint_mpi: Failed to modify UD QP to INIT on mlx5_0: Operation not permitted
n1220:rank28.orca_gtoint_mpi: Failed to modify UD QP to INIT on mlx5_0: Operation not permitted
n1220:rank4.orca_gtoint_mpi: Failed to modify UD QP to INIT on mlx5_0: Operation not permitted
n1220:rank21.orca_gtoint_mpi: Failed to modify UD QP to INIT on mlx5_0: Operation not permitted
n1220:rank9.orca_gtoint_mpi: Failed to modify UD QP to INIT on mlx5_0: Operation not permitted
n1220:rank6.orca_gtoint_mpi: Failed to modify UD QP to INIT on mlx5_0: Operation not permitted
n1220:rank12.orca_gtoint_mpi: Failed to modify UD QP to INIT on mlx5_0: Operation not permitted
n1220:rank2.orca_gtoint_mpi: Failed to modify UD QP to INIT on mlx5_0: Operation not permitted
n1220:rank13.orca_gtoint_mpi: Failed to modify UD QP to INIT on mlx5_0: Operation not permitted
n1220:rank11.orca_gtoint_mpi: Failed to modify UD QP to INIT on mlx5_0: Operation not permitted
n1220:rank7.orca_gtoint_mpi: Failed to modify UD QP to INIT on mlx5_0: Operation not permitted
n1220:rank27.orca_gtoint_mpi: Failed to modify UD QP to INIT on mlx5_0: Operation not permitted
n1220:rank30.orca_gtoint_mpi: Failed to modify UD QP to INIT on mlx5_0: Operation not permitted
n1220:rank4.orca_gtoint_mpi: Failed to modify UD QP to INIT on mlx5_0: Operation not permitted
n1220:rank9.orca_gtoint_mpi: Failed to modify UD QP to INIT on mlx5_0: Operation not permitted
n1220:rank6.orca_gtoint_mpi: Failed to modify UD QP to INIT on mlx5_0: Operation not permitted
n1220:rank21.orca_gtoint_mpi: Failed to modify UD QP to INIT on mlx5_0: Operation not permitted
n1220:rank12.orca_gtoint_mpi: Failed to modify UD QP to INIT on mlx5_0: Operation not permitted
n1220:rank28.orca_gtoint_mpi: Failed to modify UD QP to INIT on mlx5_0: Operation not permitted
n1220:rank18.orca_gtoint_mpi: Failed to modify UD QP to INIT on mlx5_0: Operation not permitted
n1220:rank2.orca_gtoint_mpi: Failed to modify UD QP to INIT on mlx5_0: Operation not permitted
n1220:rank13.orca_gtoint_mpi: Failed to modify UD QP to INIT on mlx5_0: Operation not permitted
n1220:rank29.orca_gtoint_mpi: Failed to modify UD QP to INIT on mlx5_0: Operation not permitted
n1220:rank23.orca_gtoint_mpi: Failed to modify UD QP to INIT on mlx5_0: Operation not permitted
n1220:rank17.orca_gtoint_mpi: Failed to modify UD QP to INIT on mlx5_0: Operation not permitted
n1220:rank26.orca_gtoint_mpi: Failed to modify UD QP to INIT on mlx5_0: Operation not permitted
n1220:rank22.orca_gtoint_mpi: Failed to modify UD QP to INIT on mlx5_0: Operation not permitted
n1220:rank16.orca_gtoint_mpi: Failed to modify UD QP to INIT on mlx5_0: Operation not permitted
n1220:rank3.orca_gtoint_mpi: Failed to modify UD QP to INIT on mlx5_0: Operation not permitted
n1220:rank8.orca_gtoint_mpi: Failed to modify UD QP to INIT on mlx5_0: Operation not permitted
n1220:rank1.orca_gtoint_mpi: Failed to modify UD QP to INIT on mlx5_0: Operation not permitted
n1220:rank14.orca_gtoint_mpi: Failed to modify UD QP to INIT on mlx5_0: Operation not permitted
n1220:rank25.orca_gtoint_mpi: Failed to modify UD QP to INIT on mlx5_0: Operation not permitted
n1220:rank30.orca_gtoint_mpi: Failed to modify UD QP to INIT on mlx5_0: Operation not permitted
n1220:rank27.orca_gtoint_mpi: Failed to modify UD QP to INIT on mlx5_0: Operation not permitted
n1220:rank9.orca_gtoint_mpi: Failed to modify UD QP to INIT on mlx5_0: Operation not permitted
n1220:rank6.orca_gtoint_mpi: Failed to modify UD QP to INIT on mlx5_0: Operation not permitted
n1220:rank21.orca_gtoint_mpi: Failed to modify UD QP to INIT on mlx5_0: Operation not permitted
n1220:rank4.orca_gtoint_mpi: Failed to modify UD QP to INIT on mlx5_0: Operation not permitted
n1220:rank2.orca_gtoint_mpi: Failed to modify UD QP to INIT on mlx5_0: Operation not permitted
n1220:rank28.orca_gtoint_mpi: Failed to modify UD QP to INIT on mlx5_0: Operation not permitted
n1220:rank12.orca_gtoint_mpi: Failed to modify UD QP to INIT on mlx5_0: Operation not permitted
n1220:rank13.orca_gtoint_mpi: Failed to modify UD QP to INIT on mlx5_0: Operation not permitted


           ************************************************************
           *        Program running with 36 parallel MPI-processes    *
           *              working on a shared directory               *
           ************************************************************
------------------------------------------------------------------------------
                           ORCA GTO INTEGRAL CALCULATION
                           -- RI-GTO INTEGRALS CHOSEN --
------------------------------------------------------------------------------
------------------------------------------------------------------------------
                   ___                                                        
                  /   \      - P O W E R E D   B Y -                         
                 /     \                                                     
                 |  |  |   _    _      __       _____    __    __             
                 |  |  |  | |  | |    /  \     |  _  \  |  |  /  |          
                  \  \/   | |  | |   /    \    | | | |  |  | /  /          
                 / \  \   | |__| |  /  /\  \   | |_| |  |  |/  /          
                |  |  |   |  __  | /  /__\  \  |    /   |      \           
                |  |  |   | |  | | |   __   |  |    \   |  |\   \          
                \     /   | |  | | |  |  |  |  | |\  \  |  | \   \       
                 \___/    |_|  |_| |__|  |__|  |_| \__\ |__|  \__/        
                                                                              
                      - O R C A' S   B I G   F R I E N D -                    
                                      &                                       
                       - I N T E G R A L  F E E D E R -                       
                                                                              
 v1 FN, 2020, v2 2021                                                         
------------------------------------------------------------------------------


Reading SHARK input file Combo6_Cf1tc_-0.43404_0.43404_ck0.SHARKINP.tmp ... ok
----------------------
SHARK INTEGRAL PACKAGE
----------------------

Number of atoms                             ...     75
Number of basis functions                   ...   1668
Number of shells                            ...    642
Maximum angular momentum                    ...      3
Integral batch strategy                     ... SHARK/LIBINT Hybrid
RI-J (if used) integral strategy            ... SPLIT-RIJ (Revised 2003 algorithm where possible)
Printlevel                                  ...      1
Contraction scheme used                     ... SEGMENTED contraction
Coulomb Range Separation                    ... NOT USED
Exchange Range Separation                   ... Long Range
   Mu parameter                             ...  0.330000
   Scaling (regular/separated)              ...  0.190000  0.460000
Finite Nucleus Model                        ... NOT USED
Auxiliary Coulomb fitting basis             ... AVAILABLE
   # of basis functions in Aux-J            ...   2655
   # of shells in Aux-J                     ...    861
   Maximum angular momentum in Aux-J        ...      4
Auxiliary J/K fitting basis                 ... NOT available
Auxiliary Correlation fitting basis         ... NOT available
Auxiliary 'external' fitting basis          ... NOT available
Integral threshold                          ...     2.500000e-11
Primitive cut-off                           ...     2.500000e-12
Primitive pair pre-selection threshold      ...     2.500000e-12

Calculating pre-screening integrals         ... done (  0.1 sec) Dimension = 642
Organizing shell pair data                  ... done (  1.0 sec)
Shell pair information
Total number of shell pairs                 ...    206403
Shell pairs after pre-screening             ...     97055
Total number of primitive shell pairs       ...    654975
Primitive shell pairs kept                  ...    187775
          la=0 lb=0:  23341 shell pairs
          la=1 lb=0:  28751 shell pairs
          la=1 lb=1:   8829 shell pairs
          la=2 lb=0:  13539 shell pairs
          la=2 lb=1:   8372 shell pairs
          la=2 lb=2:   1941 shell pairs
          la=3 lb=0:   6182 shell pairs
          la=3 lb=1:   3923 shell pairs
          la=3 lb=2:   1754 shell pairs
          la=3 lb=3:    423 shell pairs

Reading point charge file                   ... ok (4 point charges)
Calculating one electron integrals          ... done (  0.2 sec)
Calculating RI/J V-Matrix + Cholesky decomp.... done (  0.7 sec)
Calculating Nuclear repulsion               ... (+Point charges) done (  0.0 sec) ENN=   5970.409080130951 Eh

SHARK setup successfully completed in   3.0 seconds

Maximum memory used throughout the entire GTOINT-calculation: 161.0 MB
ENUC WAS=  0.000000000
ENUC IS =  0.000000000


           ************************************************************
           *        Program running with 36 parallel MPI-processes    *
           *              working on a shared directory               *
           ************************************************************
-------------------------------------------------------------------------------
                                 ORCA SCF
-------------------------------------------------------------------------------

------------
SCF SETTINGS
------------
Hamiltonian:
 Density Functional     Method          .... DFT(GTOs)
 Exchange Functional    Exchange        .... WB88
 Correlation Functional Correlation     .... LYP
 LDA part of GGA corr.  LDAOpt          .... VWN-5
 Gradients option       PostSCFGGA      .... off
 Hybrid DFT is turned on
   Fraction HF Exchange ScalHFX         ....  0.190000
   Scaling of DF-GGA-X  ScalDFX         ....  0.350000
   Scaling of DF-GGA-C  ScalDFC         ....  0.810000
   Scaling of DF-LDA-C  ScalLDAC        ....  1.000000
   Perturbative correction              ....  0.000000
   Density functional embedding theory  .... OFF
 Long-range corrected/Screened/Range-Separated Hybrid DFT is turned on
   Amount of maximum screened exact exchange              ....  0.460000
   Range separation parameter mu (erf(mu*r12)/r12)        ....  0.330000
 RI-approximation to the Coulomb term is turned on
   Number of AuxJ basis functions       .... 2655
   RIJ-COSX (HFX calculated with COS-X)).... on


General Settings:
 Integral files         IntName         .... Combo6_Cf1tc_-0.43404_0.43404_ck0
 Hartree-Fock type      HFTyp           .... UHF
 Total Charge           Charge          ....    1
 Multiplicity           Mult            ....    2
 Number of Electrons    NEL             ....  347
 Basis Dimension        Dim             .... 1668
 Nuclear Repulsion      ENuc            ....   5970.4090801310 Eh

Convergence Acceleration:
 DIIS                   CNVDIIS         .... on
   Start iteration      DIISMaxIt       ....    12
   Startup error        DIISStart       ....  0.200000
   # of expansion vecs  DIISMaxEq       ....     5
   Bias factor          DIISBfac        ....   1.050
   Max. coefficient     DIISMaxC        ....  10.000
 Trust-Rad. Augm. Hess. CNVTRAH         .... auto
   Auto Start mean grad. ratio tolernc. ....  1.125000
   Auto Start start iteration           ....    20
   Auto Start num. interpolation iter.  ....    10
   Max. Number of Micro iterations      ....    16
   Max. Number of Macro iterations      .... Maxiter - #DIIS iter
   Number of Davidson start vectors     ....     2
   Converg. threshold I  (grad. norm)   ....   1.000e-05
   Converg. threshold II (energy diff.) ....   1.000e-08
   Grad. Scal. Fac. for Micro threshold ....   0.100
   Minimum threshold for Micro iter.    ....   0.010
   NR start threshold (gradient norm)   ....   0.001
   Initial trust radius                 ....   0.400
   Minimum AH scaling param. (alpha)    ....   1.000
   Maximum AH scaling param. (alpha)    .... 1000.000
   Orbital update algorithm             .... Taylor
   White noise on init. David. guess    .... on
   Maximum white noise                  ....   0.010
   Quad. conv. algorithm                .... NR
 SOSCF                  CNVSOSCF        .... off
 Level Shifting         CNVShift        .... on
   Level shift para.    LevelShift      ....    0.2500
   Turn off err/grad.   ShiftErr        ....    0.0010
 Zerner damping         CNVZerner       .... off
 Static damping         CNVDamp         .... on
   Fraction old density DampFac         ....    0.7000
   Max. Damping (<1)    DampMax         ....    0.9800
   Min. Damping (>=0)   DampMin         ....    0.0000
   Turn off err/grad.   DampErr         ....    0.1000
 Fernandez-Rico         CNVRico         .... off

SCF Procedure:
 Maximum # iterations   MaxIter         ....   500
 SCF integral mode      SCFMode         .... Direct
   Integral package                     .... SHARK and LIBINT hybrid scheme
 Reset frequency        DirectResetFreq ....    20
 Integral Threshold     Thresh          ....  2.500e-11 Eh
 Primitive CutOff       TCut            ....  2.500e-12 Eh

Convergence Tolerance:
 Convergence Check Mode ConvCheckMode   .... Total+1el-Energy
 Convergence forced     ConvForced      .... 0
 Energy Change          TolE            ....  1.000e-08 Eh
 1-El. energy change                    ....  1.000e-05 Eh
 DIIS Error             TolErr          ....  5.000e-07


Diagonalization of the overlap matrix:
Smallest eigenvalue                        ... 3.567e-06
Time for diagonalization                   ...    0.518 sec
Threshold for overlap eigenvalues          ... 1.000e-08
Number of eigenvalues below threshold      ... 0
Time for construction of square roots      ...    0.400 sec
Total time needed                          ...    0.936 sec

Time for model grid setup =    0.449 sec

------------------------------
INITIAL GUESS: MODEL POTENTIAL
------------------------------
Loading Hartree-Fock densities                     ... done
Calculating cut-offs                               ... done
Initializing the effective Hamiltonian             ... done
Setting up the integral package (SHARK)            ... done
Starting the Coulomb interaction                   ... done (   0.6 sec)
Reading the grid                                   ... done
Mapping shells                                     ... done
Starting the XC term evaluation                    ... done (   0.3 sec)
  promolecular density results
     # of electrons  =    347.976504809
     EX              =   -317.543107883
     EC              =    -12.059193372
     EX+EC           =   -329.602301255
Transforming the Hamiltonian                       ... done (   0.3 sec)
Diagonalizing the Hamiltonian                      ... done (   0.5 sec)
Back transforming the eigenvectors                 ... done (   0.1 sec)
Now organizing SCF variables                       ... done
                      ------------------
                      INITIAL GUESS DONE (   2.3 sec)
                      ------------------
-------------------
DFT GRID GENERATION
-------------------

General Integration Accuracy     IntAcc      ... 4.388
Radial Grid Type                 RadialGrid  ... OptM3 with GC (2021)
Angular Grid (max. ang.)         AngularGrid ... 4 (Lebedev-302)
Angular grid pruning method      GridPruning ... 4 (adaptive)
Weight generation scheme         WeightScheme... Becke
Basis function cutoff            BFCut       ... 1.0000e-11
Integration weight cutoff        WCut        ... 1.0000e-14
Angular grids for H and He will be reduced by one unit
Partially contracted basis set               ... off
Rotationally invariant grid construction     ... off

Total number of grid points                  ...   374467
Total number of batches                      ...     5888
Average number of points per batch           ...       63
Average number of grid points per atom       ...     4993
Time for grid setup =    2.123 sec

--------------------
COSX GRID GENERATION
--------------------

GRIDX 1
-------
General Integration Accuracy     IntAcc      ... 3.816
Radial Grid Type                 RadialGrid  ... OptM3 with GC (2021)
Angular Grid (max. ang.)         AngularGrid ... 1 (Lebedev-50)
Angular grid pruning method      GridPruning ... 4 (adaptive)
Weight generation scheme         WeightScheme... Becke
Basis function cutoff            BFCut       ... 1.0000e-11
Integration weight cutoff        WCut        ... 1.0000e-14
Angular grids for H and He will be reduced by one unit
Partially contracted basis set               ... on
Rotationally invariant grid construction     ... off

Total number of grid points                  ...    47133
Total number of batches                      ...      765
Average number of points per batch           ...       61
Average number of grid points per atom       ...      628
UseSFitting                                  ... on

GRIDX 2
-------
General Integration Accuracy     IntAcc      ... 4.020
Radial Grid Type                 RadialGrid  ... OptM3 with GC (2021)
Angular Grid (max. ang.)         AngularGrid ... 2 (Lebedev-110)
Angular grid pruning method      GridPruning ... 4 (adaptive)
Weight generation scheme         WeightScheme... Becke
Basis function cutoff            BFCut       ... 1.0000e-11
Integration weight cutoff        WCut        ... 1.0000e-14
Angular grids for H and He will be reduced by one unit
Partially contracted basis set               ... on
Rotationally invariant grid construction     ... off

Total number of grid points                  ...   103014
Total number of batches                      ...     1646
Average number of points per batch           ...       62
Average number of grid points per atom       ...     1374
UseSFitting                                  ... on

GRIDX 3
-------
General Integration Accuracy     IntAcc      ... 4.338
Radial Grid Type                 RadialGrid  ... OptM3 with GC (2021)
Angular Grid (max. ang.)         AngularGrid ... 3 (Lebedev-194)
Angular grid pruning method      GridPruning ... 4 (adaptive)
Weight generation scheme         WeightScheme... Becke
Basis function cutoff            BFCut       ... 1.0000e-11
Integration weight cutoff        WCut        ... 1.0000e-14
Angular grids for H and He will be reduced by one unit
Partially contracted basis set               ... on
Rotationally invariant grid construction     ... off

Total number of grid points                  ...   226620
Total number of batches                      ...     3580
Average number of points per batch           ...       63
Average number of grid points per atom       ...     3022
UseSFitting                                  ... on

Time for X-Grid setup             =    5.785 sec

--------------
SCF ITERATIONS
--------------
ITER       Energy         Delta-E        Max-DP      RMS-DP      [F,P]     Damp
               ***  Starting incremental Fock matrix formation  ***
  0  -2974.1719798759   0.000000000000 0.05209076  0.00031574  0.0672138 0.7000
  1  -2974.5467982158  -0.374818339954 0.03703114  0.00025640  0.0367986 0.7000
                               ***Turning on DIIS***
  2  -2974.7263682689  -0.179570053092 0.10134796  0.00057522  0.0187728 0.0000
  3  -2975.0012323600  -0.274864091109 0.04959399  0.00015487  0.0190746 0.0000
  4  -2975.0594042231  -0.058171863091 0.03283894  0.00007909  0.0053493 0.0000
  5  -2975.0619274224  -0.002523199292 0.00806327  0.00002695  0.0026015 0.0000
  6  -2975.0625023864  -0.000574964007 0.00451433  0.00001453  0.0015976 0.0000
  7  -2975.0627449824  -0.000242595966 0.00185947  0.00001456  0.0007414 0.0000
               *** Restarting incremental Fock matrix formation ***
                                   *** Resetting DIIS ***
  8  -2975.0629812499  -0.000236267493 0.01411938  0.00006958  0.0010096 0.0000
  9  -2975.0630221476  -0.000040897710 0.00311454  0.00001459  0.0008146 0.0000
 10  -2975.0630691343  -0.000046986742 0.00113476  0.00000585  0.0005792 0.0000
 11  -2975.0631090295  -0.000039895176 0.00078550  0.00000528  0.0002286 0.0000
 12  -2975.0631365651  -0.000027535569 0.00058936  0.00000380  0.0001836 0.0000
 13  -2975.0631485382  -0.000011973079 0.00079528  0.00000235  0.0000788 0.0000
 14  -2975.0631517895  -0.000003251298 0.00047774  0.00000171  0.0000433 0.0000
 15  -2975.0631530945  -0.000001305033 0.00035361  0.00000154  0.0000223 0.0000
 16  -2975.0631533401  -0.000000245604 0.00018293  0.00000101  0.0000236 0.0000
 17  -2975.0631534786  -0.000000138482 0.00026132  0.00000075  0.0000207 0.0000
 18  -2975.0631535975  -0.000000118948 0.00011967  0.00000068  0.0000079 0.0000
 19  -2975.0631535270   0.000000070569 0.00040042  0.00000111  0.0000077 0.0000
 20  -2975.0631535581  -0.000000031102 0.00031505  0.00000114  0.0000047 0.0000
 21  -2975.0631536049  -0.000000046871 0.00063316  0.00000120  0.0000022 0.0000
 22  -2975.0631535517   0.000000053246 0.00037293  0.00000079  0.0000016 0.0000
                            ***DIIS convergence achieved***

               *****************************************************
               *                     SUCCESS                       *
               *           SCF CONVERGED AFTER  23 CYCLES          *
               *****************************************************

Old exchange energy                            =    -88.483012677 Eh
New exchange energy                            =    -88.482999236 Eh
Exchange energy change after final integration =      0.000013441 Eh
Total energy after final integration           =  -2975.063140119 Eh
Final COS-X integration done in                =    47.545 sec

----------------
TOTAL SCF ENERGY
----------------

Total Energy       :        -2975.06314012 Eh          -80955.58374 eV

Components:
Nuclear Repulsion  :         5970.40908013 Eh          162463.09053 eV
Electronic Energy  :        -8945.47222025 Eh         -243418.67428 eV
One Electron Energy:       -15917.30581249 Eh         -433131.91116 eV
Two Electron Energy:         6971.83359224 Eh          189713.23688 eV
Max COSX asymmetry :            0.00000050 Eh               0.00001 eV

Virial components:
Potential Energy   :        -5940.90041674 Eh         -161660.11898 eV
Kinetic Energy     :         2965.83727662 Eh           80704.53524 eV
Virial Ratio       :            2.00311071


DFT components:
N(Alpha)           :      173.999891774797 electrons
N(Beta)            :      172.999883009000 electrons
N(Total)           :      346.999774783797 electrons
E(XC)              :     -247.029826250894 Eh       
DFET-embed. en.    :        0.000000000000 Eh       

---------------
SCF CONVERGENCE
---------------

  Last Energy change         ...   -9.0063e-09  Tolerance :   1.0000e-08
  Last MAX-Density change    ...    0.0000e+00  Tolerance :   1.0000e-07
  Last RMS-Density change    ...    0.0000e+00  Tolerance :   5.0000e-09
  Last DIIS Error            ...    9.7586e-07  Tolerance :   5.0000e-07

             **** THE GBW FILE WAS UPDATED (Combo6_Cf1tc_-0.43404_0.43404_ck0.gbw) ****
             **** DENSITY Combo6_Cf1tc_-0.43404_0.43404_ck0.scfp WAS UPDATED ****
             **** ENERGY FILE WAS UPDATED (Combo6_Cf1tc_-0.43404_0.43404_ck0.en.tmp) ****
----------------------
UHF SPIN CONTAMINATION
----------------------

Warning: in a DFT calculation there is little theoretical justification to 
         calculate <S**2> as in Hartree-Fock theory. We will do it anyways
         but you should keep in mind that the values have only limited relevance

Expectation value of <S**2>     :     0.767730
Ideal value S*(S+1) for S=0.5   :     0.750000
Deviation                       :     0.017730

             **** THE GBW FILE WAS UPDATED (Combo6_Cf1tc_-0.43404_0.43404_ck0.gbw) ****
             **** DENSITY Combo6_Cf1tc_-0.43404_0.43404_ck0.scfp WAS UPDATED ****
----------------
ORBITAL ENERGIES
----------------
                 SPIN UP ORBITALS
  NO   OCC          E(Eh)            E(eV) 
   0   1.0000     -89.114269     -2424.9225 
   1   1.0000     -89.009683     -2422.0766 
   2   1.0000     -88.986214     -2421.4380 
   3   1.0000     -14.612809      -397.6347 
   4   1.0000     -14.532706      -395.4550 
   5   1.0000     -14.485777      -394.1780 
   6   1.0000     -10.454756      -284.4884 
   7   1.0000     -10.454682      -284.4864 
   8   1.0000     -10.438159      -284.0368 
   9   1.0000     -10.438134      -284.0361 
  10   1.0000     -10.403766      -283.1009 
  11   1.0000     -10.395105      -282.8652 
  12   1.0000     -10.390185      -282.7313 
  13   1.0000     -10.390077      -282.7284 
  14   1.0000     -10.385369      -282.6003 
  15   1.0000     -10.385174      -282.5950 
  16   1.0000     -10.384529      -282.5774 
  17   1.0000     -10.384362      -282.5729 
  18   1.0000     -10.383919      -282.5608 
  19   1.0000     -10.383799      -282.5575 
  20   1.0000     -10.379486      -282.4402 
  21   1.0000     -10.377909      -282.3973 
  22   1.0000     -10.372190      -282.2416 
  23   1.0000     -10.370910      -282.2068 
  24   1.0000     -10.367660      -282.1184 
  25   1.0000     -10.361866      -281.9607 
  26   1.0000     -10.361387      -281.9477 
  27   1.0000     -10.361266      -281.9444 
  28   1.0000     -10.356104      -281.8039 
  29   1.0000     -10.355668      -281.7921 
  30   1.0000     -10.345766      -281.5226 
  31   1.0000     -10.344388      -281.4851 
  32   1.0000     -10.343276      -281.4549 
  33   1.0000     -10.340144      -281.3696 
  34   1.0000     -10.339589      -281.3545 
  35   1.0000     -10.338374      -281.3215 
  36   1.0000     -10.335635      -281.2469 
  37   1.0000     -10.332925      -281.1732 
  38   1.0000     -10.332107      -281.1509 
  39   1.0000     -10.332061      -281.1497 
  40   1.0000     -10.305096      -280.4159 
  41   1.0000     -10.304966      -280.4124 
  42   1.0000     -10.304465      -280.3987 
  43   1.0000     -10.304403      -280.3971 
  44   1.0000     -10.303546      -280.3737 
  45   1.0000     -10.303515      -280.3729 
  46   1.0000     -10.297671      -280.2139 
  47   1.0000     -10.297352      -280.2052 
  48   1.0000      -8.191626      -222.9055 
  49   1.0000      -8.088431      -220.0974 
  50   1.0000      -8.064514      -219.4466 
  51   1.0000      -6.154525      -167.4731 
  52   1.0000      -6.151502      -167.3909 
  53   1.0000      -6.150336      -167.3591 
  54   1.0000      -6.052517      -164.6974 
  55   1.0000      -6.048391      -164.5851 
  56   1.0000      -6.044187      -164.4707 
  57   1.0000      -6.028650      -164.0479 
  58   1.0000      -6.024984      -163.9481 
  59   1.0000      -6.019852      -163.8085 
  60   1.0000      -1.235158       -33.6103 
  61   1.0000      -1.184694       -32.2372 
  62   1.0000      -1.127403       -30.6782 
  63   1.0000      -1.110598       -30.2209 
  64   1.0000      -1.100910       -29.9573 
  65   1.0000      -1.062828       -28.9210 
  66   1.0000      -1.047613       -28.5070 
  67   1.0000      -1.044698       -28.4277 
  68   1.0000      -1.031266       -28.0622 
  69   1.0000      -1.009956       -27.4823 
  70   1.0000      -1.003730       -27.3129 
  71   1.0000      -0.996772       -27.1236 
  72   1.0000      -0.982109       -26.7245 
  73   1.0000      -0.982017       -26.7221 
  74   1.0000      -0.963594       -26.2207 
  75   1.0000      -0.956754       -26.0346 
  76   1.0000      -0.948100       -25.7991 
  77   1.0000      -0.943842       -25.6833 
  78   1.0000      -0.928848       -25.2752 
  79   1.0000      -0.918358       -24.9898 
  80   1.0000      -0.912392       -24.8275 
  81   1.0000      -0.904645       -24.6166 
  82   1.0000      -0.903690       -24.5907 
  83   1.0000      -0.891312       -24.2538 
  84   1.0000      -0.878140       -23.8954 
  85   1.0000      -0.865874       -23.5616 
  86   1.0000      -0.864754       -23.5311 
  87   1.0000      -0.847676       -23.0664 
  88   1.0000      -0.830546       -22.6003 
  89   1.0000      -0.820430       -22.3250 
  90   1.0000      -0.817731       -22.2516 
  91   1.0000      -0.794602       -21.6222 
  92   1.0000      -0.791212       -21.5300 
  93   1.0000      -0.786737       -21.4082 
  94   1.0000      -0.776480       -21.1291 
  95   1.0000      -0.774967       -21.0879 
  96   1.0000      -0.770151       -20.9569 
  97   1.0000      -0.764508       -20.8033 
  98   1.0000      -0.755520       -20.5587 
  99   1.0000      -0.745519       -20.2866 
 100   1.0000      -0.736915       -20.0525 
 101   1.0000      -0.727164       -19.7871 
 102   1.0000      -0.714281       -19.4366 
 103   1.0000      -0.700408       -19.0591 
 104   1.0000      -0.694420       -18.8961 
 105   1.0000      -0.693232       -18.8638 
 106   1.0000      -0.685880       -18.6637 
 107   1.0000      -0.679256       -18.4835 
 108   1.0000      -0.678615       -18.4661 
 109   1.0000      -0.678077       -18.4514 
 110   1.0000      -0.677218       -18.4280 
 111   1.0000      -0.662340       -18.0232 
 112   1.0000      -0.654102       -17.7990 
 113   1.0000      -0.648471       -17.6458 
 114   1.0000      -0.644772       -17.5451 
 115   1.0000      -0.641638       -17.4599 
 116   1.0000      -0.632932       -17.2230 
 117   1.0000      -0.631306       -17.1787 
 118   1.0000      -0.623718       -16.9722 
 119   1.0000      -0.617641       -16.8069 
 120   1.0000      -0.611740       -16.6463 
 121   1.0000      -0.606193       -16.4953 
 122   1.0000      -0.604381       -16.4461 
 123   1.0000      -0.604087       -16.4380 
 124   1.0000      -0.600054       -16.3283 
 125   1.0000      -0.598155       -16.2766 
 126   1.0000      -0.594126       -16.1670 
 127   1.0000      -0.589682       -16.0461 
 128   1.0000      -0.588509       -16.0141 
 129   1.0000      -0.587993       -16.0001 
 130   1.0000      -0.584779       -15.9126 
 131   1.0000      -0.580680       -15.8011 
 132   1.0000      -0.574505       -15.6331 
 133   1.0000      -0.569506       -15.4970 
 134   1.0000      -0.566588       -15.4176 
 135   1.0000      -0.562762       -15.3135 
 136   1.0000      -0.561131       -15.2692 
 137   1.0000      -0.552651       -15.0384 
 138   1.0000      -0.550860       -14.9897 
 139   1.0000      -0.547088       -14.8870 
 140   1.0000      -0.546343       -14.8668 
 141   1.0000      -0.542506       -14.7623 
 142   1.0000      -0.537336       -14.6217 
 143   1.0000      -0.536754       -14.6058 
 144   1.0000      -0.531972       -14.4757 
 145   1.0000      -0.530464       -14.4347 
 146   1.0000      -0.522443       -14.2164 
 147   1.0000      -0.514184       -13.9917 
 148   1.0000      -0.510462       -13.8904 
 149   1.0000      -0.504259       -13.7216 
 150   1.0000      -0.501997       -13.6600 
 151   1.0000      -0.492527       -13.4023 
 152   1.0000      -0.490168       -13.3382 
 153   1.0000      -0.480814       -13.0836 
 154   1.0000      -0.479981       -13.0609 
 155   1.0000      -0.468245       -12.7416 
 156   1.0000      -0.466778       -12.7017 
 157   1.0000      -0.463003       -12.5990 
 158   1.0000      -0.452567       -12.3150 
 159   1.0000      -0.450045       -12.2463 
 160   1.0000      -0.449702       -12.2370 
 161   1.0000      -0.445130       -12.1126 
 162   1.0000      -0.427131       -11.6228 
 163   1.0000      -0.421735       -11.4760 
 164   1.0000      -0.417559       -11.3624 
 165   1.0000      -0.408047       -11.1035 
 166   1.0000      -0.383583       -10.4378 
 167   1.0000      -0.380556       -10.3554 
 168   1.0000      -0.371571       -10.1110 
 169   1.0000      -0.369496       -10.0545 
 170   1.0000      -0.363512        -9.8917 
 171   1.0000      -0.351277        -9.5587 
 172   1.0000      -0.338415        -9.2087 
 173   1.0000      -0.295436        -8.0392 
 174   0.0000      -0.135345        -3.6829 
 175   0.0000      -0.111475        -3.0334 
 176   0.0000      -0.110952        -3.0192 
 177   0.0000      -0.093824        -2.5531 
 178   0.0000      -0.076529        -2.0825 
 179   0.0000      -0.070224        -1.9109 
 180   0.0000      -0.066904        -1.8205 
 181   0.0000      -0.062751        -1.7075 
 182   0.0000      -0.062094        -1.6897 
 183   0.0000      -0.043634        -1.1873 
 184   0.0000      -0.033588        -0.9140 
 185   0.0000      -0.030575        -0.8320 
 186   0.0000      -0.028814        -0.7841 
 187   0.0000      -0.025124        -0.6836 
 188   0.0000      -0.022025        -0.5993 
 189   0.0000      -0.020479        -0.5573 
 190   0.0000      -0.016573        -0.4510 
 191   0.0000      -0.009330        -0.2539 
 192   0.0000      -0.001098        -0.0299 
 193   0.0000       0.000451         0.0123 
 194   0.0000       0.003035         0.0826 
 195   0.0000       0.006132         0.1669 
 196   0.0000       0.012168         0.3311 
 197   0.0000       0.014655         0.3988 
 198   0.0000       0.017435         0.4744 
 199   0.0000       0.023523         0.6401 
 200   0.0000       0.026972         0.7339 
 201   0.0000       0.029910         0.8139 
 202   0.0000       0.030276         0.8238 
 203   0.0000       0.036184         0.9846 
 204   0.0000       0.039023         1.0619 
 205   0.0000       0.043448         1.1823 
 206   0.0000       0.045889         1.2487 
 207   0.0000       0.048002         1.3062 
 208   0.0000       0.050775         1.3817 
 209   0.0000       0.051856         1.4111 
 210   0.0000       0.055036         1.4976 
 211   0.0000       0.055922         1.5217 
 212   0.0000       0.058825         1.6007 
 213   0.0000       0.059781         1.6267 
 214   0.0000       0.064623         1.7585 
 215   0.0000       0.066155         1.8002 
 216   0.0000       0.070294         1.9128 
 217   0.0000       0.073087         1.9888 
 218   0.0000       0.074713         2.0330 
 219   0.0000       0.075900         2.0654 
 220   0.0000       0.081343         2.2135 
 221   0.0000       0.085895         2.3373 
 222   0.0000       0.089707         2.4410 
 223   0.0000       0.091841         2.4991 
 224   0.0000       0.096764         2.6331 
 225   0.0000       0.099378         2.7042 
 226   0.0000       0.102398         2.7864 
 227   0.0000       0.105205         2.8628 
 228   0.0000       0.107338         2.9208 
 229   0.0000       0.109880         2.9900 
 230   0.0000       0.113731         3.0948 
 231   0.0000       0.116570         3.1720 
 232   0.0000       0.119275         3.2456 
 233   0.0000       0.123862         3.3705 
 234   0.0000       0.125670         3.4197 
 235   0.0000       0.126574         3.4442 
 236   0.0000       0.127434         3.4677 
 237   0.0000       0.128885         3.5071 
 238   0.0000       0.131759         3.5853 
 239   0.0000       0.133855         3.6424 
 240   0.0000       0.136071         3.7027 
 241   0.0000       0.136324         3.7096 
 242   0.0000       0.139030         3.7832 
 243   0.0000       0.144008         3.9186 
 244   0.0000       0.148510         4.0412 
 245   0.0000       0.149402         4.0654 
 246   0.0000       0.151497         4.1225 
 247   0.0000       0.153199         4.1688 
 248   0.0000       0.155199         4.2232 
 249   0.0000       0.159654         4.3444 
 250   0.0000       0.161043         4.3822 
 251   0.0000       0.162387         4.4188 
 252   0.0000       0.165427         4.5015 
 253   0.0000       0.166794         4.5387 
 254   0.0000       0.167603         4.5607 
 255   0.0000       0.171879         4.6771 
 256   0.0000       0.173387         4.7181 
 257   0.0000       0.176991         4.8162 
 258   0.0000       0.179168         4.8754 
 259   0.0000       0.180838         4.9209 
 260   0.0000       0.183046         4.9809 
 261   0.0000       0.184110         5.0099 
 262   0.0000       0.186457         5.0737 
 263   0.0000       0.187654         5.1063 
 264   0.0000       0.191040         5.1985 
 265   0.0000       0.192633         5.2418 
 266   0.0000       0.193507         5.2656 
 267   0.0000       0.194087         5.2814 
 268   0.0000       0.197176         5.3654 
 269   0.0000       0.197851         5.3838 
 270   0.0000       0.200147         5.4463 
 271   0.0000       0.201816         5.4917 
 272   0.0000       0.205186         5.5834 
 273   0.0000       0.208689         5.6787 
 274   0.0000       0.210426         5.7260 
 275   0.0000       0.212540         5.7835 
 276   0.0000       0.215292         5.8584 
 277   0.0000       0.218282         5.9398 
 278   0.0000       0.219086         5.9616 
 279   0.0000       0.223693         6.0870 
 280   0.0000       0.225777         6.1437 
 281   0.0000       0.229446         6.2435 
 282   0.0000       0.230235         6.2650 
 283   0.0000       0.232267         6.3203 
 284   0.0000       0.233146         6.3442 
 285   0.0000       0.235185         6.3997 
 286   0.0000       0.237044         6.4503 
 287   0.0000       0.241123         6.5613 
 288   0.0000       0.241772         6.5790 
 289   0.0000       0.242278         6.5927 
 290   0.0000       0.243920         6.6374 
 291   0.0000       0.246672         6.7123 
 292   0.0000       0.249459         6.7881 
 293   0.0000       0.251268         6.8373 
 294   0.0000       0.255109         6.9419 
 295   0.0000       0.257148         6.9973 
 296   0.0000       0.258952         7.0464 
 297   0.0000       0.260695         7.0939 
 298   0.0000       0.266495         7.2517 
 299   0.0000       0.268628         7.3098 
 300   0.0000       0.270260         7.3542 
 301   0.0000       0.272288         7.4093 
 302   0.0000       0.273429         7.4404 
 303   0.0000       0.273954         7.4547 
 304   0.0000       0.277296         7.5456 
 305   0.0000       0.281190         7.6516 
 306   0.0000       0.283804         7.7227 
 307   0.0000       0.285301         7.7634 
 308   0.0000       0.287117         7.8129 
 309   0.0000       0.288044         7.8381 
 310   0.0000       0.291754         7.9390 
 311   0.0000       0.294405         8.0112 
 312   0.0000       0.296660         8.0725 
 313   0.0000       0.298928         8.1343 
 314   0.0000       0.299694         8.1551 
 315   0.0000       0.301619         8.2075 
 316   0.0000       0.303432         8.2568 
 317   0.0000       0.306232         8.3330 
 318   0.0000       0.307280         8.3615 
 319   0.0000       0.308594         8.3973 
 320   0.0000       0.310657         8.4534 
 321   0.0000       0.312749         8.5103 
 322   0.0000       0.316919         8.6238 
 323   0.0000       0.318793         8.6748 
 324   0.0000       0.319718         8.7000 
 325   0.0000       0.322965         8.7883 
 326   0.0000       0.323429         8.8009 
 327   0.0000       0.326558         8.8861 
 328   0.0000       0.328360         8.9351 
 329   0.0000       0.329837         8.9753 
 330   0.0000       0.333236         9.0678 
 331   0.0000       0.335720         9.1354 
 332   0.0000       0.336818         9.1653 
 333   0.0000       0.337594         9.1864 
 334   0.0000       0.340776         9.2730 
 335   0.0000       0.341242         9.2857 
 336   0.0000       0.343614         9.3502 
 337   0.0000       0.349571         9.5123 
 338   0.0000       0.351769         9.5721 
 339   0.0000       0.352459         9.5909 
 340   0.0000       0.353800         9.6274 
 341   0.0000       0.354312         9.6413 
 342   0.0000       0.355855         9.6833 
 343   0.0000       0.358214         9.7475 
 344   0.0000       0.360368         9.8061 
 345   0.0000       0.363234         9.8841 
 346   0.0000       0.365609         9.9487 
 347   0.0000       0.366139         9.9632 
 348   0.0000       0.368402        10.0247 
 349   0.0000       0.371517        10.1095 
 350   0.0000       0.372120        10.1259 
 351   0.0000       0.375241        10.2108 
 352   0.0000       0.375406        10.2153 
 353   0.0000       0.376201        10.2369 
 354   0.0000       0.379524        10.3274 
 355   0.0000       0.379811        10.3352 
 356   0.0000       0.381541        10.3823 
 357   0.0000       0.383001        10.4220 
 358   0.0000       0.384233        10.4555 
 359   0.0000       0.389054        10.5867 
 360   0.0000       0.389535        10.5998 
 361   0.0000       0.392474        10.6797 
 362   0.0000       0.393616        10.7108 
 363   0.0000       0.397392        10.8136 
 364   0.0000       0.398374        10.8403 
 365   0.0000       0.401220        10.9177 
 366   0.0000       0.403434        10.9780 
 367   0.0000       0.405337        11.0298 
 368   0.0000       0.408832        11.1249 
 369   0.0000       0.410077        11.1588 
 370   0.0000       0.412290        11.2190 
 371   0.0000       0.415607        11.3093 
 372   0.0000       0.417933        11.3725 
 373   0.0000       0.421883        11.4800 
 374   0.0000       0.423765        11.5312 
 375   0.0000       0.426721        11.6117 
 376   0.0000       0.428195        11.6518 
 377   0.0000       0.429399        11.6845 
 378   0.0000       0.430748        11.7213 
 379   0.0000       0.432743        11.7755 
 380   0.0000       0.435035        11.8379 
 381   0.0000       0.437145        11.8953 
 382   0.0000       0.440188        11.9781 
 383   0.0000       0.443485        12.0679 
 384   0.0000       0.445362        12.1189 
 385   0.0000       0.446493        12.1497 
 386   0.0000       0.449013        12.2183 
 387   0.0000       0.450170        12.2498 
 388   0.0000       0.452869        12.3232 
 389   0.0000       0.453114        12.3299 
 390   0.0000       0.457689        12.4544 
 391   0.0000       0.458314        12.4714 
 392   0.0000       0.459773        12.5111 
 393   0.0000       0.463294        12.6069 
 394   0.0000       0.464894        12.6504 
 395   0.0000       0.466081        12.6827 
 396   0.0000       0.473820        12.8933 
 397   0.0000       0.474102        12.9010 
 398   0.0000       0.483586        13.1590 
 399   0.0000       0.484353        13.1799 
 400   0.0000       0.485451        13.2098 
 401   0.0000       0.487286        13.2597 
 402   0.0000       0.490839        13.3564 
 403   0.0000       0.494073        13.4444 
 404   0.0000       0.498585        13.5672 
 405   0.0000       0.499050        13.5798 
 406   0.0000       0.503501        13.7010 
 407   0.0000       0.505225        13.7479 
 408   0.0000       0.506789        13.7904 
 409   0.0000       0.507935        13.8216 
 410   0.0000       0.511203        13.9106 
 411   0.0000       0.512951        13.9581 
 412   0.0000       0.514599        14.0029 
 413   0.0000       0.518294        14.1035 
 414   0.0000       0.519656        14.1406 
 415   0.0000       0.527122        14.3437 
 416   0.0000       0.528009        14.3679 
 417   0.0000       0.530707        14.4413 
 418   0.0000       0.533934        14.5291 
 419   0.0000       0.534862        14.5543 
 420   0.0000       0.537524        14.6268 
 421   0.0000       0.541737        14.7414 
 422   0.0000       0.542497        14.7621 
 423   0.0000       0.545013        14.8305 
 424   0.0000       0.549215        14.9449 
 425   0.0000       0.551848        15.0165 
 426   0.0000       0.554369        15.0851 
 427   0.0000       0.561327        15.2745 
 428   0.0000       0.568157        15.4603 
 429   0.0000       0.569750        15.5037 
 430   0.0000       0.575075        15.6486 
 431   0.0000       0.575924        15.6717 
 432   0.0000       0.577582        15.7168 
 433   0.0000       0.582403        15.8480 
 434   0.0000       0.583286        15.8720 
 435   0.0000       0.588669        16.0185 
 436   0.0000       0.591638        16.0993 
 437   0.0000       0.594782        16.1849 
 438   0.0000       0.596581        16.2338 
 439   0.0000       0.599744        16.3199 
 440   0.0000       0.602709        16.4005 
 441   0.0000       0.604283        16.4434 
 442   0.0000       0.606152        16.4942 
 443   0.0000       0.609839        16.5946 
 444   0.0000       0.613432        16.6923 
 445   0.0000       0.615555        16.7501 
 446   0.0000       0.618384        16.8271 
 447   0.0000       0.619334        16.8529 
 448   0.0000       0.624103        16.9827 
 449   0.0000       0.625651        17.0248 
 450   0.0000       0.626893        17.0586 
 451   0.0000       0.630684        17.1618 
 452   0.0000       0.635290        17.2871 
 453   0.0000       0.636007        17.3066 
 454   0.0000       0.640247        17.4220 
 455   0.0000       0.640967        17.4416 
 456   0.0000       0.642385        17.4802 
 457   0.0000       0.646384        17.5890 
 458   0.0000       0.649115        17.6633 
 459   0.0000       0.650692        17.7062 
 460   0.0000       0.652137        17.7455 
 461   0.0000       0.652405        17.7528 
 462   0.0000       0.655643        17.8410 
 463   0.0000       0.658603        17.9215 
 464   0.0000       0.661317        17.9954 
 465   0.0000       0.663206        18.0468 
 466   0.0000       0.667346        18.1594 
 467   0.0000       0.668803        18.1991 
 468   0.0000       0.670409        18.2428 
 469   0.0000       0.672473        18.2989 
 470   0.0000       0.676438        18.4068 
 471   0.0000       0.679869        18.5002 
 472   0.0000       0.681830        18.5535 
 473   0.0000       0.682506        18.5719 
 474   0.0000       0.687647        18.7118 
 475   0.0000       0.690566        18.7913 
 476   0.0000       0.691222        18.8091 
 477   0.0000       0.695407        18.9230 
 478   0.0000       0.696667        18.9573 
 479   0.0000       0.699802        19.0426 
 480   0.0000       0.701785        19.0965 
 481   0.0000       0.705373        19.1942 
 482   0.0000       0.706816        19.2334 
 483   0.0000       0.712030        19.3753 
 484   0.0000       0.712801        19.3963 
 485   0.0000       0.714718        19.4485 
 486   0.0000       0.715771        19.4771 
 487   0.0000       0.718854        19.5610 
 488   0.0000       0.721157        19.6237 
 489   0.0000       0.723890        19.6980 
 490   0.0000       0.727732        19.8026 
 491   0.0000       0.730812        19.8864 
 492   0.0000       0.732895        19.9431 
 493   0.0000       0.737320        20.0635 
 494   0.0000       0.738334        20.0911 
 495   0.0000       0.744114        20.2484 
 496   0.0000       0.746357        20.3094 
 497   0.0000       0.748521        20.3683 
 498   0.0000       0.748920        20.3791 
 499   0.0000       0.751332        20.4448 
 500   0.0000       0.755071        20.5465 
 501   0.0000       0.759426        20.6650 
 502   0.0000       0.761509        20.7217 
 503   0.0000       0.763001        20.7623 
 504   0.0000       0.766509        20.8578 
 505   0.0000       0.767715        20.8906 
 506   0.0000       0.772976        21.0338 
 507   0.0000       0.775168        21.0934 
 508   0.0000       0.778875        21.1943 
 509   0.0000       0.780581        21.2407 
 510   0.0000       0.784183        21.3387 
 511   0.0000       0.788571        21.4581 
 512   0.0000       0.789576        21.4855 
 513   0.0000       0.792577        21.5671 
 514   0.0000       0.793933        21.6040 
 515   0.0000       0.797045        21.6887 
 516   0.0000       0.800743        21.7893 
 517   0.0000       0.804876        21.9018 
 518   0.0000       0.805487        21.9184 
 519   0.0000       0.809516        22.0281 
 520   0.0000       0.811966        22.0947 
 521   0.0000       0.814218        22.1560 
 522   0.0000       0.818994        22.2859 
 523   0.0000       0.821258        22.3476 
 524   0.0000       0.822766        22.3886 
 525   0.0000       0.823961        22.4211 
 526   0.0000       0.829181        22.5632 
 527   0.0000       0.829434        22.5700 
 528   0.0000       0.833029        22.6679 
 529   0.0000       0.836525        22.7630 
 530   0.0000       0.841228        22.8910 
 531   0.0000       0.847075        23.0501 
 532   0.0000       0.849854        23.1257 
 533   0.0000       0.852515        23.1981 
 534   0.0000       0.856501        23.3066 
 535   0.0000       0.859281        23.3822 
 536   0.0000       0.861986        23.4558 
 537   0.0000       0.864898        23.5351 
 538   0.0000       0.866402        23.5760 
 539   0.0000       0.869715        23.6661 
 540   0.0000       0.876197        23.8425 
 541   0.0000       0.880045        23.9473 
 542   0.0000       0.880542        23.9608 
 543   0.0000       0.884377        24.0651 
 544   0.0000       0.885334        24.0912 
 545   0.0000       0.889755        24.2115 
 546   0.0000       0.892070        24.2745 
 547   0.0000       0.895766        24.3750 
 548   0.0000       0.897239        24.4151 
 549   0.0000       0.902127        24.5481 
 550   0.0000       0.902979        24.5713 
 551   0.0000       0.908091        24.7104 
 552   0.0000       0.908700        24.7270 
 553   0.0000       0.911855        24.8128 
 554   0.0000       0.916255        24.9326 
 555   0.0000       0.921708        25.0809 
 556   0.0000       0.925518        25.1846 
 557   0.0000       0.929925        25.3045 
 558   0.0000       0.933905        25.4128 
 559   0.0000       0.935747        25.4630 
 560   0.0000       0.938949        25.5501 
 561   0.0000       0.944467        25.7002 
 562   0.0000       0.952164        25.9097 
 563   0.0000       0.957551        26.0563 
 564   0.0000       0.960363        26.1328 
 565   0.0000       0.963820        26.2269 
 566   0.0000       0.964691        26.2506 
 567   0.0000       0.967408        26.3245 
 568   0.0000       0.971171        26.4269 
 569   0.0000       0.976807        26.5803 
 570   0.0000       0.981465        26.7070 
 571   0.0000       0.987128        26.8611 
 572   0.0000       0.989288        26.9199 
 573   0.0000       0.996248        27.1093 
 574   0.0000       0.999467        27.1969 
 575   0.0000       1.002519        27.2799 
 576   0.0000       1.006408        27.3858 
 577   0.0000       1.009606        27.4728 
 578   0.0000       1.011182        27.5157 
 579   0.0000       1.018806        27.7231 
 580   0.0000       1.025282        27.8993 
 581   0.0000       1.026324        27.9277 
 582   0.0000       1.030061        28.0294 
 583   0.0000       1.034727        28.1564 
 584   0.0000       1.038330        28.2544 
 585   0.0000       1.041852        28.3502 
 586   0.0000       1.045278        28.4435 
 587   0.0000       1.051444        28.6113 
 588   0.0000       1.052876        28.6502 
 589   0.0000       1.054423        28.6923 
 590   0.0000       1.056225        28.7414 
 591   0.0000       1.064567        28.9683 
 592   0.0000       1.067906        29.0592 
 593   0.0000       1.074325        29.2339 
 594   0.0000       1.076756        29.3000 
 595   0.0000       1.081631        29.4327 
 596   0.0000       1.082743        29.4629 
 597   0.0000       1.091767        29.7085 
 598   0.0000       1.094689        29.7880 
 599   0.0000       1.101284        29.9675 
 600   0.0000       1.106203        30.1013 
 601   0.0000       1.111919        30.2568 
 602   0.0000       1.115764        30.3615 
 603   0.0000       1.118082        30.4245 
 604   0.0000       1.120518        30.4908 
 605   0.0000       1.125213        30.6186 
 606   0.0000       1.129228        30.7278 
 607   0.0000       1.131391        30.7867 
 608   0.0000       1.138054        30.9680 
 609   0.0000       1.141757        31.0688 
 610   0.0000       1.143125        31.1060 
 611   0.0000       1.145650        31.1747 
 612   0.0000       1.150575        31.3087 
 613   0.0000       1.152319        31.3562 
 614   0.0000       1.153597        31.3910 
 615   0.0000       1.158684        31.5294 
 616   0.0000       1.162702        31.6387 
 617   0.0000       1.164342        31.6834 
 618   0.0000       1.172356        31.9014 
 619   0.0000       1.175770        31.9943 
 620   0.0000       1.178935        32.0804 
 621   0.0000       1.180768        32.1303 
 622   0.0000       1.184658        32.2362 
 623   0.0000       1.185315        32.2541 
 624   0.0000       1.194134        32.4940 
 625   0.0000       1.196424        32.5564 
 626   0.0000       1.197224        32.5781 
 627   0.0000       1.200062        32.6554 
 628   0.0000       1.205516        32.8038 
 629   0.0000       1.208746        32.8916 
 630   0.0000       1.211356        32.9627 
 631   0.0000       1.212950        33.0061 
 632   0.0000       1.217637        33.1336 
 633   0.0000       1.220272        33.2053 
 634   0.0000       1.224218        33.3127 
 635   0.0000       1.227863        33.4118 
 636   0.0000       1.228763        33.4363 
 637   0.0000       1.236107        33.6362 
 638   0.0000       1.236346        33.6427 
 639   0.0000       1.240569        33.7576 
 640   0.0000       1.242641        33.8140 
 641   0.0000       1.247359        33.9424 
 642   0.0000       1.252352        34.0782 
 643   0.0000       1.257678        34.2232 
 644   0.0000       1.260062        34.2880 
 645   0.0000       1.262874        34.3645 
 646   0.0000       1.264839        34.4180 
 647   0.0000       1.268464        34.5167 
 648   0.0000       1.269960        34.5574 
 649   0.0000       1.271807        34.6076 
 650   0.0000       1.274580        34.6831 
 651   0.0000       1.276173        34.7264 
 652   0.0000       1.279323        34.8121 
 653   0.0000       1.281817        34.8800 
 654   0.0000       1.289370        35.0855 
 655   0.0000       1.292572        35.1727 
 656   0.0000       1.296979        35.2926 
 657   0.0000       1.298287        35.3282 
 658   0.0000       1.301164        35.4065 
 659   0.0000       1.302586        35.4452 
 660   0.0000       1.309742        35.6399 
 661   0.0000       1.313879        35.7525 
 662   0.0000       1.320728        35.9388 
 663   0.0000       1.323126        36.0041 
 664   0.0000       1.325606        36.0716 
 665   0.0000       1.331064        36.2201 
 666   0.0000       1.337805        36.4035 
 667   0.0000       1.342789        36.5391 
 668   0.0000       1.345416        36.6106 
 669   0.0000       1.348831        36.7036 
 670   0.0000       1.351560        36.7778 
 671   0.0000       1.352922        36.8149 
 672   0.0000       1.360565        37.0228 
 673   0.0000       1.362748        37.0823 
 674   0.0000       1.367015        37.1984 
 675   0.0000       1.369725        37.2721 
 676   0.0000       1.371906        37.3315 
 677   0.0000       1.372992        37.3610 
 678   0.0000       1.378152        37.5014 
 679   0.0000       1.380658        37.5696 
 680   0.0000       1.385445        37.6999 
 681   0.0000       1.388536        37.7840 
 682   0.0000       1.391471        37.8639 
 683   0.0000       1.396547        38.0020 
 684   0.0000       1.396754        38.0076 
 685   0.0000       1.400074        38.0980 
 686   0.0000       1.404476        38.2177 
 687   0.0000       1.408958        38.3397 
 688   0.0000       1.412083        38.4247 
 689   0.0000       1.414698        38.4959 
 690   0.0000       1.416776        38.5524 
 691   0.0000       1.419823        38.6353 
 692   0.0000       1.425309        38.7846 
 693   0.0000       1.429064        38.8868 
 694   0.0000       1.429108        38.8880 
 695   0.0000       1.438477        39.1429 
 696   0.0000       1.440215        39.1902 
 697   0.0000       1.443094        39.2686 
 698   0.0000       1.446739        39.3678 
 699   0.0000       1.448424        39.4136 
 700   0.0000       1.452305        39.5192 
 701   0.0000       1.457177        39.6518 
 702   0.0000       1.461061        39.7575 
 703   0.0000       1.466762        39.9126 
 704   0.0000       1.467726        39.9388 
 705   0.0000       1.469942        39.9991 
 706   0.0000       1.472582        40.0710 
 707   0.0000       1.476873        40.1878 
 708   0.0000       1.478726        40.2382 
 709   0.0000       1.480090        40.2753 
 710   0.0000       1.484110        40.3847 
 711   0.0000       1.488641        40.5080 
 712   0.0000       1.490602        40.5613 
 713   0.0000       1.493022        40.6272 
 714   0.0000       1.496488        40.7215 
 715   0.0000       1.498909        40.7874 
 716   0.0000       1.500383        40.8275 
 717   0.0000       1.502356        40.8812 
 718   0.0000       1.506712        40.9997 
 719   0.0000       1.509055        41.0635 
 720   0.0000       1.515630        41.2424 
 721   0.0000       1.517724        41.2994 
 722   0.0000       1.523871        41.4666 
 723   0.0000       1.526602        41.5409 
 724   0.0000       1.528087        41.5814 
 725   0.0000       1.530752        41.6539 
 726   0.0000       1.531264        41.6678 
 727   0.0000       1.534689        41.7610 
 728   0.0000       1.535511        41.7834 
 729   0.0000       1.541468        41.9455 
 730   0.0000       1.543320        41.9959 
 731   0.0000       1.546121        42.0721 
 732   0.0000       1.547223        42.1021 
 733   0.0000       1.549254        42.1573 
 734   0.0000       1.557184        42.3731 
 735   0.0000       1.562489        42.5175 
 736   0.0000       1.564479        42.5716 
 737   0.0000       1.566724        42.6327 
 738   0.0000       1.569211        42.7004 
 739   0.0000       1.570990        42.7488 
 740   0.0000       1.573169        42.8081 
 741   0.0000       1.575287        42.8657 
 742   0.0000       1.580595        43.0102 
 743   0.0000       1.585762        43.1508 
 744   0.0000       1.589519        43.2530 
 745   0.0000       1.594093        43.3775 
 746   0.0000       1.595488        43.4154 
 747   0.0000       1.597622        43.4735 
 748   0.0000       1.601925        43.5906 
 749   0.0000       1.603684        43.6385 
 750   0.0000       1.605503        43.6879 
 751   0.0000       1.610904        43.8349 
 752   0.0000       1.613768        43.9129 
 753   0.0000       1.614896        43.9436 
 754   0.0000       1.618203        44.0335 
 755   0.0000       1.621803        44.1315 
 756   0.0000       1.624127        44.1947 
 757   0.0000       1.633125        44.4396 
 758   0.0000       1.635238        44.4971 
 759   0.0000       1.637930        44.5703 
 760   0.0000       1.640518        44.6408 
 761   0.0000       1.643841        44.7312 
 762   0.0000       1.644901        44.7600 
 763   0.0000       1.646507        44.8037 
 764   0.0000       1.649549        44.8865 
 765   0.0000       1.651182        44.9309 
 766   0.0000       1.654048        45.0089 
 767   0.0000       1.655973        45.0613 
 768   0.0000       1.657437        45.1012 
 769   0.0000       1.660192        45.1761 
 770   0.0000       1.660610        45.1875 
 771   0.0000       1.664048        45.2810 
 772   0.0000       1.666049        45.3355 
 773   0.0000       1.668056        45.3901 
 774   0.0000       1.672547        45.5123 
 775   0.0000       1.677497        45.6470 
 776   0.0000       1.680415        45.7264 
 777   0.0000       1.685915        45.8761 
 778   0.0000       1.691591        46.0305 
 779   0.0000       1.694222        46.1021 
 780   0.0000       1.697146        46.1817 
 781   0.0000       1.701404        46.2976 
 782   0.0000       1.704168        46.3728 
 783   0.0000       1.706471        46.4354 
 784   0.0000       1.712754        46.6064 
 785   0.0000       1.716113        46.6978 
 786   0.0000       1.718732        46.7691 
 787   0.0000       1.720843        46.8265 
 788   0.0000       1.723412        46.8964 
 789   0.0000       1.725863        46.9631 
 790   0.0000       1.730277        47.0832 
 791   0.0000       1.732844        47.1531 
 792   0.0000       1.736128        47.2424 
 793   0.0000       1.738719        47.3129 
 794   0.0000       1.746780        47.5323 
 795   0.0000       1.750362        47.6298 
 796   0.0000       1.751050        47.6485 
 797   0.0000       1.753217        47.7075 
 798   0.0000       1.755004        47.7561 
 799   0.0000       1.758782        47.8589 
 800   0.0000       1.765852        48.0513 
 801   0.0000       1.768798        48.1315 
 802   0.0000       1.769753        48.1574 
 803   0.0000       1.777612        48.3713 
 804   0.0000       1.778707        48.4011 
 805   0.0000       1.781695        48.4824 
 806   0.0000       1.787413        48.6380 
 807   0.0000       1.792090        48.7652 
 808   0.0000       1.793129        48.7935 
 809   0.0000       1.794307        48.8256 
 810   0.0000       1.799649        48.9709 
 811   0.0000       1.799891        48.9775 
 812   0.0000       1.805598        49.1328 
 813   0.0000       1.811695        49.2987 
 814   0.0000       1.818369        49.4803 
 815   0.0000       1.820175        49.5295 
 816   0.0000       1.820783        49.5460 
 817   0.0000       1.826555        49.7031 
 818   0.0000       1.835044        49.9341 
 819   0.0000       1.841930        50.1215 
 820   0.0000       1.847113        50.2625 
 821   0.0000       1.850024        50.3417 
 822   0.0000       1.851748        50.3886 
 823   0.0000       1.853732        50.4426 
 824   0.0000       1.860378        50.6235 
 825   0.0000       1.866615        50.7932 
 826   0.0000       1.867237        50.8101 
 827   0.0000       1.870796        50.9070 
 828   0.0000       1.875314        51.0299 
 829   0.0000       1.878908        51.1277 
 830   0.0000       1.882450        51.2241 
 831   0.0000       1.885464        51.3061 
 832   0.0000       1.888321        51.3838 
 833   0.0000       1.892247        51.4906 
 834   0.0000       1.895058        51.5672 
 835   0.0000       1.896875        51.6166 
 836   0.0000       1.905330        51.8467 
 837   0.0000       1.909785        51.9679 
 838   0.0000       1.915492        52.1232 
 839   0.0000       1.917771        52.1852 
 840   0.0000       1.921433        52.2849 
 841   0.0000       1.922102        52.3031 
 842   0.0000       1.926037        52.4101 
 843   0.0000       1.929107        52.4937 
 844   0.0000       1.938737        52.7557 
 845   0.0000       1.942095        52.8471 
 846   0.0000       1.950330        53.0712 
 847   0.0000       1.952180        53.1215 
 848   0.0000       1.956106        53.2283 
 849   0.0000       1.958627        53.2970 
 850   0.0000       1.966681        53.5161 
 851   0.0000       1.969802        53.6010 
 852   0.0000       1.979541        53.8661 
 853   0.0000       1.984960        54.0135 
 854   0.0000       1.987755        54.0896 
 855   0.0000       1.992847        54.2281 
 856   0.0000       1.995582        54.3025 
 857   0.0000       2.001030        54.4508 
 858   0.0000       2.009295        54.6757 
 859   0.0000       2.011924        54.7472 
 860   0.0000       2.017144        54.8893 
 861   0.0000       2.020999        54.9942 
 862   0.0000       2.023706        55.0678 
 863   0.0000       2.031092        55.2688 
 864   0.0000       2.037432        55.4413 
 865   0.0000       2.039062        55.4857 
 866   0.0000       2.044810        55.6421 
 867   0.0000       2.046262        55.6816 
 868   0.0000       2.049247        55.7628 
 869   0.0000       2.050891        55.8076 
 870   0.0000       2.054572        55.9077 
 871   0.0000       2.060532        56.0699 
 872   0.0000       2.062357        56.1196 
 873   0.0000       2.065031        56.1924 
 874   0.0000       2.067024        56.2466 
 875   0.0000       2.071488        56.3681 
 876   0.0000       2.075303        56.4719 
 877   0.0000       2.079473        56.5853 
 878   0.0000       2.086522        56.7772 
 879   0.0000       2.090058        56.8734 
 880   0.0000       2.092746        56.9465 
 881   0.0000       2.096441        57.0471 
 882   0.0000       2.097893        57.0866 
 883   0.0000       2.100690        57.1627 
 884   0.0000       2.107698        57.3534 
 885   0.0000       2.109684        57.4074 
 886   0.0000       2.115131        57.5556 
 887   0.0000       2.118248        57.6405 
 888   0.0000       2.120038        57.6892 
 889   0.0000       2.126053        57.8528 
 890   0.0000       2.127645        57.8962 
 891   0.0000       2.131469        58.0002 
 892   0.0000       2.135489        58.1096 
 893   0.0000       2.141267        58.2668 
 894   0.0000       2.142605        58.3032 
 895   0.0000       2.147584        58.4387 
 896   0.0000       2.152651        58.5766 
 897   0.0000       2.157355        58.7046 
 898   0.0000       2.159867        58.7730 
 899   0.0000       2.164180        58.8903 
 900   0.0000       2.168519        59.0084 
 901   0.0000       2.173578        59.1461 
 902   0.0000       2.174651        59.1753 
 903   0.0000       2.177747        59.2595 
 904   0.0000       2.181234        59.3544 
 905   0.0000       2.185170        59.4615 
 906   0.0000       2.186176        59.4889 
 907   0.0000       2.188737        59.5586 
 908   0.0000       2.194676        59.7202 
 909   0.0000       2.196844        59.7792 
 910   0.0000       2.202865        59.9430 
 911   0.0000       2.204029        59.9747 
 912   0.0000       2.207329        60.0645 
 913   0.0000       2.211929        60.1896 
 914   0.0000       2.213850        60.2419 
 915   0.0000       2.220619        60.4261 
 916   0.0000       2.226226        60.5787 
 917   0.0000       2.232119        60.7390 
 918   0.0000       2.237399        60.8827 
 919   0.0000       2.238332        60.9081 
 920   0.0000       2.245803        61.1114 
 921   0.0000       2.248501        61.1848 
 922   0.0000       2.260404        61.5087 
 923   0.0000       2.263370        61.5894 
 924   0.0000       2.269473        61.7555 
 925   0.0000       2.270359        61.7796 
 926   0.0000       2.276461        61.9457 
 927   0.0000       2.280248        62.0487 
 928   0.0000       2.286169        62.2098 
 929   0.0000       2.299122        62.5623 
 930   0.0000       2.300103        62.5890 
 931   0.0000       2.305371        62.7323 
 932   0.0000       2.310226        62.8644 
 933   0.0000       2.313479        62.9530 
 934   0.0000       2.316359        63.0313 
 935   0.0000       2.324500        63.2529 
 936   0.0000       2.332449        63.4692 
 937   0.0000       2.346788        63.8593 
 938   0.0000       2.357013        64.1376 
 939   0.0000       2.360348        64.2283 
 940   0.0000       2.367960        64.4355 
 941   0.0000       2.371588        64.5342 
 942   0.0000       2.379163        64.7403 
 943   0.0000       2.386659        64.9443 
 944   0.0000       2.391322        65.0712 
 945   0.0000       2.396720        65.2181 
 946   0.0000       2.398296        65.2610 
 947   0.0000       2.409357        65.5619 
 948   0.0000       2.411333        65.6157 
 949   0.0000       2.418924        65.8223 
 950   0.0000       2.424483        65.9735 
 951   0.0000       2.426079        66.0170 
 952   0.0000       2.433267        66.2126 
 953   0.0000       2.434619        66.2494 
 954   0.0000       2.442516        66.4642 
 955   0.0000       2.445211        66.5376 
 956   0.0000       2.453859        66.7729 
 957   0.0000       2.458252        66.8924 
 958   0.0000       2.460257        66.9470 
 959   0.0000       2.471732        67.2593 
 960   0.0000       2.474297        67.3291 
 961   0.0000       2.483486        67.5791 
 962   0.0000       2.488760        67.7226 
 963   0.0000       2.495369        67.9024 
 964   0.0000       2.498588        67.9900 
 965   0.0000       2.501669        68.0739 
 966   0.0000       2.506241        68.1983 
 967   0.0000       2.508206        68.2518 
 968   0.0000       2.519161        68.5499 
 969   0.0000       2.520883        68.5967 
 970   0.0000       2.527651        68.7809 
 971   0.0000       2.533605        68.9429 
 972   0.0000       2.536804        69.0300 
 973   0.0000       2.539966        69.1160 
 974   0.0000       2.545585        69.2689 
 975   0.0000       2.546764        69.3010 
 976   0.0000       2.550108        69.3920 
 977   0.0000       2.554471        69.5107 
 978   0.0000       2.557440        69.5915 
 979   0.0000       2.563980        69.7694 
 980   0.0000       2.567322        69.8604 
 981   0.0000       2.568857        69.9021 
 982   0.0000       2.577153        70.1279 
 983   0.0000       2.581948        70.2584 
 984   0.0000       2.585509        70.3553 
 985   0.0000       2.592667        70.5501 
 986   0.0000       2.596657        70.6586 
 987   0.0000       2.598480        70.7082 
 988   0.0000       2.604047        70.8597 
 989   0.0000       2.609552        71.0095 
 990   0.0000       2.612258        71.0832 
 991   0.0000       2.613365        71.1133 
 992   0.0000       2.616080        71.1872 
 993   0.0000       2.620870        71.3175 
 994   0.0000       2.626274        71.4645 
 995   0.0000       2.628174        71.5163 
 996   0.0000       2.629528        71.5531 
 997   0.0000       2.632401        71.6313 
 998   0.0000       2.633840        71.6704 
 999   0.0000       2.636083        71.7315 
 1000   0.0000       2.636830        71.7518 
 1001   0.0000       2.640122        71.8414 
 1002   0.0000       2.648084        72.0580 
 1003   0.0000       2.648472        72.0686 
 1004   0.0000       2.651318        72.1460 
 1005   0.0000       2.654625        72.2360 
 1006   0.0000       2.655063        72.2479 
 1007   0.0000       2.657569        72.3161 
 1008   0.0000       2.662633        72.4539 
 1009   0.0000       2.666890        72.5698 
 1010   0.0000       2.669821        72.6495 
 1011   0.0000       2.673644        72.7535 
 1012   0.0000       2.675812        72.8125 
 1013   0.0000       2.677424        72.8564 
 1014   0.0000       2.678198        72.8775 
 1015   0.0000       2.682003        72.9810 
 1016   0.0000       2.685559        73.0778 
 1017   0.0000       2.687941        73.1426 
 1018   0.0000       2.690493        73.2120 
 1019   0.0000       2.694259        73.3145 
 1020   0.0000       2.697739        73.4092 
 1021   0.0000       2.700695        73.4897 
 1022   0.0000       2.701739        73.5180 
 1023   0.0000       2.706520        73.6482 
 1024   0.0000       2.708219        73.6944 
 1025   0.0000       2.709765        73.7364 
 1026   0.0000       2.715228        73.8851 
 1027   0.0000       2.716512        73.9201 
 1028   0.0000       2.718699        73.9796 
 1029   0.0000       2.719536        74.0023 
 1030   0.0000       2.721447        74.0543 
 1031   0.0000       2.721644        74.0597 
 1032   0.0000       2.724482        74.1369 
 1033   0.0000       2.726273        74.1857 
 1034   0.0000       2.727235        74.2118 
 1035   0.0000       2.729875        74.2837 
 1036   0.0000       2.733473        74.3816 
 1037   0.0000       2.735702        74.4422 
 1038   0.0000       2.740219        74.5652 
 1039   0.0000       2.743381        74.6512 
 1040   0.0000       2.746604        74.7389 
 1041   0.0000       2.750642        74.8488 
 1042   0.0000       2.755402        74.9783 
 1043   0.0000       2.757580        75.0376 
 1044   0.0000       2.760652        75.1212 
 1045   0.0000       2.765402        75.2504 
 1046   0.0000       2.767442        75.3059 
 1047   0.0000       2.772293        75.4379 
 1048   0.0000       2.774641        75.5018 
 1049   0.0000       2.778334        75.6023 
 1050   0.0000       2.780717        75.6671 
 1051   0.0000       2.783551        75.7443 
 1052   0.0000       2.785005        75.7839 
 1053   0.0000       2.788084        75.8676 
 1054   0.0000       2.788774        75.8864 
 1055   0.0000       2.790238        75.9262 
 1056   0.0000       2.793350        76.0109 
 1057   0.0000       2.797130        76.1138 
 1058   0.0000       2.797998        76.1374 
 1059   0.0000       2.801724        76.2388 
 1060   0.0000       2.804782        76.3220 
 1061   0.0000       2.804957        76.3268 
 1062   0.0000       2.806671        76.3734 
 1063   0.0000       2.809802        76.4586 
 1064   0.0000       2.811631        76.5084 
 1065   0.0000       2.815243        76.6066 
 1066   0.0000       2.819207        76.7145 
 1067   0.0000       2.822784        76.8119 
 1068   0.0000       2.827142        76.9304 
 1069   0.0000       2.833150        77.0939 
 1070   0.0000       2.836375        77.1817 
 1071   0.0000       2.837133        77.2023 
 1072   0.0000       2.840102        77.2831 
 1073   0.0000       2.843763        77.3827 
 1074   0.0000       2.846448        77.4558 
 1075   0.0000       2.849247        77.5320 
 1076   0.0000       2.852564        77.6222 
 1077   0.0000       2.855735        77.7085 
 1078   0.0000       2.859465        77.8100 
 1079   0.0000       2.866304        77.9961 
 1080   0.0000       2.869635        78.0868 
 1081   0.0000       2.872559        78.1663 
 1082   0.0000       2.876223        78.2660 
 1083   0.0000       2.876865        78.2835 
 1084   0.0000       2.880735        78.3888 
 1085   0.0000       2.882335        78.4323 
 1086   0.0000       2.885296        78.5129 
 1087   0.0000       2.886746        78.5523 
 1088   0.0000       2.891374        78.6783 
 1089   0.0000       2.893386        78.7330 
 1090   0.0000       2.898336        78.8677 
 1091   0.0000       2.899733        78.9057 
 1092   0.0000       2.900772        78.9340 
 1093   0.0000       2.906114        79.0794 
 1094   0.0000       2.907119        79.1067 
 1095   0.0000       2.910930        79.2104 
 1096   0.0000       2.914617        79.3108 
 1097   0.0000       2.923724        79.5586 
 1098   0.0000       2.924788        79.5875 
 1099   0.0000       2.927279        79.6553 
 1100   0.0000       2.929561        79.7174 
 1101   0.0000       2.931767        79.7774 
 1102   0.0000       2.937797        79.9415 
 1103   0.0000       2.939279        79.9819 
 1104   0.0000       2.945574        80.1531 
 1105   0.0000       2.947447        80.2041 
 1106   0.0000       2.953155        80.3594 
 1107   0.0000       2.954636        80.3997 
 1108   0.0000       2.954903        80.4070 
 1109   0.0000       2.959163        80.5229 
 1110   0.0000       2.960856        80.5690 
 1111   0.0000       2.964142        80.6584 
 1112   0.0000       2.968125        80.7668 
 1113   0.0000       2.969431        80.8023 
 1114   0.0000       2.972020        80.8728 
 1115   0.0000       2.978381        81.0459 
 1116   0.0000       2.979956        81.0887 
 1117   0.0000       2.992909        81.4412 
 1118   0.0000       2.994251        81.4777 
 1119   0.0000       2.998653        81.5975 
 1120   0.0000       3.004481        81.7561 
 1121   0.0000       3.006294        81.8054 
 1122   0.0000       3.009333        81.8881 
 1123   0.0000       3.011832        81.9561 
 1124   0.0000       3.019906        82.1758 
 1125   0.0000       3.023172        82.2647 
 1126   0.0000       3.025700        82.3335 
 1127   0.0000       3.030082        82.4527 
 1128   0.0000       3.031227        82.4839 
 1129   0.0000       3.031687        82.4964 
 1130   0.0000       3.035940        82.6121 
 1131   0.0000       3.040080        82.7248 
 1132   0.0000       3.044438        82.8434 
 1133   0.0000       3.049466        82.9802 
 1134   0.0000       3.052053        83.0506 
 1135   0.0000       3.053745        83.0966 
 1136   0.0000       3.056242        83.1646 
 1137   0.0000       3.057476        83.1982 
 1138   0.0000       3.063303        83.3567 
 1139   0.0000       3.064688        83.3944 
 1140   0.0000       3.068729        83.5044 
 1141   0.0000       3.071956        83.5922 
 1142   0.0000       3.080104        83.8139 
 1143   0.0000       3.084444        83.9320 
 1144   0.0000       3.086397        83.9851 
 1145   0.0000       3.092884        84.1617 
 1146   0.0000       3.094685        84.2107 
 1147   0.0000       3.096096        84.2490 
 1148   0.0000       3.098458        84.3133 
 1149   0.0000       3.101636        84.3998 
 1150   0.0000       3.104578        84.4799 
 1151   0.0000       3.105351        84.5009 
 1152   0.0000       3.106314        84.5271 
 1153   0.0000       3.108901        84.5975 
 1154   0.0000       3.119073        84.8743 
 1155   0.0000       3.121203        84.9322 
 1156   0.0000       3.124585        85.0243 
 1157   0.0000       3.126541        85.0775 
 1158   0.0000       3.130458        85.1841 
 1159   0.0000       3.133727        85.2730 
 1160   0.0000       3.136540        85.3496 
 1161   0.0000       3.140930        85.4690 
 1162   0.0000       3.142734        85.5181 
 1163   0.0000       3.144397        85.5634 
 1164   0.0000       3.146725        85.6268 
 1165   0.0000       3.147342        85.6435 
 1166   0.0000       3.152026        85.7710 
 1167   0.0000       3.153811        85.8196 
 1168   0.0000       3.157666        85.9244 
 1169   0.0000       3.160894        86.0123 
 1170   0.0000       3.165067        86.1259 
 1171   0.0000       3.168024        86.2063 
 1172   0.0000       3.171300        86.2955 
 1173   0.0000       3.172832        86.3371 
 1174   0.0000       3.178036        86.4788 
 1175   0.0000       3.179923        86.5301 
 1176   0.0000       3.182427        86.5982 
 1177   0.0000       3.187088        86.7251 
 1178   0.0000       3.190445        86.8164 
 1179   0.0000       3.191542        86.8463 
 1180   0.0000       3.195765        86.9612 
 1181   0.0000       3.197145        86.9987 
 1182   0.0000       3.201747        87.1240 
 1183   0.0000       3.206503        87.2534 
 1184   0.0000       3.209723        87.3410 
 1185   0.0000       3.212925        87.4281 
 1186   0.0000       3.214481        87.4705 
 1187   0.0000       3.219607        87.6100 
 1188   0.0000       3.222441        87.6871 
 1189   0.0000       3.224263        87.7367 
 1190   0.0000       3.227830        87.8337 
 1191   0.0000       3.231900        87.9445 
 1192   0.0000       3.234243        88.0082 
 1193   0.0000       3.235018        88.0293 
 1194   0.0000       3.238242        88.1170 
 1195   0.0000       3.240226        88.1710 
 1196   0.0000       3.241620        88.2090 
 1197   0.0000       3.246326        88.3370 
 1198   0.0000       3.248217        88.3885 
 1199   0.0000       3.255513        88.5870 
 1200   0.0000       3.263138        88.7945 
 1201   0.0000       3.266548        88.8873 
 1202   0.0000       3.273413        89.0741 
 1203   0.0000       3.279186        89.2312 
 1204   0.0000       3.281542        89.2953 
 1205   0.0000       3.287056        89.4453 
 1206   0.0000       3.289369        89.5083 
 1207   0.0000       3.293447        89.6193 
 1208   0.0000       3.293990        89.6340 
 1209   0.0000       3.294684        89.6529 
 1210   0.0000       3.300718        89.8171 
 1211   0.0000       3.303464        89.8918 
 1212   0.0000       3.305049        89.9350 
 1213   0.0000       3.306257        89.9678 
 1214   0.0000       3.308997        90.0424 
 1215   0.0000       3.310128        90.0732 
 1216   0.0000       3.314497        90.1920 
 1217   0.0000       3.316938        90.2585 
 1218   0.0000       3.318328        90.2963 
 1219   0.0000       3.321291        90.3769 
 1220   0.0000       3.325257        90.4849 
 1221   0.0000       3.327332        90.5413 
 1222   0.0000       3.328226        90.5656 
 1223   0.0000       3.328730        90.5794 
 1224   0.0000       3.332108        90.6713 
 1225   0.0000       3.334523        90.7370 
 1226   0.0000       3.337536        90.8190 
 1227   0.0000       3.344745        91.0151 
 1228   0.0000       3.347871        91.1002 
 1229   0.0000       3.350673        91.1765 
 1230   0.0000       3.351209        91.1910 
 1231   0.0000       3.356189        91.3265 
 1232   0.0000       3.357592        91.3647 
 1233   0.0000       3.358692        91.3947 
 1234   0.0000       3.364824        91.5615 
 1235   0.0000       3.369421        91.6866 
 1236   0.0000       3.371314        91.7381 
 1237   0.0000       3.373685        91.8026 
 1238   0.0000       3.376694        91.8845 
 1239   0.0000       3.380240        91.9810 
 1240   0.0000       3.381843        92.0246 
 1241   0.0000       3.383224        92.0622 
 1242   0.0000       3.386269        92.1451 
 1243   0.0000       3.388782        92.2134 
 1244   0.0000       3.391051        92.2752 
 1245   0.0000       3.396252        92.4167 
 1246   0.0000       3.398488        92.4776 
 1247   0.0000       3.401467        92.5586 
 1248   0.0000       3.404580        92.6433 
 1249   0.0000       3.406295        92.6900 
 1250   0.0000       3.409344        92.7730 
 1251   0.0000       3.410146        92.7948 
 1252   0.0000       3.412077        92.8473 
 1253   0.0000       3.416134        92.9577 
 1254   0.0000       3.420570        93.0784 
 1255   0.0000       3.423673        93.1629 
 1256   0.0000       3.426215        93.2321 
 1257   0.0000       3.430278        93.3426 
 1258   0.0000       3.431206        93.3679 
 1259   0.0000       3.433715        93.4361 
 1260   0.0000       3.436590        93.5144 
 1261   0.0000       3.443388        93.6993 
 1262   0.0000       3.445001        93.7432 
 1263   0.0000       3.448085        93.8272 
 1264   0.0000       3.455856        94.0386 
 1265   0.0000       3.459764        94.1450 
 1266   0.0000       3.464989        94.2872 
 1267   0.0000       3.465474        94.3004 
 1268   0.0000       3.468064        94.3708 
 1269   0.0000       3.469976        94.4228 
 1270   0.0000       3.472162        94.4823 
 1271   0.0000       3.474202        94.5378 
 1272   0.0000       3.475532        94.5740 
 1273   0.0000       3.479667        94.6866 
 1274   0.0000       3.480747        94.7159 
 1275   0.0000       3.485894        94.8560 
 1276   0.0000       3.491019        94.9955 
 1277   0.0000       3.493693        95.0682 
 1278   0.0000       3.495891        95.1280 
 1279   0.0000       3.497095        95.1608 
 1280   0.0000       3.498304        95.1937 
 1281   0.0000       3.503694        95.3403 
 1282   0.0000       3.507635        95.4476 
 1283   0.0000       3.508890        95.4817 
 1284   0.0000       3.509984        95.5115 
 1285   0.0000       3.512858        95.5897 
 1286   0.0000       3.515030        95.6488 
 1287   0.0000       3.516828        95.6978 
 1288   0.0000       3.518584        95.7455 
 1289   0.0000       3.520863        95.8076 
 1290   0.0000       3.528481        96.0148 
 1291   0.0000       3.532267        96.1179 
 1292   0.0000       3.534718        96.1846 
 1293   0.0000       3.536858        96.2428 
 1294   0.0000       3.540473        96.3412 
 1295   0.0000       3.542987        96.4096 
 1296   0.0000       3.546428        96.5032 
 1297   0.0000       3.549021        96.5738 
 1298   0.0000       3.556303        96.7719 
 1299   0.0000       3.558395        96.8289 
 1300   0.0000       3.563736        96.9742 
 1301   0.0000       3.568004        97.0903 
 1302   0.0000       3.572939        97.2246 
 1303   0.0000       3.578981        97.3890 
 1304   0.0000       3.580383        97.4272 
 1305   0.0000       3.583911        97.5232 
 1306   0.0000       3.589360        97.6714 
 1307   0.0000       3.591440        97.7280 
 1308   0.0000       3.593391        97.7811 
 1309   0.0000       3.599513        97.9477 
 1310   0.0000       3.600845        97.9840 
 1311   0.0000       3.604857        98.0932 
 1312   0.0000       3.608983        98.2054 
 1313   0.0000       3.613177        98.3195 
 1314   0.0000       3.618397        98.4616 
 1315   0.0000       3.618753        98.4713 
 1316   0.0000       3.625723        98.6610 
 1317   0.0000       3.630733        98.7973 
 1318   0.0000       3.638881        99.0190 
 1319   0.0000       3.641796        99.0983 
 1320   0.0000       3.643048        99.1324 
 1321   0.0000       3.648630        99.2843 
 1322   0.0000       3.649895        99.3187 
 1323   0.0000       3.654432        99.4421 
 1324   0.0000       3.663962        99.7015 
 1325   0.0000       3.666842        99.7798 
 1326   0.0000       3.675383       100.0123 
 1327   0.0000       3.681633       100.1823 
 1328   0.0000       3.684058       100.2483 
 1329   0.0000       3.687771       100.3493 
 1330   0.0000       3.690760       100.4307 
 1331   0.0000       3.702899       100.7610 
 1332   0.0000       3.704839       100.8138 
 1333   0.0000       3.709528       100.9414 
 1334   0.0000       3.718429       101.1836 
 1335   0.0000       3.736053       101.6632 
 1336   0.0000       3.745335       101.9157 
 1337   0.0000       3.746175       101.9386 
 1338   0.0000       3.753148       102.1284 
 1339   0.0000       3.753367       102.1343 
 1340   0.0000       3.759302       102.2958 
 1341   0.0000       3.781909       102.9110 
 1342   0.0000       3.787649       103.0672 
 1343   0.0000       3.797708       103.3409 
 1344   0.0000       3.807453       103.6061 
 1345   0.0000       3.812117       103.7330 
 1346   0.0000       3.818792       103.9146 
 1347   0.0000       3.825895       104.1079 
 1348   0.0000       3.832264       104.2812 
 1349   0.0000       3.835787       104.3771 
 1350   0.0000       3.841253       104.5258 
 1351   0.0000       3.848536       104.7240 
 1352   0.0000       3.852217       104.8242 
 1353   0.0000       3.860416       105.0473 
 1354   0.0000       3.861716       105.0826 
 1355   0.0000       3.867303       105.2347 
 1356   0.0000       3.873388       105.4003 
 1357   0.0000       3.882432       105.6463 
 1358   0.0000       3.882829       105.6571 
 1359   0.0000       3.891179       105.8844 
 1360   0.0000       3.900733       106.1443 
 1361   0.0000       3.911209       106.4294 
 1362   0.0000       3.920537       106.6832 
 1363   0.0000       3.921772       106.7168 
 1364   0.0000       3.936076       107.1061 
 1365   0.0000       3.938335       107.1675 
 1366   0.0000       3.946746       107.3964 
 1367   0.0000       3.950597       107.5012 
 1368   0.0000       3.956251       107.6551 
 1369   0.0000       3.958391       107.7133 
 1370   0.0000       3.962508       107.8253 
 1371   0.0000       3.969975       108.0285 
 1372   0.0000       3.972903       108.1082 
 1373   0.0000       3.986419       108.4760 
 1374   0.0000       3.987326       108.5007 
 1375   0.0000       3.996963       108.7629 
 1376   0.0000       4.005912       109.0064 
 1377   0.0000       4.009095       109.0930 
 1378   0.0000       4.014199       109.2319 
 1379   0.0000       4.015078       109.2558 
 1380   0.0000       4.021555       109.4321 
 1381   0.0000       4.025186       109.5309 
 1382   0.0000       4.034087       109.7731 
 1383   0.0000       4.042834       110.0111 
 1384   0.0000       4.044140       110.0466 
 1385   0.0000       4.052998       110.2877 
 1386   0.0000       4.055871       110.3659 
 1387   0.0000       4.065204       110.6198 
 1388   0.0000       4.067104       110.6715 
 1389   0.0000       4.073045       110.8332 
 1390   0.0000       4.087656       111.2308 
 1391   0.0000       4.090889       111.3187 
 1392   0.0000       4.094904       111.4280 
 1393   0.0000       4.098779       111.5334 
 1394   0.0000       4.101031       111.5947 
 1395   0.0000       4.106115       111.7331 
 1396   0.0000       4.108766       111.8052 
 1397   0.0000       4.115745       111.9951 
 1398   0.0000       4.116374       112.0122 
 1399   0.0000       4.117785       112.0506 
 1400   0.0000       4.125678       112.2654 
 1401   0.0000       4.127205       112.3070 
 1402   0.0000       4.134115       112.4950 
 1403   0.0000       4.136282       112.5540 
 1404   0.0000       4.137864       112.5970 
 1405   0.0000       4.142420       112.7210 
 1406   0.0000       4.144515       112.7780 
 1407   0.0000       4.152709       113.0010 
 1408   0.0000       4.153774       113.0299 
 1409   0.0000       4.157501       113.1313 
 1410   0.0000       4.163963       113.3072 
 1411   0.0000       4.167119       113.3931 
 1412   0.0000       4.172019       113.5264 
 1413   0.0000       4.175222       113.6136 
 1414   0.0000       4.181454       113.7832 
 1415   0.0000       4.183298       113.8333 
 1416   0.0000       4.187650       113.9517 
 1417   0.0000       4.193702       114.1164 
 1418   0.0000       4.194037       114.1255 
 1419   0.0000       4.201331       114.3240 
 1420   0.0000       4.203203       114.3750 
 1421   0.0000       4.207205       114.4839 
 1422   0.0000       4.209725       114.5524 
 1423   0.0000       4.213349       114.6510 
 1424   0.0000       4.218267       114.7849 
 1425   0.0000       4.231577       115.1471 
 1426   0.0000       4.233314       115.1943 
 1427   0.0000       4.236241       115.2740 
 1428   0.0000       4.240864       115.3998 
 1429   0.0000       4.241324       115.4123 
 1430   0.0000       4.244174       115.4899 
 1431   0.0000       4.245751       115.5328 
 1432   0.0000       4.253100       115.7327 
 1433   0.0000       4.253941       115.7556 
 1434   0.0000       4.256893       115.8359 
 1435   0.0000       4.261424       115.9593 
 1436   0.0000       4.263145       116.0061 
 1437   0.0000       4.264296       116.0374 
 1438   0.0000       4.265372       116.0667 
 1439   0.0000       4.271806       116.2418 
 1440   0.0000       4.272573       116.2626 
 1441   0.0000       4.275676       116.3471 
 1442   0.0000       4.284250       116.5804 
 1443   0.0000       4.286478       116.6410 
 1444   0.0000       4.292211       116.7970 
 1445   0.0000       4.293626       116.8355 
 1446   0.0000       4.298262       116.9617 
 1447   0.0000       4.309295       117.2619 
 1448   0.0000       4.317675       117.4899 
 1449   0.0000       4.325881       117.7132 
 1450   0.0000       4.329160       117.8024 
 1451   0.0000       4.333921       117.9320 
 1452   0.0000       4.339526       118.0845 
 1453   0.0000       4.344999       118.2334 
 1454   0.0000       4.349317       118.3509 
 1455   0.0000       4.352650       118.4416 
 1456   0.0000       4.362721       118.7157 
 1457   0.0000       4.367920       118.8571 
 1458   0.0000       4.373938       119.0209 
 1459   0.0000       4.380171       119.1905 
 1460   0.0000       4.384870       119.3184 
 1461   0.0000       4.393036       119.5406 
 1462   0.0000       4.399471       119.7157 
 1463   0.0000       4.410255       120.0091 
 1464   0.0000       4.416555       120.1806 
 1465   0.0000       4.417703       120.2118 
 1466   0.0000       4.426567       120.4530 
 1467   0.0000       4.432922       120.6259 
 1468   0.0000       4.451202       121.1234 
 1469   0.0000       4.461232       121.3963 
 1470   0.0000       4.465255       121.5058 
 1471   0.0000       4.471920       121.6871 
 1472   0.0000       4.497324       122.3784 
 1473   0.0000       4.506075       122.6165 
 1474   0.0000       4.512612       122.7944 
 1475   0.0000       4.516608       122.9032 
 1476   0.0000       4.521107       123.0256 
 1477   0.0000       4.529650       123.2581 
 1478   0.0000       4.545696       123.6947 
 1479   0.0000       4.548936       123.7828 
 1480   0.0000       4.553331       123.9024 
 1481   0.0000       4.557786       124.0237 
 1482   0.0000       4.566415       124.2585 
 1483   0.0000       4.567850       124.2975 
 1484   0.0000       4.590825       124.9227 
 1485   0.0000       4.598383       125.1284 
 1486   0.0000       4.610207       125.4501 
 1487   0.0000       4.620253       125.7235 
 1488   0.0000       4.636110       126.1550 
 1489   0.0000       4.643319       126.3511 
 1490   0.0000       4.648355       126.4882 
 1491   0.0000       4.656694       126.7151 
 1492   0.0000       4.660421       126.8165 
 1493   0.0000       4.679189       127.3272 
 1494   0.0000       4.685695       127.5042 
 1495   0.0000       4.698001       127.8391 
 1496   0.0000       4.699962       127.8925 
 1497   0.0000       4.708084       128.1135 
 1498   0.0000       4.719543       128.4253 
 1499   0.0000       4.728795       128.6771 
 1500   0.0000       4.744038       129.0918 
 1501   0.0000       4.752615       129.3252 
 1502   0.0000       4.760875       129.5500 
 1503   0.0000       4.763221       129.6138 
 1504   0.0000       4.765319       129.6709 
 1505   0.0000       4.780315       130.0790 
 1506   0.0000       4.789060       130.3169 
 1507   0.0000       4.791881       130.3937 
 1508   0.0000       4.795465       130.4912 
 1509   0.0000       4.803751       130.7167 
 1510   0.0000       4.807037       130.8061 
 1511   0.0000       4.811960       130.9401 
 1512   0.0000       4.827780       131.3706 
 1513   0.0000       4.836632       131.6115 
 1514   0.0000       4.842408       131.7686 
 1515   0.0000       4.850126       131.9786 
 1516   0.0000       4.858052       132.1943 
 1517   0.0000       4.862656       132.3196 
 1518   0.0000       4.867536       132.4524 
 1519   0.0000       4.876108       132.6856 
 1520   0.0000       4.885224       132.9337 
 1521   0.0000       4.915349       133.7535 
 1522   0.0000       4.919684       133.8714 
 1523   0.0000       4.923512       133.9756 
 1524   0.0000       4.931173       134.1840 
 1525   0.0000       4.940074       134.4262 
 1526   0.0000       4.950131       134.6999 
 1527   0.0000       4.961499       135.0092 
 1528   0.0000       4.973481       135.3353 
 1529   0.0000       4.977857       135.4544 
 1530   0.0000       4.993170       135.8710 
 1531   0.0000       4.997551       135.9903 
 1532   0.0000       5.011691       136.3750 
 1533   0.0000       5.012590       136.3995 
 1534   0.0000       5.025491       136.7506 
 1535   0.0000       5.032662       136.9457 
 1536   0.0000       5.044185       137.2593 
 1537   0.0000       5.049866       137.4138 
 1538   0.0000       5.064591       137.8145 
 1539   0.0000       5.066885       137.8770 
 1540   0.0000       5.074604       138.0870 
 1541   0.0000       5.081953       138.2870 
 1542   0.0000       5.095253       138.6489 
 1543   0.0000       5.100743       138.7983 
 1544   0.0000       5.132045       139.6500 
 1545   0.0000       5.133003       139.6761 
 1546   0.0000       5.143045       139.9494 
 1547   0.0000       5.148864       140.1077 
 1548   0.0000       5.165223       140.5529 
 1549   0.0000       5.169466       140.6683 
 1550   0.0000       5.173499       140.7781 
 1551   0.0000       5.179180       140.9326 
 1552   0.0000       5.186551       141.1332 
 1553   0.0000       5.191357       141.2640 
 1554   0.0000       5.202674       141.5719 
 1555   0.0000       5.240301       142.5958 
 1556   0.0000       5.258795       143.0991 
 1557   0.0000       5.264980       143.2674 
 1558   0.0000       5.275177       143.5449 
 1559   0.0000       5.281552       143.7183 
 1560   0.0000       5.286737       143.8594 
 1561   0.0000       5.301067       144.2494 
 1562   0.0000       5.307732       144.4307 
 1563   0.0000       5.316153       144.6599 
 1564   0.0000       5.324547       144.8883 
 1565   0.0000       5.334136       145.1492 
 1566   0.0000       5.342563       145.3785 
 1567   0.0000       5.358428       145.8103 
 1568   0.0000       5.368562       146.0860 
 1569   0.0000       5.376039       146.2895 
 1570   0.0000       5.395491       146.8188 
 1571   0.0000       5.406781       147.1260 
 1572   0.0000       5.415143       147.3535 
 1573   0.0000       5.423558       147.5825 
 1574   0.0000       5.426956       147.6750 
 1575   0.0000       5.448322       148.2564 
 1576   0.0000       5.460347       148.5836 
 1577   0.0000       5.469738       148.8391 
 1578   0.0000       5.492772       149.4659 
 1579   0.0000       5.497397       149.5918 
 1580   0.0000       5.507809       149.8751 
 1581   0.0000       5.544257       150.8669 
 1582   0.0000       5.547985       150.9683 
 1583   0.0000       5.551369       151.0604 
 1584   0.0000       5.565255       151.4383 
 1585   0.0000       5.593018       152.1938 
 1586   0.0000       5.601646       152.4285 
 1587   0.0000       5.618151       152.8777 
 1588   0.0000       5.650052       153.7457 
 1589   0.0000       5.654499       153.8667 
 1590   0.0000       5.664108       154.1282 
 1591   0.0000       5.702710       155.1786 
 1592   0.0000       5.732939       156.0012 
 1593   0.0000       5.753895       156.5714 
 1594   0.0000       5.770268       157.0170 
 1595   0.0000       5.787055       157.4738 
 1596   0.0000       5.814784       158.2283 
 1597   0.0000       5.865645       159.6123 
 1598   0.0000       5.903754       160.6493 
 1599   0.0000       5.917426       161.0213 
 1600   0.0000       5.954174       162.0213 
 1601   0.0000       5.964895       162.3130 
 1602   0.0000       5.999309       163.2495 
 1603   0.0000       6.050468       164.6416 
 1604   0.0000       6.125375       166.6799 
 1605   0.0000       6.133554       166.9025 
 1606   0.0000       6.167577       167.8283 
 1607   0.0000       6.182154       168.2250 
 1608   0.0000       6.237620       169.7343 
 1609   0.0000       6.331233       172.2816 
 1610   0.0000       6.499375       176.8570 
 1611   0.0000       8.785542       239.0667 
 1612   0.0000       8.834992       240.4123 
 1613   0.0000       8.986964       244.5477 
 1614   0.0000       9.024896       245.5799 
 1615   0.0000       9.352527       254.4952 
 1616   0.0000       9.399588       255.7758 
 1617   0.0000       9.435469       256.7522 
 1618   0.0000       9.565084       260.2792 
 1619   0.0000       9.627715       261.9834 
 1620   0.0000      19.770396       537.9798 
 1621   0.0000      20.483555       557.3859 
 1622   0.0000      20.732979       564.1730 
 1623   0.0000      22.095122       601.2388 
 1624   0.0000      22.151548       602.7743 
 1625   0.0000      22.159276       602.9846 
 1626   0.0000      22.178117       603.4973 
 1627   0.0000      22.190681       603.8391 
 1628   0.0000      22.463530       611.2637 
 1629   0.0000      22.595728       614.8610 
 1630   0.0000      22.605956       615.1393 
 1631   0.0000      22.619679       615.5128 
 1632   0.0000      22.625116       615.6607 
 1633   0.0000      22.635110       615.9326 
 1634   0.0000      22.644958       616.2006 
 1635   0.0000      22.653476       616.4324 
 1636   0.0000      22.665939       616.7716 
 1637   0.0000      22.695282       617.5700 
 1638   0.0000      22.717070       618.1629 
 1639   0.0000      22.717630       618.1782 
 1640   0.0000      22.721183       618.2748 
 1641   0.0000      22.744335       618.9048 
 1642   0.0000      22.765761       619.4879 
 1643   0.0000      22.777030       619.7945 
 1644   0.0000      22.785900       620.0359 
 1645   0.0000      22.805213       620.5614 
 1646   0.0000      22.813368       620.7833 
 1647   0.0000      22.860506       622.0660 
 1648   0.0000      22.868274       622.2774 
 1649   0.0000      22.880901       622.6210 
 1650   0.0000      22.884331       622.7143 
 1651   0.0000      22.885861       622.7559 
 1652   0.0000      22.920268       623.6922 
 1653   0.0000      22.926552       623.8632 
 1654   0.0000      22.996796       625.7746 
 1655   0.0000      23.123648       629.2265 
 1656   0.0000      23.188270       630.9849 
 1657   0.0000      23.248718       632.6298 
 1658   0.0000      23.263922       633.0435 
 1659   0.0000      23.277597       633.4156 
 1660   0.0000      23.300444       634.0373 
 1661   0.0000      23.313397       634.3898 
 1662   0.0000      23.325520       634.7197 
 1663   0.0000      23.571522       641.4137 
 1664   0.0000      23.840619       648.7362 
 1665   0.0000      33.202232       903.4787 
 1666   0.0000      33.269430       905.3072 
 1667   0.0000      33.319475       906.6690 

                 SPIN DOWN ORBITALS
  NO   OCC          E(Eh)            E(eV) 
   0   1.0000     -89.112197     -2424.8661 
   1   1.0000     -89.009683     -2422.0766 
   2   1.0000     -88.986214     -2421.4380 
   3   1.0000     -14.605428      -397.4339 
   4   1.0000     -14.532693      -395.4547 
   5   1.0000     -14.485777      -394.1780 
   6   1.0000     -10.454627      -284.4849 
   7   1.0000     -10.454549      -284.4827 
   8   1.0000     -10.436120      -283.9813 
   9   1.0000     -10.436091      -283.9805 
  10   1.0000     -10.404054      -283.1087 
  11   1.0000     -10.395083      -282.8646 
  12   1.0000     -10.390875      -282.7501 
  13   1.0000     -10.390766      -282.7471 
  14   1.0000     -10.385031      -282.5911 
  15   1.0000     -10.384839      -282.5858 
  16   1.0000     -10.384215      -282.5689 
  17   1.0000     -10.384027      -282.5637 
  18   1.0000     -10.382716      -282.5281 
  19   1.0000     -10.382614      -282.5253 
  20   1.0000     -10.379492      -282.4403 
  21   1.0000     -10.377910      -282.3973 
  22   1.0000     -10.372190      -282.2416 
  23   1.0000     -10.370657      -282.1999 
  24   1.0000     -10.367412      -282.1116 
  25   1.0000     -10.361866      -281.9607 
  26   1.0000     -10.361383      -281.9476 
  27   1.0000     -10.361270      -281.9445 
  28   1.0000     -10.356103      -281.8039 
  29   1.0000     -10.355668      -281.7921 
  30   1.0000     -10.345748      -281.5221 
  31   1.0000     -10.344387      -281.4851 
  32   1.0000     -10.343276      -281.4548 
  33   1.0000     -10.340144      -281.3696 
  34   1.0000     -10.339595      -281.3547 
  35   1.0000     -10.338374      -281.3215 
  36   1.0000     -10.335630      -281.2468 
  37   1.0000     -10.332931      -281.1733 
  38   1.0000     -10.332107      -281.1509 
  39   1.0000     -10.332061      -281.1497 
  40   1.0000     -10.305096      -280.4159 
  41   1.0000     -10.304966      -280.4124 
  42   1.0000     -10.304464      -280.3987 
  43   1.0000     -10.304403      -280.3971 
  44   1.0000     -10.303546      -280.3737 
  45   1.0000     -10.303515      -280.3729 
  46   1.0000     -10.297671      -280.2139 
  47   1.0000     -10.297352      -280.2052 
  48   1.0000      -8.189669      -222.8522 
  49   1.0000      -8.088431      -220.0974 
  50   1.0000      -8.064514      -219.4466 
  51   1.0000      -6.153322      -167.4404 
  52   1.0000      -6.149263      -167.3300 
  53   1.0000      -6.144984      -167.2135 
  54   1.0000      -6.052517      -164.6974 
  55   1.0000      -6.048391      -164.5851 
  56   1.0000      -6.044187      -164.4707 
  57   1.0000      -6.028650      -164.0479 
  58   1.0000      -6.024984      -163.9481 
  59   1.0000      -6.019852      -163.8085 
  60   1.0000      -1.224829       -33.3293 
  61   1.0000      -1.184656       -32.2361 
  62   1.0000      -1.127401       -30.6781 
  63   1.0000      -1.105021       -30.0692 
  64   1.0000      -1.097616       -29.8677 
  65   1.0000      -1.062237       -28.9049 
  66   1.0000      -1.046936       -28.4886 
  67   1.0000      -1.041280       -28.3347 
  68   1.0000      -1.031244       -28.0616 
  69   1.0000      -1.009956       -27.4823 
  70   1.0000      -1.003708       -27.3123 
  71   1.0000      -0.995114       -27.0784 
  72   1.0000      -0.981701       -26.7134 
  73   1.0000      -0.978750       -26.6331 
  74   1.0000      -0.962693       -26.1962 
  75   1.0000      -0.955845       -26.0099 
  76   1.0000      -0.947581       -25.7850 
  77   1.0000      -0.942808       -25.6551 
  78   1.0000      -0.928816       -25.2744 
  79   1.0000      -0.916202       -24.9311 
  80   1.0000      -0.912059       -24.8184 
  81   1.0000      -0.903986       -24.5987 
  82   1.0000      -0.899293       -24.4710 
  83   1.0000      -0.891312       -24.2538 
  84   1.0000      -0.877570       -23.8799 
  85   1.0000      -0.865520       -23.5520 
  86   1.0000      -0.862907       -23.4809 
  87   1.0000      -0.846344       -23.0302 
  88   1.0000      -0.829928       -22.5835 
  89   1.0000      -0.818910       -22.2837 
  90   1.0000      -0.817285       -22.2395 
  91   1.0000      -0.793788       -21.6001 
  92   1.0000      -0.790461       -21.5095 
  93   1.0000      -0.786607       -21.4047 
  94   1.0000      -0.774453       -21.0739 
  95   1.0000      -0.771813       -21.0021 
  96   1.0000      -0.769121       -20.9288 
  97   1.0000      -0.764480       -20.8025 
  98   1.0000      -0.755029       -20.5454 
  99   1.0000      -0.745317       -20.2811 
 100   1.0000      -0.736914       -20.0524 
 101   1.0000      -0.726131       -19.7590 
 102   1.0000      -0.713771       -19.4227 
 103   1.0000      -0.698139       -18.9973 
 104   1.0000      -0.694211       -18.8904 
 105   1.0000      -0.691454       -18.8154 
 106   1.0000      -0.683532       -18.5999 
 107   1.0000      -0.678650       -18.4670 
 108   1.0000      -0.677702       -18.4412 
 109   1.0000      -0.676695       -18.4138 
 110   1.0000      -0.669868       -18.2280 
 111   1.0000      -0.661433       -17.9985 
 112   1.0000      -0.653157       -17.7733 
 113   1.0000      -0.645335       -17.5605 
 114   1.0000      -0.642217       -17.4756 
 115   1.0000      -0.640563       -17.4306 
 116   1.0000      -0.631998       -17.1975 
 117   1.0000      -0.630988       -17.1701 
 118   1.0000      -0.622064       -16.9272 
 119   1.0000      -0.615621       -16.7519 
 120   1.0000      -0.611467       -16.6389 
 121   1.0000      -0.606185       -16.4951 
 122   1.0000      -0.604225       -16.4418 
 123   1.0000      -0.603962       -16.4346 
 124   1.0000      -0.599724       -16.3193 
 125   1.0000      -0.593900       -16.1608 
 126   1.0000      -0.588505       -16.0140 
 127   1.0000      -0.587953       -15.9990 
 128   1.0000      -0.587172       -15.9778 
 129   1.0000      -0.586737       -15.9659 
 130   1.0000      -0.584572       -15.9070 
 131   1.0000      -0.579603       -15.7718 
 132   1.0000      -0.572412       -15.5761 
 133   1.0000      -0.566563       -15.4170 
 134   1.0000      -0.562218       -15.2987 
 135   1.0000      -0.561058       -15.2672 
 136   1.0000      -0.553112       -15.0509 
 137   1.0000      -0.550625       -14.9833 
 138   1.0000      -0.548237       -14.9183 
 139   1.0000      -0.546423       -14.8689 
 140   1.0000      -0.545582       -14.8460 
 141   1.0000      -0.539295       -14.6750 
 142   1.0000      -0.536700       -14.6043 
 143   1.0000      -0.534480       -14.5439 
 144   1.0000      -0.531793       -14.4708 
 145   1.0000      -0.522035       -14.2053 
 146   1.0000      -0.514175       -13.9914 
 147   1.0000      -0.513537       -13.9741 
 148   1.0000      -0.510417       -13.8892 
 149   1.0000      -0.504259       -13.7216 
 150   1.0000      -0.501737       -13.6530 
 151   1.0000      -0.492457       -13.4004 
 152   1.0000      -0.490166       -13.3381 
 153   1.0000      -0.480811       -13.0835 
 154   1.0000      -0.479976       -13.0608 
 155   1.0000      -0.465495       -12.6668 
 156   1.0000      -0.462744       -12.5919 
 157   1.0000      -0.452650       -12.3172 
 158   1.0000      -0.450150       -12.2492 
 159   1.0000      -0.449740       -12.2380 
 160   1.0000      -0.445129       -12.1126 
 161   1.0000      -0.443679       -12.0731 
 162   1.0000      -0.422004       -11.4833 
 163   1.0000      -0.417564       -11.3625 
 164   1.0000      -0.411152       -11.1880 
 165   1.0000      -0.408015       -11.1026 
 166   1.0000      -0.380620       -10.3572 
 167   1.0000      -0.371565       -10.1108 
 168   1.0000      -0.369493       -10.0544 
 169   1.0000      -0.363564        -9.8931 
 170   1.0000      -0.351301        -9.5594 
 171   1.0000      -0.338415        -9.2087 
 172   1.0000      -0.295435        -8.0392 
 173   0.0000      -0.234032        -6.3683 
 174   0.0000      -0.131347        -3.5741 
 175   0.0000      -0.108661        -2.9568 
 176   0.0000      -0.099845        -2.7169 
 177   0.0000      -0.089650        -2.4395 
 178   0.0000      -0.076126        -2.0715 
 179   0.0000      -0.064802        -1.7633 
 180   0.0000      -0.062746        -1.7074 
 181   0.0000      -0.062094        -1.6897 
 182   0.0000      -0.049373        -1.3435 
 183   0.0000      -0.043508        -1.1839 
 184   0.0000      -0.033584        -0.9139 
 185   0.0000      -0.030359        -0.8261 
 186   0.0000      -0.028241        -0.7685 
 187   0.0000      -0.024594        -0.6692 
 188   0.0000      -0.021900        -0.5959 
 189   0.0000      -0.020085        -0.5465 
 190   0.0000      -0.016504        -0.4491 
 191   0.0000      -0.008515        -0.2317 
 192   0.0000      -0.000716        -0.0195 
 193   0.0000       0.000483         0.0131 
 194   0.0000       0.005397         0.1469 
 195   0.0000       0.006899         0.1877 
 196   0.0000       0.013019         0.3543 
 197   0.0000       0.017293         0.4706 
 198   0.0000       0.017720         0.4822 
 199   0.0000       0.023555         0.6410 
 200   0.0000       0.027255         0.7417 
 201   0.0000       0.030074         0.8184 
 202   0.0000       0.030448         0.8285 
 203   0.0000       0.036484         0.9928 
 204   0.0000       0.039285         1.0690 
 205   0.0000       0.043707         1.1893 
 206   0.0000       0.046409         1.2628 
 207   0.0000       0.048644         1.3237 
 208   0.0000       0.051279         1.3954 
 209   0.0000       0.052205         1.4206 
 210   0.0000       0.055224         1.5027 
 211   0.0000       0.056406         1.5349 
 212   0.0000       0.062546         1.7020 
 213   0.0000       0.064864         1.7650 
 214   0.0000       0.066299         1.8041 
 215   0.0000       0.067104         1.8260 
 216   0.0000       0.070969         1.9312 
 217   0.0000       0.073219         1.9924 
 218   0.0000       0.074825         2.0361 
 219   0.0000       0.076310         2.0765 
 220   0.0000       0.081588         2.2201 
 221   0.0000       0.086140         2.3440 
 222   0.0000       0.089830         2.4444 
 223   0.0000       0.092269         2.5108 
 224   0.0000       0.096896         2.6367 
 225   0.0000       0.100079         2.7233 
 226   0.0000       0.102520         2.7897 
 227   0.0000       0.105472         2.8700 
 228   0.0000       0.107757         2.9322 
 229   0.0000       0.110348         3.0027 
 230   0.0000       0.113814         3.0970 
 231   0.0000       0.116752         3.1770 
 232   0.0000       0.119446         3.2503 
 233   0.0000       0.124325         3.3831 
 234   0.0000       0.126438         3.4405 
 235   0.0000       0.127275         3.4633 
 236   0.0000       0.128036         3.4840 
 237   0.0000       0.130079         3.5396 
 238   0.0000       0.132266         3.5991 
 239   0.0000       0.134797         3.6680 
 240   0.0000       0.136471         3.7136 
 241   0.0000       0.136803         3.7226 
 242   0.0000       0.139204         3.7879 
 243   0.0000       0.144534         3.9330 
 244   0.0000       0.148973         4.0537 
 245   0.0000       0.150155         4.0859 
 246   0.0000       0.152061         4.1378 
 247   0.0000       0.154194         4.1958 
 248   0.0000       0.155685         4.2364 
 249   0.0000       0.160226         4.3600 
 250   0.0000       0.161364         4.3909 
 251   0.0000       0.163102         4.4382 
 252   0.0000       0.165926         4.5151 
 253   0.0000       0.167686         4.5630 
 254   0.0000       0.168366         4.5815 
 255   0.0000       0.172681         4.6989 
 256   0.0000       0.174261         4.7419 
 257   0.0000       0.177817         4.8387 
 258   0.0000       0.179438         4.8828 
 259   0.0000       0.181620         4.9421 
 260   0.0000       0.183727         4.9995 
 261   0.0000       0.185150         5.0382 
 262   0.0000       0.187225         5.0946 
 263   0.0000       0.188463         5.1283 
 264   0.0000       0.191875         5.2212 
 265   0.0000       0.193381         5.2622 
 266   0.0000       0.193858         5.2751 
 267   0.0000       0.194900         5.3035 
 268   0.0000       0.197516         5.3747 
 269   0.0000       0.199235         5.4215 
 270   0.0000       0.201299         5.4776 
 271   0.0000       0.202011         5.4970 
 272   0.0000       0.207419         5.6442 
 273   0.0000       0.209379         5.6975 
 274   0.0000       0.211314         5.7502 
 275   0.0000       0.214366         5.8332 
 276   0.0000       0.216274         5.8851 
 277   0.0000       0.219235         5.9657 
 278   0.0000       0.220747         6.0068 
 279   0.0000       0.223971         6.0946 
 280   0.0000       0.226092         6.1523 
 281   0.0000       0.229790         6.2529 
 282   0.0000       0.230618         6.2754 
 283   0.0000       0.232977         6.3396 
 284   0.0000       0.233493         6.3537 
 285   0.0000       0.236146         6.4259 
 286   0.0000       0.238399         6.4872 
 287   0.0000       0.241582         6.5738 
 288   0.0000       0.242645         6.6027 
 289   0.0000       0.242955         6.6111 
 290   0.0000       0.244654         6.6574 
 291   0.0000       0.247306         6.7295 
 292   0.0000       0.249919         6.8006 
 293   0.0000       0.252472         6.8701 
 294   0.0000       0.256902         6.9906 
 295   0.0000       0.258042         7.0217 
 296   0.0000       0.259413         7.0590 
 297   0.0000       0.261886         7.1263 
 298   0.0000       0.266921         7.2633 
 299   0.0000       0.268840         7.3155 
 300   0.0000       0.270651         7.3648 
 301   0.0000       0.273506         7.4425 
 302   0.0000       0.274471         7.4687 
 303   0.0000       0.275017         7.4836 
 304   0.0000       0.277776         7.5587 
 305   0.0000       0.281439         7.6584 
 306   0.0000       0.284173         7.7327 
 307   0.0000       0.285693         7.7741 
 308   0.0000       0.288063         7.8386 
 309   0.0000       0.288665         7.8550 
 310   0.0000       0.294107         8.0031 
 311   0.0000       0.295782         8.0486 
 312   0.0000       0.298311         8.1175 
 313   0.0000       0.299840         8.1591 
 314   0.0000       0.300909         8.1882 
 315   0.0000       0.302163         8.2223 
 316   0.0000       0.304022         8.2729 
 317   0.0000       0.306502         8.3403 
 318   0.0000       0.307454         8.3662 
 319   0.0000       0.309179         8.4132 
 320   0.0000       0.311624         8.4797 
 321   0.0000       0.315537         8.5862 
 322   0.0000       0.317478         8.6390 
 323   0.0000       0.319185         8.6855 
 324   0.0000       0.320428         8.7193 
 325   0.0000       0.323680         8.8078 
 326   0.0000       0.323888         8.8134 
 327   0.0000       0.328348         8.9348 
 328   0.0000       0.330338         8.9890 
 329   0.0000       0.333147         9.0654 
 330   0.0000       0.333723         9.0811 
 331   0.0000       0.336121         9.1463 
 332   0.0000       0.337329         9.1792 
 333   0.0000       0.337842         9.1932 
 334   0.0000       0.341008         9.2793 
 335   0.0000       0.341526         9.2934 
 336   0.0000       0.344125         9.3641 
 337   0.0000       0.349939         9.5223 
 338   0.0000       0.352268         9.5857 
 339   0.0000       0.352851         9.6016 
 340   0.0000       0.354018         9.6333 
 341   0.0000       0.354754         9.6533 
 342   0.0000       0.356199         9.6927 
 343   0.0000       0.358392         9.7523 
 344   0.0000       0.360622         9.8130 
 345   0.0000       0.363500         9.8913 
 346   0.0000       0.365985         9.9590 
 347   0.0000       0.366252         9.9662 
 348   0.0000       0.368913        10.0386 
 349   0.0000       0.371744        10.1157 
 350   0.0000       0.372683        10.1412 
 351   0.0000       0.375442        10.2163 
 352   0.0000       0.376087        10.2338 
 353   0.0000       0.376599        10.2478 
 354   0.0000       0.379763        10.3339 
 355   0.0000       0.380507        10.3541 
 356   0.0000       0.381731        10.3874 
 357   0.0000       0.383222        10.4280 
 358   0.0000       0.384298        10.4573 
 359   0.0000       0.389360        10.5950 
 360   0.0000       0.390105        10.6153 
 361   0.0000       0.392649        10.6845 
 362   0.0000       0.393719        10.7136 
 363   0.0000       0.397904        10.8275 
 364   0.0000       0.399081        10.8595 
 365   0.0000       0.401954        10.9377 
 366   0.0000       0.403693        10.9850 
 367   0.0000       0.405653        11.0384 
 368   0.0000       0.409176        11.1342 
 369   0.0000       0.410449        11.1689 
 370   0.0000       0.412640        11.2285 
 371   0.0000       0.415990        11.3197 
 372   0.0000       0.418247        11.3811 
 373   0.0000       0.422012        11.4835 
 374   0.0000       0.424326        11.5465 
 375   0.0000       0.427639        11.6367 
 376   0.0000       0.428342        11.6558 
 377   0.0000       0.429499        11.6873 
 378   0.0000       0.431048        11.7294 
 379   0.0000       0.433238        11.7890 
 380   0.0000       0.435258        11.8440 
 381   0.0000       0.437289        11.8992 
 382   0.0000       0.440604        11.9894 
 383   0.0000       0.443636        12.0720 
 384   0.0000       0.445746        12.1294 
 385   0.0000       0.446765        12.1571 
 386   0.0000       0.449403        12.2289 
 387   0.0000       0.450771        12.2661 
 388   0.0000       0.453398        12.3376 
 389   0.0000       0.453560        12.3420 
 390   0.0000       0.458136        12.4665 
 391   0.0000       0.458620        12.4797 
 392   0.0000       0.460347        12.5267 
 393   0.0000       0.463580        12.6146 
 394   0.0000       0.465130        12.6568 
 395   0.0000       0.466361        12.6903 
 396   0.0000       0.474287        12.9060 
 397   0.0000       0.475490        12.9387 
 398   0.0000       0.484040        13.1714 
 399   0.0000       0.484656        13.1882 
 400   0.0000       0.487794        13.2736 
 401   0.0000       0.489766        13.3272 
 402   0.0000       0.492117        13.3912 
 403   0.0000       0.494638        13.4598 
 404   0.0000       0.498925        13.5764 
 405   0.0000       0.499155        13.5827 
 406   0.0000       0.503628        13.7044 
 407   0.0000       0.506031        13.7698 
 408   0.0000       0.506971        13.7954 
 409   0.0000       0.508083        13.8256 
 410   0.0000       0.511665        13.9231 
 411   0.0000       0.514488        13.9999 
 412   0.0000       0.516240        14.0476 
 413   0.0000       0.518810        14.1175 
 414   0.0000       0.519914        14.1476 
 415   0.0000       0.527530        14.3548 
 416   0.0000       0.528715        14.3871 
 417   0.0000       0.531950        14.4751 
 418   0.0000       0.534153        14.5350 
 419   0.0000       0.535496        14.5716 
 420   0.0000       0.537968        14.6389 
 421   0.0000       0.542077        14.7507 
 422   0.0000       0.543155        14.7800 
 423   0.0000       0.545357        14.8399 
 424   0.0000       0.549370        14.9491 
 425   0.0000       0.552118        15.0239 
 426   0.0000       0.555330        15.1113 
 427   0.0000       0.561760        15.2863 
 428   0.0000       0.568810        15.4781 
 429   0.0000       0.570618        15.5273 
 430   0.0000       0.575229        15.6528 
 431   0.0000       0.576772        15.6948 
 432   0.0000       0.578816        15.7504 
 433   0.0000       0.583458        15.8767 
 434   0.0000       0.584118        15.8947 
 435   0.0000       0.589396        16.0383 
 436   0.0000       0.592032        16.1100 
 437   0.0000       0.595806        16.2127 
 438   0.0000       0.597127        16.2486 
 439   0.0000       0.601766        16.3749 
 440   0.0000       0.603733        16.4284 
 441   0.0000       0.605156        16.4671 
 442   0.0000       0.606818        16.5124 
 443   0.0000       0.610691        16.6177 
 444   0.0000       0.614243        16.7144 
 445   0.0000       0.615952        16.7609 
 446   0.0000       0.618777        16.8378 
 447   0.0000       0.620327        16.8800 
 448   0.0000       0.624831        17.0025 
 449   0.0000       0.625992        17.0341 
 450   0.0000       0.627965        17.0878 
 451   0.0000       0.630959        17.1693 
 452   0.0000       0.636069        17.3083 
 453   0.0000       0.637015        17.3340 
 454   0.0000       0.641137        17.4462 
 455   0.0000       0.641664        17.4606 
 456   0.0000       0.642932        17.4951 
 457   0.0000       0.647305        17.6141 
 458   0.0000       0.650760        17.7081 
 459   0.0000       0.651025        17.7153 
 460   0.0000       0.652561        17.7571 
 461   0.0000       0.653456        17.7814 
 462   0.0000       0.656049        17.8520 
 463   0.0000       0.658978        17.9317 
 464   0.0000       0.662078        18.0161 
 465   0.0000       0.664675        18.0867 
 466   0.0000       0.667678        18.1685 
 467   0.0000       0.669305        18.2127 
 468   0.0000       0.670747        18.2520 
 469   0.0000       0.672690        18.3048 
 470   0.0000       0.676823        18.4173 
 471   0.0000       0.680149        18.5078 
 472   0.0000       0.681986        18.5578 
 473   0.0000       0.683042        18.5865 
 474   0.0000       0.688078        18.7235 
 475   0.0000       0.690822        18.7982 
 476   0.0000       0.691747        18.8234 
 477   0.0000       0.695761        18.9326 
 478   0.0000       0.696838        18.9619 
 479   0.0000       0.699876        19.0446 
 480   0.0000       0.701910        19.0999 
 481   0.0000       0.705575        19.1997 
 482   0.0000       0.707005        19.2386 
 483   0.0000       0.712232        19.3808 
 484   0.0000       0.713301        19.4099 
 485   0.0000       0.714898        19.4534 
 486   0.0000       0.715930        19.4815 
 487   0.0000       0.719230        19.5712 
 488   0.0000       0.721575        19.6351 
 489   0.0000       0.724213        19.7068 
 490   0.0000       0.727840        19.8055 
 491   0.0000       0.731199        19.8969 
 492   0.0000       0.733276        19.9535 
 493   0.0000       0.737707        20.0740 
 494   0.0000       0.738511        20.0959 
 495   0.0000       0.744451        20.2575 
 496   0.0000       0.746576        20.3154 
 497   0.0000       0.748971        20.3805 
 498   0.0000       0.751437        20.4476 
 499   0.0000       0.752415        20.4743 
 500   0.0000       0.755597        20.5608 
 501   0.0000       0.760233        20.6870 
 502   0.0000       0.761955        20.7339 
 503   0.0000       0.763754        20.7828 
 504   0.0000       0.766611        20.8606 
 505   0.0000       0.768382        20.9087 
 506   0.0000       0.773266        21.0416 
 507   0.0000       0.776246        21.1227 
 508   0.0000       0.779107        21.2006 
 509   0.0000       0.780713        21.2443 
 510   0.0000       0.785480        21.3740 
 511   0.0000       0.789030        21.4706 
 512   0.0000       0.791010        21.5245 
 513   0.0000       0.793381        21.5890 
 514   0.0000       0.794957        21.6319 
 515   0.0000       0.797347        21.6969 
 516   0.0000       0.801127        21.7998 
 517   0.0000       0.805247        21.9119 
 518   0.0000       0.805947        21.9309 
 519   0.0000       0.810220        22.0472 
 520   0.0000       0.812370        22.1057 
 521   0.0000       0.814899        22.1745 
 522   0.0000       0.819342        22.2954 
 523   0.0000       0.821352        22.3501 
 524   0.0000       0.823333        22.4040 
 525   0.0000       0.824262        22.4293 
 526   0.0000       0.829728        22.5781 
 527   0.0000       0.831215        22.6185 
 528   0.0000       0.833643        22.6846 
 529   0.0000       0.837182        22.7809 
 530   0.0000       0.842785        22.9333 
 531   0.0000       0.847572        23.0636 
 532   0.0000       0.850222        23.1357 
 533   0.0000       0.853474        23.2242 
 534   0.0000       0.857384        23.3306 
 535   0.0000       0.859610        23.3912 
 536   0.0000       0.862503        23.4699 
 537   0.0000       0.865245        23.5445 
 538   0.0000       0.866856        23.5884 
 539   0.0000       0.870134        23.6775 
 540   0.0000       0.876583        23.8530 
 541   0.0000       0.880411        23.9572 
 542   0.0000       0.880816        23.9682 
 543   0.0000       0.884711        24.0742 
 544   0.0000       0.885978        24.1087 
 545   0.0000       0.890304        24.2264 
 546   0.0000       0.892823        24.2949 
 547   0.0000       0.896422        24.3929 
 548   0.0000       0.897327        24.4175 
 549   0.0000       0.902621        24.5616 
 550   0.0000       0.903198        24.5773 
 551   0.0000       0.908613        24.7246 
 552   0.0000       0.909281        24.7428 
 553   0.0000       0.912700        24.8358 
 554   0.0000       0.916929        24.9509 
 555   0.0000       0.922116        25.0921 
 556   0.0000       0.925624        25.1875 
 557   0.0000       0.930001        25.3066 
 558   0.0000       0.934274        25.4229 
 559   0.0000       0.935917        25.4676 
 560   0.0000       0.939120        25.5548 
 561   0.0000       0.944672        25.7058 
 562   0.0000       0.952457        25.9177 
 563   0.0000       0.957969        26.0677 
 564   0.0000       0.960803        26.1448 
 565   0.0000       0.964592        26.2479 
 566   0.0000       0.965798        26.2807 
 567   0.0000       0.968429        26.3523 
 568   0.0000       0.971480        26.4353 
 569   0.0000       0.977106        26.5884 
 570   0.0000       0.981882        26.7184 
 571   0.0000       0.987733        26.8776 
 572   0.0000       0.989981        26.9388 
 573   0.0000       0.996921        27.1276 
 574   0.0000       0.999889        27.2084 
 575   0.0000       1.003189        27.2982 
 576   0.0000       1.008261        27.4362 
 577   0.0000       1.010183        27.4885 
 578   0.0000       1.012449        27.5501 
 579   0.0000       1.019526        27.7427 
 580   0.0000       1.025640        27.9091 
 581   0.0000       1.027555        27.9612 
 582   0.0000       1.030592        28.0438 
 583   0.0000       1.035739        28.1839 
 584   0.0000       1.038494        28.2588 
 585   0.0000       1.042538        28.3689 
 586   0.0000       1.045850        28.4590 
 587   0.0000       1.052123        28.6297 
 588   0.0000       1.053077        28.6557 
 589   0.0000       1.055063        28.7097 
 590   0.0000       1.056640        28.7526 
 591   0.0000       1.064884        28.9770 
 592   0.0000       1.068095        29.0643 
 593   0.0000       1.074723        29.2447 
 594   0.0000       1.077409        29.3178 
 595   0.0000       1.081958        29.4416 
 596   0.0000       1.082965        29.4690 
 597   0.0000       1.092033        29.7157 
 598   0.0000       1.096204        29.8292 
 599   0.0000       1.101890        29.9840 
 600   0.0000       1.106476        30.1087 
 601   0.0000       1.113262        30.2934 
 602   0.0000       1.116356        30.3776 
 603   0.0000       1.118286        30.4301 
 604   0.0000       1.121751        30.5244 
 605   0.0000       1.125486        30.6260 
 606   0.0000       1.129730        30.7415 
 607   0.0000       1.132010        30.8036 
 608   0.0000       1.138386        30.9771 
 609   0.0000       1.142131        31.0790 
 610   0.0000       1.143767        31.1235 
 611   0.0000       1.146448        31.1964 
 612   0.0000       1.151509        31.3342 
 613   0.0000       1.153145        31.3787 
 614   0.0000       1.154405        31.4129 
 615   0.0000       1.159470        31.5508 
 616   0.0000       1.163179        31.6517 
 617   0.0000       1.165143        31.7052 
 618   0.0000       1.173157        31.9232 
 619   0.0000       1.176326        32.0095 
 620   0.0000       1.179522        32.0964 
 621   0.0000       1.182317        32.1725 
 622   0.0000       1.185886        32.2696 
 623   0.0000       1.186217        32.2786 
 624   0.0000       1.194559        32.5056 
 625   0.0000       1.197725        32.5918 
 626   0.0000       1.197889        32.5962 
 627   0.0000       1.200259        32.6607 
 628   0.0000       1.205661        32.8077 
 629   0.0000       1.209043        32.8997 
 630   0.0000       1.212077        32.9823 
 631   0.0000       1.213769        33.0283 
 632   0.0000       1.217842        33.1392 
 633   0.0000       1.220427        33.2095 
 634   0.0000       1.224563        33.3221 
 635   0.0000       1.228037        33.4166 
 636   0.0000       1.229293        33.4508 
 637   0.0000       1.236530        33.6477 
 638   0.0000       1.237137        33.6642 
 639   0.0000       1.241175        33.7741 
 640   0.0000       1.243318        33.8324 
 641   0.0000       1.249248        33.9938 
 642   0.0000       1.252943        34.0943 
 643   0.0000       1.258988        34.2588 
 644   0.0000       1.260339        34.2956 
 645   0.0000       1.263142        34.3718 
 646   0.0000       1.265139        34.4262 
 647   0.0000       1.268887        34.5282 
 648   0.0000       1.270286        34.5662 
 649   0.0000       1.272307        34.6212 
 650   0.0000       1.275035        34.6955 
 651   0.0000       1.276531        34.7362 
 652   0.0000       1.279682        34.8219 
 653   0.0000       1.282227        34.8912 
 654   0.0000       1.290247        35.1094 
 655   0.0000       1.293070        35.1862 
 656   0.0000       1.297097        35.2958 
 657   0.0000       1.299079        35.3497 
 658   0.0000       1.301835        35.4247 
 659   0.0000       1.303277        35.4640 
 660   0.0000       1.310473        35.6598 
 661   0.0000       1.314464        35.7684 
 662   0.0000       1.321287        35.9540 
 663   0.0000       1.324037        36.0289 
 664   0.0000       1.327133        36.1131 
 665   0.0000       1.332093        36.2481 
 666   0.0000       1.338044        36.4100 
 667   0.0000       1.343172        36.5496 
 668   0.0000       1.345823        36.6217 
 669   0.0000       1.349046        36.7094 
 670   0.0000       1.353056        36.8185 
 671   0.0000       1.353127        36.8205 
 672   0.0000       1.361230        37.0410 
 673   0.0000       1.363579        37.1049 
 674   0.0000       1.367407        37.2090 
 675   0.0000       1.370028        37.2803 
 676   0.0000       1.372209        37.3397 
 677   0.0000       1.376018        37.4434 
 678   0.0000       1.378572        37.5128 
 679   0.0000       1.382004        37.6063 
 680   0.0000       1.386216        37.7209 
 681   0.0000       1.389525        37.8109 
 682   0.0000       1.392201        37.8837 
 683   0.0000       1.396848        38.0102 
 684   0.0000       1.397192        38.0195 
 685   0.0000       1.400387        38.1065 
 686   0.0000       1.404621        38.2217 
 687   0.0000       1.409339        38.3501 
 688   0.0000       1.412364        38.4324 
 689   0.0000       1.414890        38.5011 
 690   0.0000       1.417438        38.5704 
 691   0.0000       1.420866        38.6637 
 692   0.0000       1.426743        38.8237 
 693   0.0000       1.430001        38.9123 
 694   0.0000       1.431088        38.9419 
 695   0.0000       1.439392        39.1678 
 696   0.0000       1.441478        39.2246 
 697   0.0000       1.444665        39.3113 
 698   0.0000       1.446922        39.3728 
 699   0.0000       1.448707        39.4213 
 700   0.0000       1.452875        39.5347 
 701   0.0000       1.457970        39.6734 
 702   0.0000       1.461867        39.7794 
 703   0.0000       1.467697        39.9381 
 704   0.0000       1.468993        39.9733 
 705   0.0000       1.470181        40.0057 
 706   0.0000       1.472933        40.0805 
 707   0.0000       1.477090        40.1937 
 708   0.0000       1.479557        40.2608 
 709   0.0000       1.480507        40.2866 
 710   0.0000       1.485412        40.4201 
 711   0.0000       1.490389        40.5555 
 712   0.0000       1.492596        40.6156 
 713   0.0000       1.493313        40.6351 
 714   0.0000       1.497014        40.7358 
 715   0.0000       1.500360        40.8269 
 716   0.0000       1.501889        40.8685 
 717   0.0000       1.504225        40.9321 
 718   0.0000       1.507552        41.0226 
 719   0.0000       1.509771        41.0830 
 720   0.0000       1.516336        41.2616 
 721   0.0000       1.518622        41.3238 
 722   0.0000       1.526059        41.5262 
 723   0.0000       1.527365        41.5617 
 724   0.0000       1.528897        41.6034 
 725   0.0000       1.531227        41.6668 
 726   0.0000       1.532127        41.6913 
 727   0.0000       1.535507        41.7833 
 728   0.0000       1.536727        41.8165 
 729   0.0000       1.541815        41.9549 
 730   0.0000       1.543654        42.0049 
 731   0.0000       1.546684        42.0874 
 732   0.0000       1.547999        42.1232 
 733   0.0000       1.550041        42.1788 
 734   0.0000       1.557751        42.3886 
 735   0.0000       1.563454        42.5437 
 736   0.0000       1.564965        42.5849 
 737   0.0000       1.567989        42.6672 
 738   0.0000       1.569751        42.7151 
 739   0.0000       1.571982        42.7758 
 740   0.0000       1.573797        42.8252 
 741   0.0000       1.576652        42.9029 
 742   0.0000       1.581557        43.0364 
 743   0.0000       1.585953        43.1560 
 744   0.0000       1.590097        43.2687 
 745   0.0000       1.594907        43.3996 
 746   0.0000       1.595894        43.4265 
 747   0.0000       1.598019        43.4843 
 748   0.0000       1.602115        43.5958 
 749   0.0000       1.604864        43.6706 
 750   0.0000       1.606266        43.7087 
 751   0.0000       1.611291        43.8455 
 752   0.0000       1.614022        43.9198 
 753   0.0000       1.615107        43.9493 
 754   0.0000       1.619475        44.0682 
 755   0.0000       1.622125        44.1403 
 756   0.0000       1.624689        44.2100 
 757   0.0000       1.633775        44.4573 
 758   0.0000       1.635706        44.5098 
 759   0.0000       1.639383        44.6099 
 760   0.0000       1.640962        44.6528 
 761   0.0000       1.644759        44.7562 
 762   0.0000       1.645412        44.7739 
 763   0.0000       1.646721        44.8096 
 764   0.0000       1.650213        44.9046 
 765   0.0000       1.651443        44.9380 
 766   0.0000       1.655188        45.0400 
 767   0.0000       1.657111        45.0923 
 768   0.0000       1.658396        45.1272 
 769   0.0000       1.661326        45.2070 
 770   0.0000       1.661827        45.2206 
 771   0.0000       1.664965        45.3060 
 772   0.0000       1.666502        45.3478 
 773   0.0000       1.669945        45.4415 
 774   0.0000       1.672717        45.5169 
 775   0.0000       1.677684        45.6521 
 776   0.0000       1.680725        45.7348 
 777   0.0000       1.686001        45.8784 
 778   0.0000       1.692206        46.0473 
 779   0.0000       1.694507        46.1099 
 780   0.0000       1.698488        46.2182 
 781   0.0000       1.702358        46.3235 
 782   0.0000       1.704907        46.3929 
 783   0.0000       1.707206        46.4554 
 784   0.0000       1.713776        46.6342 
 785   0.0000       1.716620        46.7116 
 786   0.0000       1.719252        46.7832 
 787   0.0000       1.723725        46.9049 
 788   0.0000       1.726932        46.9922 
 789   0.0000       1.730963        47.1019 
 790   0.0000       1.733198        47.1627 
 791   0.0000       1.734488        47.1978 
 792   0.0000       1.737068        47.2680 
 793   0.0000       1.739556        47.3357 
 794   0.0000       1.746956        47.5371 
 795   0.0000       1.750753        47.6404 
 796   0.0000       1.751492        47.6605 
 797   0.0000       1.753375        47.7118 
 798   0.0000       1.755635        47.7733 
 799   0.0000       1.759446        47.8770 
 800   0.0000       1.766119        48.0586 
 801   0.0000       1.768984        48.1365 
 802   0.0000       1.770078        48.1663 
 803   0.0000       1.778100        48.3846 
 804   0.0000       1.779386        48.4196 
 805   0.0000       1.781992        48.4905 
 806   0.0000       1.787850        48.6499 
 807   0.0000       1.792260        48.7699 
 808   0.0000       1.793851        48.8132 
 809   0.0000       1.794751        48.8377 
 810   0.0000       1.800158        48.9848 
 811   0.0000       1.801333        49.0168 
 812   0.0000       1.806261        49.1509 
 813   0.0000       1.812007        49.3072 
 814   0.0000       1.819527        49.5118 
 815   0.0000       1.820439        49.5367 
 816   0.0000       1.822727        49.5989 
 817   0.0000       1.830351        49.8064 
 818   0.0000       1.836525        49.9744 
 819   0.0000       1.842470        50.1362 
 820   0.0000       1.848302        50.2948 
 821   0.0000       1.852127        50.3989 
 822   0.0000       1.854049        50.4512 
 823   0.0000       1.856573        50.5199 
 824   0.0000       1.861490        50.6537 
 825   0.0000       1.867333        50.8127 
 826   0.0000       1.867924        50.8288 
 827   0.0000       1.872523        50.9539 
 828   0.0000       1.876157        51.0528 
 829   0.0000       1.879592        51.1463 
 830   0.0000       1.883270        51.2464 
 831   0.0000       1.885678        51.3119 
 832   0.0000       1.889105        51.4052 
 833   0.0000       1.892626        51.5010 
 834   0.0000       1.895857        51.5889 
 835   0.0000       1.896894        51.6171 
 836   0.0000       1.905531        51.8521 
 837   0.0000       1.909861        51.9700 
 838   0.0000       1.917166        52.1687 
 839   0.0000       1.918760        52.2121 
 840   0.0000       1.921571        52.2886 
 841   0.0000       1.922971        52.3267 
 842   0.0000       1.926194        52.4144 
 843   0.0000       1.929610        52.5074 
 844   0.0000       1.939773        52.7839 
 845   0.0000       1.942419        52.8559 
 846   0.0000       1.950663        53.0802 
 847   0.0000       1.952529        53.1310 
 848   0.0000       1.956758        53.2461 
 849   0.0000       1.959334        53.3162 
 850   0.0000       1.968498        53.5656 
 851   0.0000       1.970238        53.6129 
 852   0.0000       1.979831        53.8740 
 853   0.0000       1.985905        54.0392 
 854   0.0000       1.988985        54.1230 
 855   0.0000       1.994026        54.2602 
 856   0.0000       1.996027        54.3147 
 857   0.0000       2.001333        54.4590 
 858   0.0000       2.009894        54.6920 
 859   0.0000       2.012581        54.7651 
 860   0.0000       2.018004        54.9127 
 861   0.0000       2.023784        55.0700 
 862   0.0000       2.025662        55.1211 
 863   0.0000       2.031856        55.2896 
 864   0.0000       2.038683        55.4754 
 865   0.0000       2.039850        55.5071 
 866   0.0000       2.045148        55.6513 
 867   0.0000       2.047791        55.7232 
 868   0.0000       2.050455        55.7957 
 869   0.0000       2.052699        55.8568 
 870   0.0000       2.055027        55.9201 
 871   0.0000       2.062666        56.1280 
 872   0.0000       2.064844        56.1873 
 873   0.0000       2.066099        56.2214 
 874   0.0000       2.070713        56.3470 
 875   0.0000       2.072301        56.3902 
 876   0.0000       2.076092        56.4933 
 877   0.0000       2.080083        56.6019 
 878   0.0000       2.087105        56.7930 
 879   0.0000       2.090412        56.8830 
 880   0.0000       2.093931        56.9788 
 881   0.0000       2.096664        57.0531 
 882   0.0000       2.098791        57.1110 
 883   0.0000       2.102482        57.2114 
 884   0.0000       2.107936        57.3599 
 885   0.0000       2.110057        57.4176 
 886   0.0000       2.115490        57.5654 
 887   0.0000       2.118705        57.6529 
 888   0.0000       2.120201        57.6936 
 889   0.0000       2.126732        57.8713 
 890   0.0000       2.128245        57.9125 
 891   0.0000       2.132045        58.0159 
 892   0.0000       2.136218        58.1295 
 893   0.0000       2.141704        58.2787 
 894   0.0000       2.143391        58.3246 
 895   0.0000       2.148255        58.4570 
 896   0.0000       2.153334        58.5952 
 897   0.0000       2.157741        58.7151 
 898   0.0000       2.160192        58.7818 
 899   0.0000       2.164502        58.8991 
 900   0.0000       2.170395        59.0595 
 901   0.0000       2.174123        59.1609 
 902   0.0000       2.175254        59.1917 
 903   0.0000       2.178930        59.2917 
 904   0.0000       2.181994        59.3751 
 905   0.0000       2.185516        59.4709 
 906   0.0000       2.187614        59.5280 
 907   0.0000       2.190365        59.6028 
 908   0.0000       2.196309        59.7646 
 909   0.0000       2.198259        59.8177 
 910   0.0000       2.204605        59.9903 
 911   0.0000       2.205307        60.0095 
 912   0.0000       2.208002        60.0828 
 913   0.0000       2.212526        60.2059 
 914   0.0000       2.213917        60.2437 
 915   0.0000       2.220925        60.4344 
 916   0.0000       2.226366        60.5825 
 917   0.0000       2.232506        60.7496 
 918   0.0000       2.237513        60.8858 
 919   0.0000       2.239328        60.9352 
 920   0.0000       2.246491        61.1301 
 921   0.0000       2.248982        61.1979 
 922   0.0000       2.260673        61.5160 
 923   0.0000       2.263821        61.6017 
 924   0.0000       2.269555        61.7577 
 925   0.0000       2.270516        61.7839 
 926   0.0000       2.276640        61.9505 
 927   0.0000       2.280322        62.0507 
 928   0.0000       2.286535        62.2198 
 929   0.0000       2.299239        62.5655 
 930   0.0000       2.300965        62.6124 
 931   0.0000       2.305951        62.7481 
 932   0.0000       2.310517        62.8724 
 933   0.0000       2.313540        62.9546 
 934   0.0000       2.316450        63.0338 
 935   0.0000       2.324746        63.2596 
 936   0.0000       2.332960        63.4831 
 937   0.0000       2.347964        63.8913 
 938   0.0000       2.357419        64.1486 
 939   0.0000       2.360620        64.2357 
 940   0.0000       2.368586        64.4525 
 941   0.0000       2.372467        64.5581 
 942   0.0000       2.380639        64.7805 
 943   0.0000       2.387281        64.9612 
 944   0.0000       2.392616        65.1064 
 945   0.0000       2.397837        65.2485 
 946   0.0000       2.399454        65.2925 
 947   0.0000       2.409816        65.5744 
 948   0.0000       2.411907        65.6313 
 949   0.0000       2.420467        65.8642 
 950   0.0000       2.425259        65.9947 
 951   0.0000       2.428547        66.0841 
 952   0.0000       2.433827        66.2278 
 953   0.0000       2.435211        66.2655 
 954   0.0000       2.442778        66.4714 
 955   0.0000       2.445664        66.5499 
 956   0.0000       2.454077        66.7788 
 957   0.0000       2.458349        66.8951 
 958   0.0000       2.460505        66.9537 
 959   0.0000       2.472853        67.2898 
 960   0.0000       2.474533        67.3355 
 961   0.0000       2.484233        67.5994 
 962   0.0000       2.489226        67.7353 
 963   0.0000       2.496217        67.9255 
 964   0.0000       2.499640        68.0187 
 965   0.0000       2.502110        68.0859 
 966   0.0000       2.506699        68.2107 
 967   0.0000       2.508910        68.2709 
 968   0.0000       2.519781        68.5667 
 969   0.0000       2.522079        68.6293 
 970   0.0000       2.527978        68.7898 
 971   0.0000       2.534517        68.9677 
 972   0.0000       2.537959        69.0614 
 973   0.0000       2.540535        69.1315 
 974   0.0000       2.546624        69.2972 
 975   0.0000       2.546846        69.3032 
 976   0.0000       2.550450        69.4013 
 977   0.0000       2.554686        69.5166 
 978   0.0000       2.559096        69.6366 
 979   0.0000       2.564390        69.7806 
 980   0.0000       2.568163        69.8833 
 981   0.0000       2.570040        69.9343 
 982   0.0000       2.578029        70.1517 
 983   0.0000       2.582611        70.2764 
 984   0.0000       2.585835        70.3642 
 985   0.0000       2.593238        70.5656 
 986   0.0000       2.597111        70.6710 
 987   0.0000       2.599042        70.7235 
 988   0.0000       2.605346        70.8951 
 989   0.0000       2.609723        71.0142 
 990   0.0000       2.613151        71.1075 
 991   0.0000       2.614078        71.1327 
 992   0.0000       2.616267        71.1922 
 993   0.0000       2.621541        71.3357 
 994   0.0000       2.626684        71.4757 
 995   0.0000       2.628763        71.5323 
 996   0.0000       2.630091        71.5684 
 997   0.0000       2.632675        71.6387 
 998   0.0000       2.634442        71.6868 
 999   0.0000       2.636544        71.7440 
 1000   0.0000       2.639497        71.8244 
 1001   0.0000       2.640681        71.8566 
 1002   0.0000       2.648241        72.0623 
 1003   0.0000       2.648745        72.0760 
 1004   0.0000       2.651728        72.1572 
 1005   0.0000       2.655127        72.2497 
 1006   0.0000       2.656200        72.2789 
 1007   0.0000       2.658304        72.3361 
 1008   0.0000       2.663632        72.4811 
 1009   0.0000       2.667293        72.5807 
 1010   0.0000       2.670318        72.6630 
 1011   0.0000       2.674703        72.7824 
 1012   0.0000       2.676533        72.8322 
 1013   0.0000       2.678254        72.8790 
 1014   0.0000       2.679117        72.9025 
 1015   0.0000       2.682537        72.9955 
 1016   0.0000       2.686116        73.0929 
 1017   0.0000       2.688470        73.1570 
 1018   0.0000       2.690925        73.2238 
 1019   0.0000       2.695142        73.3385 
 1020   0.0000       2.698081        73.4185 
 1021   0.0000       2.701011        73.4983 
 1022   0.0000       2.702498        73.5387 
 1023   0.0000       2.706752        73.6545 
 1024   0.0000       2.708490        73.7018 
 1025   0.0000       2.711181        73.7750 
 1026   0.0000       2.715424        73.8905 
 1027   0.0000       2.717534        73.9478 
 1028   0.0000       2.719198        73.9931 
 1029   0.0000       2.720191        74.0202 
 1030   0.0000       2.722195        74.0747 
 1031   0.0000       2.723172        74.1013 
 1032   0.0000       2.724843        74.1468 
 1033   0.0000       2.726494        74.1917 
 1034   0.0000       2.727545        74.2203 
 1035   0.0000       2.730627        74.3041 
 1036   0.0000       2.734042        74.3971 
 1037   0.0000       2.736115        74.4535 
 1038   0.0000       2.740510        74.5731 
 1039   0.0000       2.743783        74.6621 
 1040   0.0000       2.747187        74.7548 
 1041   0.0000       2.751576        74.8742 
 1042   0.0000       2.755868        74.9910 
 1043   0.0000       2.757977        75.0484 
 1044   0.0000       2.760917        75.1284 
 1045   0.0000       2.765512        75.2534 
 1046   0.0000       2.767575        75.3095 
 1047   0.0000       2.772594        75.4461 
 1048   0.0000       2.774913        75.5092 
 1049   0.0000       2.778652        75.6110 
 1050   0.0000       2.781056        75.6764 
 1051   0.0000       2.784106        75.7594 
 1052   0.0000       2.785555        75.7988 
 1053   0.0000       2.788559        75.8805 
 1054   0.0000       2.789543        75.9073 
 1055   0.0000       2.791203        75.9525 
 1056   0.0000       2.794814        76.0507 
 1057   0.0000       2.798566        76.1529 
 1058   0.0000       2.798791        76.1590 
 1059   0.0000       2.802134        76.2499 
 1060   0.0000       2.805331        76.3369 
 1061   0.0000       2.805714        76.3474 
 1062   0.0000       2.807423        76.3939 
 1063   0.0000       2.810383        76.4744 
 1064   0.0000       2.812511        76.5323 
 1065   0.0000       2.815436        76.6119 
 1066   0.0000       2.819980        76.7356 
 1067   0.0000       2.822981        76.8172 
 1068   0.0000       2.827444        76.9387 
 1069   0.0000       2.834270        77.1244 
 1070   0.0000       2.837232        77.2050 
 1071   0.0000       2.838236        77.2323 
 1072   0.0000       2.840593        77.2965 
 1073   0.0000       2.844517        77.4033 
 1074   0.0000       2.847495        77.4843 
 1075   0.0000       2.849980        77.5519 
 1076   0.0000       2.853579        77.6498 
 1077   0.0000       2.856211        77.7215 
 1078   0.0000       2.860072        77.8265 
 1079   0.0000       2.866739        78.0079 
 1080   0.0000       2.870024        78.0973 
 1081   0.0000       2.873027        78.1790 
 1082   0.0000       2.876459        78.2724 
 1083   0.0000       2.877463        78.2997 
 1084   0.0000       2.881100        78.3987 
 1085   0.0000       2.882901        78.4477 
 1086   0.0000       2.885449        78.5171 
 1087   0.0000       2.887282        78.5669 
 1088   0.0000       2.892533        78.7098 
 1089   0.0000       2.894000        78.7497 
 1090   0.0000       2.898872        78.8823 
 1091   0.0000       2.901654        78.9580 
 1092   0.0000       2.901877        78.9641 
 1093   0.0000       2.906562        79.0916 
 1094   0.0000       2.907340        79.1128 
 1095   0.0000       2.912917        79.2645 
 1096   0.0000       2.914995        79.3211 
 1097   0.0000       2.924212        79.5719 
 1098   0.0000       2.925990        79.6202 
 1099   0.0000       2.927582        79.6636 
 1100   0.0000       2.930040        79.7304 
 1101   0.0000       2.933766        79.8318 
 1102   0.0000       2.938694        79.9659 
 1103   0.0000       2.939863        79.9977 
 1104   0.0000       2.945964        80.1638 
 1105   0.0000       2.948147        80.2232 
 1106   0.0000       2.954003        80.3825 
 1107   0.0000       2.955226        80.4158 
 1108   0.0000       2.955887        80.4338 
 1109   0.0000       2.959573        80.5341 
 1110   0.0000       2.962417        80.6115 
 1111   0.0000       2.965719        80.7013 
 1112   0.0000       2.968632        80.7806 
 1113   0.0000       2.971045        80.8462 
 1114   0.0000       2.972349        80.8817 
 1115   0.0000       2.978862        81.0590 
 1116   0.0000       2.980319        81.0986 
 1117   0.0000       2.992967        81.4428 
 1118   0.0000       2.995162        81.5025 
 1119   0.0000       2.998744        81.6000 
 1120   0.0000       3.004607        81.7595 
 1121   0.0000       3.007060        81.8263 
 1122   0.0000       3.009894        81.9034 
 1123   0.0000       3.012333        81.9698 
 1124   0.0000       3.020576        82.1941 
 1125   0.0000       3.023385        82.2705 
 1126   0.0000       3.025867        82.3380 
 1127   0.0000       3.031114        82.4808 
 1128   0.0000       3.031978        82.5043 
 1129   0.0000       3.033180        82.5370 
 1130   0.0000       3.036235        82.6202 
 1131   0.0000       3.040670        82.7408 
 1132   0.0000       3.044724        82.8511 
 1133   0.0000       3.050193        83.0000 
 1134   0.0000       3.052558        83.0643 
 1135   0.0000       3.054310        83.1120 
 1136   0.0000       3.056931        83.1833 
 1137   0.0000       3.059133        83.2432 
 1138   0.0000       3.064484        83.3888 
 1139   0.0000       3.065449        83.4151 
 1140   0.0000       3.070786        83.5603 
 1141   0.0000       3.072852        83.6166 
 1142   0.0000       3.082027        83.8662 
 1143   0.0000       3.085730        83.9670 
 1144   0.0000       3.086952        84.0002 
 1145   0.0000       3.093619        84.1817 
 1146   0.0000       3.096124        84.2498 
 1147   0.0000       3.097390        84.2843 
 1148   0.0000       3.099136        84.3318 
 1149   0.0000       3.102411        84.4209 
 1150   0.0000       3.105087        84.4937 
 1151   0.0000       3.106254        84.5255 
 1152   0.0000       3.107282        84.5534 
 1153   0.0000       3.109078        84.6023 
 1154   0.0000       3.120460        84.9120 
 1155   0.0000       3.122468        84.9667 
 1156   0.0000       3.125224        85.0417 
 1157   0.0000       3.127652        85.1077 
 1158   0.0000       3.131591        85.2149 
 1159   0.0000       3.134086        85.2828 
 1160   0.0000       3.138524        85.4036 
 1161   0.0000       3.141455        85.4833 
 1162   0.0000       3.143354        85.5350 
 1163   0.0000       3.145705        85.5990 
 1164   0.0000       3.147321        85.6429 
 1165   0.0000       3.148183        85.6664 
 1166   0.0000       3.152348        85.7798 
 1167   0.0000       3.153990        85.8244 
 1168   0.0000       3.158025        85.9342 
 1169   0.0000       3.161203        86.0207 
 1170   0.0000       3.165311        86.1325 
 1171   0.0000       3.168359        86.2154 
 1172   0.0000       3.171672        86.3056 
 1173   0.0000       3.173258        86.3488 
 1174   0.0000       3.178136        86.4815 
 1175   0.0000       3.180601        86.5486 
 1176   0.0000       3.183295        86.6219 
 1177   0.0000       3.187852        86.7459 
 1178   0.0000       3.191368        86.8415 
 1179   0.0000       3.192047        86.8600 
 1180   0.0000       3.196036        86.9685 
 1181   0.0000       3.197894        87.0191 
 1182   0.0000       3.202265        87.1381 
 1183   0.0000       3.206707        87.2589 
 1184   0.0000       3.210624        87.3655 
 1185   0.0000       3.213254        87.4371 
 1186   0.0000       3.214877        87.4812 
 1187   0.0000       3.220168        87.6252 
 1188   0.0000       3.223177        87.7071 
 1189   0.0000       3.224909        87.7542 
 1190   0.0000       3.228504        87.8521 
 1191   0.0000       3.232415        87.9585 
 1192   0.0000       3.234715        88.0211 
 1193   0.0000       3.235737        88.0489 
 1194   0.0000       3.238630        88.1276 
 1195   0.0000       3.240688        88.1836 
 1196   0.0000       3.242226        88.2255 
 1197   0.0000       3.246690        88.3469 
 1198   0.0000       3.248452        88.3949 
 1199   0.0000       3.256113        88.6033 
 1200   0.0000       3.264018        88.8184 
 1201   0.0000       3.267697        88.9186 
 1202   0.0000       3.274333        89.0991 
 1203   0.0000       3.279483        89.2393 
 1204   0.0000       3.281901        89.3051 
 1205   0.0000       3.287284        89.4515 
 1206   0.0000       3.289814        89.5204 
 1207   0.0000       3.293782        89.6284 
 1208   0.0000       3.294671        89.6526 
 1209   0.0000       3.295320        89.6702 
 1210   0.0000       3.301537        89.8394 
 1211   0.0000       3.303663        89.8972 
 1212   0.0000       3.305982        89.9604 
 1213   0.0000       3.307003        89.9881 
 1214   0.0000       3.310139        90.0735 
 1215   0.0000       3.310767        90.0905 
 1216   0.0000       3.315259        90.2128 
 1217   0.0000       3.318275        90.2948 
 1218   0.0000       3.319333        90.3236 
 1219   0.0000       3.322238        90.4027 
 1220   0.0000       3.326472        90.5179 
 1221   0.0000       3.327994        90.5593 
 1222   0.0000       3.329257        90.5937 
 1223   0.0000       3.329936        90.6122 
 1224   0.0000       3.333447        90.7077 
 1225   0.0000       3.335350        90.7595 
 1226   0.0000       3.338506        90.8454 
 1227   0.0000       3.345018        91.0226 
 1228   0.0000       3.348674        91.1220 
 1229   0.0000       3.351358        91.1951 
 1230   0.0000       3.352109        91.2155 
 1231   0.0000       3.356510        91.3353 
 1232   0.0000       3.358292        91.3838 
 1233   0.0000       3.359226        91.4092 
 1234   0.0000       3.365162        91.5707 
 1235   0.0000       3.370416        91.7137 
 1236   0.0000       3.373066        91.7858 
 1237   0.0000       3.374283        91.8189 
 1238   0.0000       3.376993        91.8927 
 1239   0.0000       3.380563        91.9898 
 1240   0.0000       3.382183        92.0339 
 1241   0.0000       3.383642        92.0736 
 1242   0.0000       3.386603        92.1542 
 1243   0.0000       3.389823        92.2418 
 1244   0.0000       3.391499        92.2874 
 1245   0.0000       3.396967        92.4362 
 1246   0.0000       3.398763        92.4850 
 1247   0.0000       3.401582        92.5618 
 1248   0.0000       3.404964        92.6538 
 1249   0.0000       3.406898        92.7064 
 1250   0.0000       3.409521        92.7778 
 1251   0.0000       3.410625        92.8078 
 1252   0.0000       3.412356        92.8549 
 1253   0.0000       3.416784        92.9754 
 1254   0.0000       3.420991        93.0899 
 1255   0.0000       3.424226        93.1779 
 1256   0.0000       3.426852        93.2494 
 1257   0.0000       3.430455        93.3474 
 1258   0.0000       3.431622        93.3792 
 1259   0.0000       3.433908        93.4414 
 1260   0.0000       3.437175        93.5303 
 1261   0.0000       3.443755        93.7093 
 1262   0.0000       3.445207        93.7489 
 1263   0.0000       3.448763        93.8456 
 1264   0.0000       3.456424        94.0541 
 1265   0.0000       3.460717        94.1709 
 1266   0.0000       3.465384        94.2979 
 1267   0.0000       3.466440        94.3266 
 1268   0.0000       3.468508        94.3829 
 1269   0.0000       3.470983        94.4503 
 1270   0.0000       3.472821        94.5003 
 1271   0.0000       3.474703        94.5515 
 1272   0.0000       3.476647        94.6044 
 1273   0.0000       3.480424        94.7072 
 1274   0.0000       3.482182        94.7550 
 1275   0.0000       3.486297        94.8670 
 1276   0.0000       3.491485        95.0081 
 1277   0.0000       3.494628        95.0937 
 1278   0.0000       3.496403        95.1420 
 1279   0.0000       3.497785        95.1796 
 1280   0.0000       3.499365        95.2226 
 1281   0.0000       3.504455        95.3611 
 1282   0.0000       3.507859        95.4537 
 1283   0.0000       3.509263        95.4919 
 1284   0.0000       3.510922        95.5371 
 1285   0.0000       3.513818        95.6159 
 1286   0.0000       3.515898        95.6724 
 1287   0.0000       3.517435        95.7143 
 1288   0.0000       3.519090        95.7593 
 1289   0.0000       3.521046        95.8125 
 1290   0.0000       3.528832        96.0244 
 1291   0.0000       3.532556        96.1257 
 1292   0.0000       3.535085        96.1945 
 1293   0.0000       3.537422        96.2582 
 1294   0.0000       3.540720        96.3479 
 1295   0.0000       3.543238        96.4164 
 1296   0.0000       3.546856        96.5149 
 1297   0.0000       3.549299        96.5813 
 1298   0.0000       3.556728        96.7835 
 1299   0.0000       3.558644        96.8356 
 1300   0.0000       3.564526        96.9957 
 1301   0.0000       3.568374        97.1004 
 1302   0.0000       3.573138        97.2300 
 1303   0.0000       3.579103        97.3923 
 1304   0.0000       3.580962        97.4429 
 1305   0.0000       3.584076        97.5277 
 1306   0.0000       3.589798        97.6834 
 1307   0.0000       3.591672        97.7344 
 1308   0.0000       3.593647        97.7881 
 1309   0.0000       3.599765        97.9546 
 1310   0.0000       3.601109        97.9912 
 1311   0.0000       3.605054        98.0985 
 1312   0.0000       3.609757        98.2265 
 1313   0.0000       3.613624        98.3317 
 1314   0.0000       3.618905        98.4754 
 1315   0.0000       3.619489        98.4913 
 1316   0.0000       3.626305        98.6768 
 1317   0.0000       3.631047        98.8058 
 1318   0.0000       3.638973        99.0215 
 1319   0.0000       3.642540        99.1185 
 1320   0.0000       3.643924        99.1562 
 1321   0.0000       3.649257        99.3013 
 1322   0.0000       3.650763        99.3423 
 1323   0.0000       3.655023        99.4582 
 1324   0.0000       3.664030        99.7033 
 1325   0.0000       3.667900        99.8086 
 1326   0.0000       3.675721       100.0215 
 1327   0.0000       3.682438       100.2042 
 1328   0.0000       3.685055       100.2754 
 1329   0.0000       3.688036       100.3566 
 1330   0.0000       3.693565       100.5070 
 1331   0.0000       3.703071       100.7657 
 1332   0.0000       3.705523       100.8324 
 1333   0.0000       3.710975       100.9808 
 1334   0.0000       3.718805       101.1938 
 1335   0.0000       3.737098       101.6916 
 1336   0.0000       3.745547       101.9215 
 1337   0.0000       3.746367       101.9438 
 1338   0.0000       3.754343       102.1609 
 1339   0.0000       3.755478       102.1918 
 1340   0.0000       3.760388       102.3254 
 1341   0.0000       3.782018       102.9140 
 1342   0.0000       3.788039       103.0778 
 1343   0.0000       3.797947       103.3474 
 1344   0.0000       3.807678       103.6122 
 1345   0.0000       3.812353       103.7394 
 1346   0.0000       3.818844       103.9160 
 1347   0.0000       3.827160       104.1423 
 1348   0.0000       3.832792       104.2956 
 1349   0.0000       3.836175       104.3876 
 1350   0.0000       3.841480       104.5320 
 1351   0.0000       3.848747       104.7297 
 1352   0.0000       3.852332       104.8273 
 1353   0.0000       3.861063       105.0649 
 1354   0.0000       3.862052       105.0918 
 1355   0.0000       3.867685       105.2450 
 1356   0.0000       3.873538       105.4043 
 1357   0.0000       3.882793       105.6562 
 1358   0.0000       3.883400       105.6727 
 1359   0.0000       3.891408       105.8906 
 1360   0.0000       3.901123       106.1550 
 1361   0.0000       3.911662       106.4417 
 1362   0.0000       3.920902       106.6932 
 1363   0.0000       3.922716       106.7425 
 1364   0.0000       3.936470       107.1168 
 1365   0.0000       3.939464       107.1983 
 1366   0.0000       3.946810       107.3982 
 1367   0.0000       3.951054       107.5137 
 1368   0.0000       3.956771       107.6692 
 1369   0.0000       3.960668       107.7753 
 1370   0.0000       3.963352       107.8483 
 1371   0.0000       3.972123       108.0870 
 1372   0.0000       3.973759       108.1315 
 1373   0.0000       3.986823       108.4870 
 1374   0.0000       3.987563       108.5071 
 1375   0.0000       3.997443       108.7760 
 1376   0.0000       4.006880       109.0327 
 1377   0.0000       4.009308       109.0988 
 1378   0.0000       4.014637       109.2438 
 1379   0.0000       4.015565       109.2691 
 1380   0.0000       4.022490       109.4575 
 1381   0.0000       4.025352       109.5354 
 1382   0.0000       4.036305       109.8334 
 1383   0.0000       4.043335       110.0247 
 1384   0.0000       4.044527       110.0572 
 1385   0.0000       4.054194       110.3202 
 1386   0.0000       4.056575       110.3850 
 1387   0.0000       4.065618       110.6311 
 1388   0.0000       4.067760       110.6894 
 1389   0.0000       4.073635       110.8493 
 1390   0.0000       4.088527       111.2545 
 1391   0.0000       4.091473       111.3347 
 1392   0.0000       4.095980       111.4573 
 1393   0.0000       4.099917       111.5644 
 1394   0.0000       4.101703       111.6130 
 1395   0.0000       4.107152       111.7613 
 1396   0.0000       4.110664       111.8568 
 1397   0.0000       4.117086       112.0316 
 1398   0.0000       4.117598       112.0455 
 1399   0.0000       4.119180       112.0886 
 1400   0.0000       4.126166       112.2787 
 1401   0.0000       4.127988       112.3283 
 1402   0.0000       4.136390       112.5569 
 1403   0.0000       4.137133       112.5771 
 1404   0.0000       4.139938       112.6534 
 1405   0.0000       4.143262       112.7439 
 1406   0.0000       4.145090       112.7936 
 1407   0.0000       4.153623       113.0258 
 1408   0.0000       4.154217       113.0420 
 1409   0.0000       4.157847       113.1408 
 1410   0.0000       4.164322       113.3170 
 1411   0.0000       4.167390       113.4004 
 1412   0.0000       4.172497       113.5394 
 1413   0.0000       4.175316       113.6161 
 1414   0.0000       4.182135       113.8017 
 1415   0.0000       4.183676       113.8436 
 1416   0.0000       4.187859       113.9574 
 1417   0.0000       4.194834       114.1472 
 1418   0.0000       4.194977       114.1511 
 1419   0.0000       4.202760       114.3629 
 1420   0.0000       4.204156       114.4009 
 1421   0.0000       4.207517       114.4924 
 1422   0.0000       4.209904       114.5573 
 1423   0.0000       4.213764       114.6624 
 1424   0.0000       4.218744       114.7979 
 1425   0.0000       4.231826       115.1538 
 1426   0.0000       4.233842       115.2087 
 1427   0.0000       4.237318       115.3033 
 1428   0.0000       4.241275       115.4110 
 1429   0.0000       4.242381       115.4411 
 1430   0.0000       4.245298       115.5204 
 1431   0.0000       4.246668       115.5577 
 1432   0.0000       4.253503       115.7437 
 1433   0.0000       4.254440       115.7692 
 1434   0.0000       4.257144       115.8428 
 1435   0.0000       4.262311       115.9834 
 1436   0.0000       4.263542       116.0169 
 1437   0.0000       4.264824       116.0518 
 1438   0.0000       4.265570       116.0721 
 1439   0.0000       4.272171       116.2517 
 1440   0.0000       4.273201       116.2797 
 1441   0.0000       4.275939       116.3542 
 1442   0.0000       4.284583       116.5894 
 1443   0.0000       4.286797       116.6497 
 1444   0.0000       4.293330       116.8274 
 1445   0.0000       4.294829       116.8682 
 1446   0.0000       4.298428       116.9662 
 1447   0.0000       4.309540       117.2685 
 1448   0.0000       4.317799       117.4933 
 1449   0.0000       4.325972       117.7157 
 1450   0.0000       4.329507       117.8119 
 1451   0.0000       4.334646       117.9517 
 1452   0.0000       4.339713       118.0896 
 1453   0.0000       4.345590       118.2495 
 1454   0.0000       4.349832       118.3650 
 1455   0.0000       4.353092       118.4537 
 1456   0.0000       4.363046       118.7245 
 1457   0.0000       4.368124       118.8627 
 1458   0.0000       4.374185       119.0276 
 1459   0.0000       4.380397       119.1966 
 1460   0.0000       4.385065       119.3237 
 1461   0.0000       4.393632       119.5568 
 1462   0.0000       4.400084       119.7324 
 1463   0.0000       4.410332       120.0112 
 1464   0.0000       4.416982       120.1922 
 1465   0.0000       4.418032       120.2208 
 1466   0.0000       4.426713       120.4570 
 1467   0.0000       4.433475       120.6410 
 1468   0.0000       4.451561       121.1331 
 1469   0.0000       4.462382       121.4276 
 1470   0.0000       4.465928       121.5241 
 1471   0.0000       4.473167       121.7211 
 1472   0.0000       4.497387       122.3801 
 1473   0.0000       4.506359       122.6243 
 1474   0.0000       4.513428       122.8166 
 1475   0.0000       4.518464       122.9536 
 1476   0.0000       4.522141       123.0537 
 1477   0.0000       4.530379       123.2779 
 1478   0.0000       4.547325       123.7390 
 1479   0.0000       4.549848       123.8077 
 1480   0.0000       4.555072       123.9498 
 1481   0.0000       4.560206       124.0895 
 1482   0.0000       4.567037       124.2754 
 1483   0.0000       4.568858       124.3249 
 1484   0.0000       4.592275       124.9622 
 1485   0.0000       4.598547       125.1328 
 1486   0.0000       4.610648       125.4621 
 1487   0.0000       4.620603       125.7330 
 1488   0.0000       4.636796       126.1736 
 1489   0.0000       4.643490       126.3558 
 1490   0.0000       4.649066       126.5075 
 1491   0.0000       4.656732       126.7161 
 1492   0.0000       4.660637       126.8224 
 1493   0.0000       4.679411       127.3332 
 1494   0.0000       4.687040       127.5408 
 1495   0.0000       4.698472       127.8519 
 1496   0.0000       4.700250       127.9003 
 1497   0.0000       4.708149       128.1153 
 1498   0.0000       4.720394       128.4484 
 1499   0.0000       4.730223       128.7159 
 1500   0.0000       4.744824       129.1132 
 1501   0.0000       4.753725       129.3554 
 1502   0.0000       4.761573       129.5690 
 1503   0.0000       4.763735       129.6278 
 1504   0.0000       4.765386       129.6727 
 1505   0.0000       4.781405       130.1086 
 1506   0.0000       4.789299       130.3235 
 1507   0.0000       4.792410       130.4081 
 1508   0.0000       4.795924       130.5037 
 1509   0.0000       4.805142       130.7546 
 1510   0.0000       4.807115       130.8082 
 1511   0.0000       4.812119       130.9444 
 1512   0.0000       4.828269       131.3839 
 1513   0.0000       4.837066       131.6233 
 1514   0.0000       4.843535       131.7993 
 1515   0.0000       4.850650       131.9929 
 1516   0.0000       4.858282       132.2006 
 1517   0.0000       4.863433       132.3407 
 1518   0.0000       4.867699       132.4568 
 1519   0.0000       4.876245       132.6894 
 1520   0.0000       4.885711       132.9470 
 1521   0.0000       4.916344       133.7805 
 1522   0.0000       4.920396       133.8908 
 1523   0.0000       4.924302       133.9971 
 1524   0.0000       4.932033       134.2074 
 1525   0.0000       4.942221       134.4847 
 1526   0.0000       4.951654       134.7413 
 1527   0.0000       4.970306       135.2489 
 1528   0.0000       4.977530       135.4455 
 1529   0.0000       4.983052       135.5957 
 1530   0.0000       4.993448       135.8786 
 1531   0.0000       4.998720       136.0221 
 1532   0.0000       5.011909       136.3810 
 1533   0.0000       5.014124       136.4412 
 1534   0.0000       5.026085       136.7667 
 1535   0.0000       5.032968       136.9540 
 1536   0.0000       5.044623       137.2712 
 1537   0.0000       5.050273       137.4249 
 1538   0.0000       5.065253       137.8325 
 1539   0.0000       5.067374       137.8903 
 1540   0.0000       5.076687       138.1437 
 1541   0.0000       5.082473       138.3011 
 1542   0.0000       5.096089       138.6716 
 1543   0.0000       5.108227       139.0019 
 1544   0.0000       5.134640       139.7207 
 1545   0.0000       5.136599       139.7740 
 1546   0.0000       5.143613       139.9648 
 1547   0.0000       5.155398       140.2855 
 1548   0.0000       5.169369       140.6657 
 1549   0.0000       5.171074       140.7121 
 1550   0.0000       5.174740       140.8118 
 1551   0.0000       5.180267       140.9622 
 1552   0.0000       5.187662       141.1635 
 1553   0.0000       5.193559       141.3239 
 1554   0.0000       5.202886       141.5777 
 1555   0.0000       5.240992       142.6146 
 1556   0.0000       5.258870       143.1011 
 1557   0.0000       5.265895       143.2923 
 1558   0.0000       5.277087       143.5968 
 1559   0.0000       5.281828       143.7258 
 1560   0.0000       5.287573       143.8822 
 1561   0.0000       5.303357       144.3117 
 1562   0.0000       5.308347       144.4475 
 1563   0.0000       5.317571       144.6985 
 1564   0.0000       5.324835       144.8961 
 1565   0.0000       5.335224       145.1788 
 1566   0.0000       5.344190       145.4228 
 1567   0.0000       5.359194       145.8311 
 1568   0.0000       5.372034       146.1805 
 1569   0.0000       5.377794       146.3372 
 1570   0.0000       5.396882       146.8566 
 1571   0.0000       5.408097       147.1618 
 1572   0.0000       5.415406       147.3607 
 1573   0.0000       5.425473       147.6346 
 1574   0.0000       5.429528       147.7450 
 1575   0.0000       5.448387       148.2581 
 1576   0.0000       5.461454       148.6137 
 1577   0.0000       5.470468       148.8590 
 1578   0.0000       5.493237       149.4786 
 1579   0.0000       5.502614       149.7337 
 1580   0.0000       5.508121       149.8836 
 1581   0.0000       5.544791       150.8814 
 1582   0.0000       5.548568       150.9842 
 1583   0.0000       5.551848       151.0735 
 1584   0.0000       5.565639       151.4487 
 1585   0.0000       5.598386       152.3398 
 1586   0.0000       5.602327       152.4471 
 1587   0.0000       5.622954       153.0084 
 1588   0.0000       5.650413       153.7556 
 1589   0.0000       5.654670       153.8714 
 1590   0.0000       5.664317       154.1339 
 1591   0.0000       5.703629       155.2036 
 1592   0.0000       5.734890       156.0543 
 1593   0.0000       5.755250       156.6083 
 1594   0.0000       5.771624       157.0539 
 1595   0.0000       5.787455       157.4846 
 1596   0.0000       5.815048       158.2355 
 1597   0.0000       5.866539       159.6366 
 1598   0.0000       5.903863       160.6523 
 1599   0.0000       5.917438       161.0217 
 1600   0.0000       5.958074       162.1274 
 1601   0.0000       5.965097       162.3185 
 1602   0.0000       6.000195       163.2736 
 1603   0.0000       6.051891       164.6803 
 1604   0.0000       6.125426       166.6813 
 1605   0.0000       6.133972       166.9139 
 1606   0.0000       6.170886       167.9183 
 1607   0.0000       6.182190       168.2259 
 1608   0.0000       6.239329       169.7808 
 1609   0.0000       6.331309       172.2837 
 1610   0.0000       6.499489       176.8601 
 1611   0.0000       8.796106       239.3542 
 1612   0.0000       8.834992       240.4123 
 1613   0.0000       8.986965       244.5478 
 1614   0.0000       9.024896       245.5799 
 1615   0.0000       9.354976       254.5618 
 1616   0.0000       9.399588       255.7758 
 1617   0.0000       9.435469       256.7522 
 1618   0.0000       9.567850       260.3544 
 1619   0.0000       9.627715       261.9834 
 1620   0.0000      19.770396       537.9798 
 1621   0.0000      20.483555       557.3859 
 1622   0.0000      20.736634       564.2725 
 1623   0.0000      22.095892       601.2598 
 1624   0.0000      22.151567       602.7748 
 1625   0.0000      22.159994       603.0041 
 1626   0.0000      22.178120       603.4973 
 1627   0.0000      22.190681       603.8391 
 1628   0.0000      22.463565       611.2647 
 1629   0.0000      22.595861       614.8646 
 1630   0.0000      22.607251       615.1746 
 1631   0.0000      22.619759       615.5149 
 1632   0.0000      22.625281       615.6652 
 1633   0.0000      22.636197       615.9622 
 1634   0.0000      22.644959       616.2007 
 1635   0.0000      22.653479       616.4325 
 1636   0.0000      22.665940       616.7716 
 1637   0.0000      22.695291       617.5703 
 1638   0.0000      22.717365       618.1709 
 1639   0.0000      22.718239       618.1947 
 1640   0.0000      22.721349       618.2793 
 1641   0.0000      22.744530       618.9101 
 1642   0.0000      22.765827       619.4896 
 1643   0.0000      22.778020       619.8214 
 1644   0.0000      22.786209       620.0443 
 1645   0.0000      22.805238       620.5621 
 1646   0.0000      22.813480       620.7863 
 1647   0.0000      22.860537       622.0668 
 1648   0.0000      22.868283       622.2776 
 1649   0.0000      22.881023       622.6243 
 1650   0.0000      22.884528       622.7197 
 1651   0.0000      22.886028       622.7605 
 1652   0.0000      22.920269       623.6922 
 1653   0.0000      22.926553       623.8632 
 1654   0.0000      22.996839       625.7758 
 1655   0.0000      23.123685       629.2275 
 1656   0.0000      23.188318       630.9862 
 1657   0.0000      23.249308       632.6458 
 1658   0.0000      23.263977       633.0450 
 1659   0.0000      23.277606       633.4159 
 1660   0.0000      23.300913       634.0501 
 1661   0.0000      23.313398       634.3898 
 1662   0.0000      23.325520       634.7197 
 1663   0.0000      23.571532       641.4140 
 1664   0.0000      23.840635       648.7367 
 1665   0.0000      33.206642       903.5987 
 1666   0.0000      33.272578       905.3929 
 1667   0.0000      33.319689       906.6748 

                    ********************************
                    * MULLIKEN POPULATION ANALYSIS *
                    ********************************

--------------------------------------------
MULLIKEN ATOMIC CHARGES AND SPIN POPULATIONS
--------------------------------------------
   0 C :    0.054568   -0.000031
   1 C :   -0.233190    0.000036
   2 C :   -0.111997   -0.000015
   3 C :    0.107952    0.000012
   4 C :   -0.143757   -0.000003
   5 C :   -0.234436    0.000029
   6 S :   -0.084512   -0.000001
   7 N :    0.053096    0.000433
   8 C :    0.090148    0.000861
   9 C :    0.170209   -0.000305
  10 C :    0.208282    0.000464
  11 C :    0.098210   -0.000482
  12 C :   -0.314582    0.006805
  13 C :   -0.039638   -0.000646
  14 C :   -0.183849    0.007187
  15 C :   -0.127578   -0.000871
  16 C :   -0.161793    0.000639
  17 C :   -0.123979   -0.000591
  18 C :    0.086708    0.000500
  19 C :   -0.547564   -0.000648
  20 N :    0.084967    0.288375
  21 C :    0.147555    0.021005
  22 C :   -0.009365    0.118612
  23 S :    0.157194    0.295207
  24 C :   -0.009807    0.118297
  25 C :    0.145459    0.020832
  26 N :   -0.040374   -0.000010
  27 C :    0.163856   -0.000035
  28 C :   -0.037643    0.000006
  29 S :   -0.010008    0.000000
  30 C :   -0.035080   -0.000010
  31 C :    0.150569    0.000005
  32 C :   -0.147788    0.015952
  33 C :   -0.122352    0.017777
  34 C :   -0.116567    0.086951
  35 C :   -0.152426   -0.053281
  36 C :   -0.152626   -0.053260
  37 C :   -0.116858    0.086935
  38 C :   -0.122200    0.017538
  39 C :   -0.143712    0.016215
  40 C :   -0.140210   -0.000003
  41 C :   -0.151134    0.000002
  42 C :   -0.144925    0.000010
  43 C :   -0.195293    0.000003
  44 C :   -0.216972    0.000017
  45 C :   -0.138952    0.000004
  46 C :   -0.155686    0.000004
  47 C :   -0.136294   -0.000006
  48 H :    0.149632   -0.000006
  49 H :    0.147692   -0.000001
  50 H :    0.141080    0.000004
  51 H :    0.144997   -0.000002
  52 H :    0.137198   -0.000000
  53 H :    0.139399   -0.000530
  54 H :    0.140516   -0.000459
  55 H :    0.167564    0.000504
  56 H :    0.157036    0.000029
  57 H :    0.150808    0.000022
  58 H :    0.136783    0.000016
  59 H :    0.199662   -0.001578
  60 H :    0.165920   -0.000563
  61 H :    0.169485   -0.003912
  62 H :    0.164927    0.001025
  63 H :    0.165108    0.001025
  64 H :    0.169366   -0.003910
  65 H :    0.165753   -0.000559
  66 H :    0.197602   -0.001617
  67 H :    0.136129    0.000002
  68 H :    0.129928    0.000000
  69 H :    0.119834   -0.000001
  70 H :    0.148480   -0.000010
  71 H :    0.152988    0.000005
  72 H :    0.120247    0.000000
  73 H :    0.129994    0.000000
  74 H :    0.136241    0.000000
Sum of atomic charges         :    1.0000000
Sum of atomic spin populations:    1.0000000

-----------------------------------------------------
MULLIKEN REDUCED ORBITAL CHARGES AND SPIN POPULATIONS
-----------------------------------------------------
CHARGE
  0 C s       :     3.241242  s :     3.241242
      pz      :     0.886913  p :     2.540673
      px      :     0.614398
      py      :     1.039362
      dz2     :     0.025581  d :     0.150721
      dxz     :     0.060666
      dyz     :     0.023664
      dx2y2   :     0.018581
      dxy     :     0.022229
      f0      :     0.003077  f :     0.012796
      f+1     :     0.001733
      f-1     :     0.001210
      f+2     :     0.002537
      f-2     :     0.001070
      f+3     :     0.001683
      f-3     :     0.001486
  1 C s       :     3.283680  s :     3.283680
      pz      :     0.970897  p :     2.864499
      px      :     0.942727
      py      :     0.950875
      dz2     :     0.011675  d :     0.077670
      dxz     :     0.026507
      dyz     :     0.009401
      dx2y2   :     0.007569
      dxy     :     0.022517
      f0      :     0.001310  f :     0.007341
      f+1     :     0.001065
      f-1     :     0.000729
      f+2     :     0.001472
      f-2     :     0.000575
      f+3     :     0.000552
      f-3     :     0.001638
  2 C s       :     3.209148  s :     3.209148
      pz      :     0.945537  p :     2.818279
      px      :     0.893950
      py      :     0.978792
      dz2     :     0.012461  d :     0.077117
      dxz     :     0.027518
      dyz     :     0.009517
      dx2y2   :     0.009003
      dxy     :     0.018618
      f0      :     0.001413  f :     0.007454
      f+1     :     0.001135
      f-1     :     0.000766
      f+2     :     0.001503
      f-2     :     0.000512
      f+3     :     0.000532
      f-3     :     0.001594
  3 C s       :     3.141826  s :     3.141826
      pz      :     0.830420  p :     2.611935
      px      :     0.874523
      py      :     0.906992
      dz2     :     0.030518  d :     0.129028
      dxz     :     0.027641
      dyz     :     0.021799
      dx2y2   :     0.016554
      dxy     :     0.032516
      f0      :     0.002054  f :     0.009259
      f+1     :     0.001181
      f-1     :     0.001150
      f+2     :     0.001673
      f-2     :     0.001022
      f+3     :     0.000941
      f-3     :     0.001238
  4 C s       :     3.167558  s :     3.167558
      pz      :     0.954359  p :     2.889251
      px      :     0.945217
      py      :     0.989676
      dz2     :     0.013206  d :     0.079650
      dxz     :     0.027254
      dyz     :     0.008693
      dx2y2   :     0.011541
      dxy     :     0.018957
      f0      :     0.001360  f :     0.007298
      f+1     :     0.001169
      f-1     :     0.000700
      f+2     :     0.001460
      f-2     :     0.000502
      f+3     :     0.000519
      f-3     :     0.001588
  5 C s       :     3.276455  s :     3.276455
      pz      :     0.959372  p :     2.872717
      px      :     0.959275
      py      :     0.954070
      dz2     :     0.011581  d :     0.077933
      dxz     :     0.026645
      dyz     :     0.010036
      dx2y2   :     0.007498
      dxy     :     0.022173
      f0      :     0.001317  f :     0.007331
      f+1     :     0.001047
      f-1     :     0.000792
      f+2     :     0.001440
      f-2     :     0.000541
      f+3     :     0.000549
      f-3     :     0.001644
  6 S s       :     5.760978  s :     5.760978
      pz      :     3.237095  p :    10.191894
      px      :     3.094107
      py      :     3.860692
      dz2     :     0.047159  d :     0.120326
      dxz     :     0.016983
      dyz     :     0.005793
      dx2y2   :     0.029999
      dxy     :     0.020392
      f0      :     0.002937  f :     0.011314
      f+1     :     0.001344
      f-1     :     0.000822
      f+2     :     0.001176
      f-2     :     0.000108
      f+3     :     0.002818
      f-3     :     0.002109
  7 N s       :     3.425205  s :     3.425205
      pz      :     1.539812  p :     3.426041
      px      :     0.890368
      py      :     0.995861
      dz2     :     0.005823  d :     0.090585
      dxz     :     0.014320
      dyz     :     0.015894
      dx2y2   :     0.027083
      dxy     :     0.027465
      f0      :     0.000857  f :     0.005074
      f+1     :     0.000695
      f-1     :     0.000514
      f+2     :     0.000319
      f-2     :     0.000544
      f+3     :     0.000762
      f-3     :     0.001382
  8 C s       :     3.051210  s :     3.051210
      pz      :     0.931484  p :     2.691018
      px      :     0.911123
      py      :     0.848411
      dz2     :     0.004144  d :     0.153085
      dxz     :     0.030215
      dyz     :     0.041436
      dx2y2   :     0.032807
      dxy     :     0.044482
      f0      :     0.002344  f :     0.014539
      f+1     :     0.000811
      f-1     :     0.001089
      f+2     :     0.001202
      f-2     :     0.002209
      f+3     :     0.003247
      f-3     :     0.003637
  9 C s       :     3.161318  s :     3.161318
      pz      :     0.976204  p :     2.538227
      px      :     0.847075
      py      :     0.714948
      dz2     :     0.005976  d :     0.119560
      dxz     :     0.019548
      dyz     :     0.031321
      dx2y2   :     0.027004
      dxy     :     0.035710
      f0      :     0.001912  f :     0.010687
      f+1     :     0.000626
      f-1     :     0.000724
      f+2     :     0.001188
      f-2     :     0.000980
      f+3     :     0.003102
      f-3     :     0.002155
 10 C s       :     3.209771  s :     3.209771
      pz      :     0.992992  p :     2.451931
      px      :     0.797790
      py      :     0.661149
      dz2     :     0.006440  d :     0.119304
      dxz     :     0.022368
      dyz     :     0.026546
      dx2y2   :     0.029334
      dxy     :     0.034616
      f0      :     0.001945  f :     0.010712
      f+1     :     0.000604
      f-1     :     0.000751
      f+2     :     0.001120
      f-2     :     0.001039
      f+3     :     0.003097
      f-3     :     0.002156
 11 C s       :     3.051078  s :     3.051078
      pz      :     0.945167  p :     2.687810
      px      :     0.905038
      py      :     0.837605
      dz2     :     0.004458  d :     0.148528
      dxz     :     0.028960
      dyz     :     0.040516
      dx2y2   :     0.029140
      dxy     :     0.045453
      f0      :     0.002335  f :     0.014375
      f+1     :     0.000805
      f-1     :     0.001088
      f+2     :     0.001293
      f-2     :     0.002102
      f+3     :     0.003269
      f-3     :     0.003482
 12 C s       :     3.408055  s :     3.408055
      pz      :     0.966256  p :     2.820603
      px      :     0.999113
      py      :     0.855234
      dz2     :     0.005827  d :     0.078700
      dxz     :     0.006655
      dyz     :     0.026965
      dx2y2   :     0.026189
      dxy     :     0.013063
      f0      :     0.001517  f :     0.007224
      f+1     :     0.000617
      f-1     :     0.000459
      f+2     :     0.000485
      f-2     :     0.000952
      f+3     :     0.001713
      f-3     :     0.001481
 13 C s       :     3.237161  s :     3.237161
      pz      :     1.135465  p :     2.638831
      px      :     0.746526
      py      :     0.756840
      dz2     :     0.011810  d :     0.150892
      dxz     :     0.024728
      dyz     :     0.026082
      dx2y2   :     0.049060
      dxy     :     0.039212
      f0      :     0.001939  f :     0.012754
      f+1     :     0.000945
      f-1     :     0.000916
      f+2     :     0.001158
      f-2     :     0.001089
      f+3     :     0.003384
      f-3     :     0.003322
 14 C s       :     3.303920  s :     3.303920
      pz      :     0.977975  p :     2.797235
      px      :     0.837929
      py      :     0.981331
      dz2     :     0.005798  d :     0.075310
      dxz     :     0.025771
      dyz     :     0.007090
      dx2y2   :     0.025913
      dxy     :     0.010739
      f0      :     0.001585  f :     0.007384
      f+1     :     0.000493
      f-1     :     0.000620
      f+2     :     0.000449
      f-2     :     0.001053
      f+3     :     0.001594
      f-3     :     0.001591
 15 C s       :     3.216443  s :     3.216443
      pz      :     0.989144  p :     2.830247
      px      :     0.975468
      py      :     0.865635
      dz2     :     0.005218  d :     0.073796
      dxz     :     0.006841
      dyz     :     0.020802
      dx2y2   :     0.024152
      dxy     :     0.016783
      f0      :     0.001533  f :     0.007092
      f+1     :     0.000618
      f-1     :     0.000460
      f+2     :     0.000407
      f-2     :     0.000851
      f+3     :     0.001680
      f-3     :     0.001545
 16 C s       :     3.243954  s :     3.243954
      pz      :     1.003480  p :     2.837080
      px      :     0.988856
      py      :     0.844744
      dz2     :     0.005411  d :     0.073694
      dxz     :     0.006690
      dyz     :     0.020539
      dx2y2   :     0.025048
      dxy     :     0.016007
      f0      :     0.001545  f :     0.007065
      f+1     :     0.000619
      f-1     :     0.000453
      f+2     :     0.000432
      f-2     :     0.000795
      f+3     :     0.001718
      f-3     :     0.001503
 17 C s       :     3.240943  s :     3.240943
      pz      :     0.917448  p :     2.799400
      px      :     0.886743
      py      :     0.995210
      dz2     :     0.005562  d :     0.076200
      dxz     :     0.023972
      dyz     :     0.007175
      dx2y2   :     0.026124
      dxy     :     0.013367
      f0      :     0.001586  f :     0.007435
      f+1     :     0.000467
      f-1     :     0.000605
      f+2     :     0.000425
      f-2     :     0.001040
      f+3     :     0.001644
      f-3     :     0.001669
 18 C s       :     3.205546  s :     3.205546
      pz      :     1.016833  p :     2.531789
      px      :     0.786315
      py      :     0.728640
      dz2     :     0.009904  d :     0.162769
      dxz     :     0.022844
      dyz     :     0.025823
      dx2y2   :     0.071005
      dxy     :     0.033194
      f0      :     0.001871  f :     0.013187
      f+1     :     0.000859
      f-1     :     0.000842
      f+2     :     0.001118
      f-2     :     0.001153
      f+3     :     0.003638
      f-3     :     0.003706
 19 C s       :     3.600641  s :     3.600641
      pz      :     0.981824  p :     2.857990
      px      :     0.983168
      py      :     0.892998
      dz2     :     0.006681  d :     0.081689
      dxz     :     0.007545
      dyz     :     0.025770
      dx2y2   :     0.023400
      dxy     :     0.018293
      f0      :     0.001520  f :     0.007244
      f+1     :     0.000623
      f-1     :     0.000461
      f+2     :     0.000456
      f-2     :     0.000937
      f+3     :     0.001783
      f-3     :     0.001465
 20 N s       :     3.436270  s :     3.436270
      pz      :     0.992222  p :     3.382225
      px      :     1.190567
      py      :     1.199436
      dz2     :     0.021462  d :     0.091598
      dxz     :     0.023402
      dyz     :     0.023396
      dx2y2   :     0.012570
      dxy     :     0.010767
      f0      :     0.001139  f :     0.004940
      f+1     :     0.000766
      f-1     :     0.000754
      f+2     :     0.000396
      f-2     :     0.000794
      f+3     :     0.000545
      f-3     :     0.000547
 21 C s       :     3.072435  s :     3.072435
      pz      :     0.776107  p :     2.616604
      px      :     0.937630
      py      :     0.902867
      dz2     :     0.034654  d :     0.150016
      dxz     :     0.035522
      dyz     :     0.038131
      dx2y2   :     0.027378
      dxy     :     0.014331
      f0      :     0.003135  f :     0.013390
      f+1     :     0.002027
      f-1     :     0.002238
      f+2     :     0.001564
      f-2     :     0.002134
      f+3     :     0.001126
      f-3     :     0.001165
 22 C s       :     3.221395  s :     3.221395
      pz      :     0.834325  p :     2.657418
      px      :     0.905173
      py      :     0.917921
      dz2     :     0.023023  d :     0.121009
      dxz     :     0.030860
      dyz     :     0.028838
      dx2y2   :     0.025335
      dxy     :     0.012953
      f0      :     0.001938  f :     0.009542
      f+1     :     0.001424
      f-1     :     0.001145
      f+2     :     0.000913
      f-2     :     0.001672
      f+3     :     0.001231
      f-3     :     0.001220
 23 S s       :     5.775672  s :     5.775672
      pz      :     2.957070  p :     9.852826
      px      :     3.439957
      py      :     3.455798
      dz2     :     0.036359  d :     0.195205
      dxz     :     0.060062
      dyz     :     0.058818
      dx2y2   :     0.023311
      dxy     :     0.016654
      f0      :     0.002802  f :     0.019103
      f+1     :     0.003528
      f-1     :     0.003444
      f+2     :     0.003265
      f-2     :     0.004203
      f+3     :     0.000944
      f-3     :     0.000917
 24 C s       :     3.224178  s :     3.224178
      pz      :     0.830605  p :     2.655095
      px      :     0.905405
      py      :     0.919086
      dz2     :     0.023917  d :     0.120989
      dxz     :     0.028317
      dyz     :     0.030302
      dx2y2   :     0.025371
      dxy     :     0.013083
      f0      :     0.002006  f :     0.009545
      f+1     :     0.001144
      f-1     :     0.001342
      f+2     :     0.000932
      f-2     :     0.001679
      f+3     :     0.001288
      f-3     :     0.001154
 25 C s       :     3.071301  s :     3.071301
      pz      :     0.788927  p :     2.619580
      px      :     0.881473
      py      :     0.949180
      dz2     :     0.033065  d :     0.150258
      dxz     :     0.038721
      dyz     :     0.036732
      dx2y2   :     0.027721
      dxy     :     0.014020
      f0      :     0.003088  f :     0.013402
      f+1     :     0.002218
      f-1     :     0.001917
      f+2     :     0.001634
      f-2     :     0.002223
      f+3     :     0.001249
      f-3     :     0.001074
 26 N s       :     3.430834  s :     3.430834
      pz      :     0.986503  p :     3.522517
      px      :     1.202931
      py      :     1.333084
      dz2     :     0.020583  d :     0.082311
      dxz     :     0.020796
      dyz     :     0.018362
      dx2y2   :     0.011672
      dxy     :     0.010897
      f0      :     0.000977  f :     0.004713
      f+1     :     0.000760
      f-1     :     0.000597
      f+2     :     0.000340
      f-2     :     0.000812
      f+3     :     0.000612
      f-3     :     0.000615
 27 C s       :     3.090235  s :     3.090235
      pz      :     0.802443  p :     2.574151
      px      :     0.876314
      py      :     0.895393
      dz2     :     0.030953  d :     0.158505
      dxz     :     0.033033
      dyz     :     0.043279
      dx2y2   :     0.030426
      dxy     :     0.020813
      f0      :     0.002597  f :     0.013255
      f+1     :     0.002044
      f-1     :     0.001800
      f+2     :     0.001756
      f-2     :     0.002540
      f+3     :     0.000836
      f-3     :     0.001682
 28 C s       :     3.234083  s :     3.234083
      pz      :     0.878546  p :     2.667893
      px      :     0.921327
      py      :     0.868019
      dz2     :     0.024266  d :     0.126290
      dxz     :     0.023970
      dyz     :     0.031468
      dx2y2   :     0.021913
      dxy     :     0.024672
      f0      :     0.001820  f :     0.009377
      f+1     :     0.000846
      f-1     :     0.001186
      f+2     :     0.001193
      f-2     :     0.001993
      f+3     :     0.000771
      f-3     :     0.001569
 29 S s       :     5.734120  s :     5.734120
      pz      :     2.925470  p :    10.093499
      px      :     3.850349
      py      :     3.317679
      dz2     :     0.036993  d :     0.165373
      dxz     :     0.023560
      dyz     :     0.071243
      dx2y2   :     0.017470
      dxy     :     0.016107
      f0      :     0.002254  f :     0.017016
      f+1     :     0.001213
      f-1     :     0.004943
      f+2     :     0.004266
      f-2     :     0.002502
      f+3     :     0.000860
      f-3     :     0.000977
 30 C s       :     3.227321  s :     3.227321
      pz      :     0.852097  p :     2.671951
      px      :     0.954374
      py      :     0.865480
      dz2     :     0.023818  d :     0.126426
      dxz     :     0.027850
      dyz     :     0.033708
      dx2y2   :     0.020384
      dxy     :     0.020666
      f0      :     0.001905  f :     0.009382
      f+1     :     0.001020
      f-1     :     0.001415
      f+2     :     0.001086
      f-2     :     0.001672
      f+3     :     0.000683
      f-3     :     0.001602
 31 C s       :     3.095100  s :     3.095100
      pz      :     0.770779  p :     2.583095
      px      :     0.926208
      py      :     0.886108
      dz2     :     0.030791  d :     0.157992
      dxz     :     0.035506
      dyz     :     0.046718
      dx2y2   :     0.027996
      dxy     :     0.016981
      f0      :     0.002910  f :     0.013244
      f+1     :     0.002069
      f-1     :     0.002194
      f+2     :     0.001696
      f-2     :     0.002023
      f+3     :     0.000689
      f-3     :     0.001663
 32 C s       :     3.219484  s :     3.219484
      pz      :     0.846531  p :     2.844470
      px      :     1.004140
      py      :     0.993799
      dz2     :     0.018345  d :     0.076521
      dxz     :     0.022031
      dyz     :     0.020206
      dx2y2   :     0.006330
      dxy     :     0.009609
      f0      :     0.001726  f :     0.007313
      f+1     :     0.001359
      f-1     :     0.001152
      f+2     :     0.000964
      f-2     :     0.000969
      f+3     :     0.000596
      f-3     :     0.000549
 33 C s       :     3.241717  s :     3.241717
      pz      :     0.977633  p :     2.795742
      px      :     0.916934
      py      :     0.901175
      dz2     :     0.014624  d :     0.077696
      dxz     :     0.020065
      dyz     :     0.016875
      dx2y2   :     0.017146
      dxy     :     0.008985
      f0      :     0.001412  f :     0.007198
      f+1     :     0.001281
      f-1     :     0.000911
      f+2     :     0.000351
      f-2     :     0.001301
      f+3     :     0.000916
      f-3     :     0.001025
 34 C s       :     3.231435  s :     3.231435
      pz      :     0.979084  p :     2.801226
      px      :     0.905218
      py      :     0.916924
      dz2     :     0.018129  d :     0.076732
      dxz     :     0.013466
      dyz     :     0.016361
      dx2y2   :     0.018900
      dxy     :     0.009875
      f0      :     0.001436  f :     0.007174
      f+1     :     0.000794
      f-1     :     0.001111
      f+2     :     0.000624
      f-2     :     0.001205
      f+3     :     0.000994
      f-3     :     0.001010
 35 C s       :     3.243466  s :     3.243466
      pz      :     0.876517  p :     2.822406
      px      :     0.979220
      py      :     0.966669
      dz2     :     0.023151  d :     0.078958
      dxz     :     0.017988
      dyz     :     0.020035
      dx2y2   :     0.005837
      dxy     :     0.011946
      f0      :     0.001799  f :     0.007596
      f+1     :     0.001361
      f-1     :     0.001230
      f+2     :     0.001023
      f-2     :     0.000946
      f+3     :     0.000658
      f-3     :     0.000580
 36 C s       :     3.242761  s :     3.242761
      pz      :     0.879741  p :     2.823303
      px      :     0.967450
      py      :     0.976113
      dz2     :     0.022154  d :     0.078966
      dxz     :     0.020542
      dyz     :     0.019054
      dx2y2   :     0.005680
      dxy     :     0.011535
      f0      :     0.001853  f :     0.007596
      f+1     :     0.001238
      f-1     :     0.001281
      f+2     :     0.001060
      f-2     :     0.000955
      f+3     :     0.000568
      f-3     :     0.000640
 37 C s       :     3.230888  s :     3.230888
      pz      :     0.976144  p :     2.802066
      px      :     0.918929
      py      :     0.906993
      dz2     :     0.017652  d :     0.076729
      dxz     :     0.017350
      dyz     :     0.013888
      dx2y2   :     0.018280
      dxy     :     0.009559
      f0      :     0.001473  f :     0.007176
      f+1     :     0.001151
      f-1     :     0.000802
      f+2     :     0.000556
      f-2     :     0.001211
      f+3     :     0.001067
      f-3     :     0.000916
 38 C s       :     3.240711  s :     3.240711
      pz      :     0.981520  p :     2.796591
      px      :     0.902652
      py      :     0.912419
      dz2     :     0.015153  d :     0.077702
      dxz     :     0.016636
      dyz     :     0.018749
      dx2y2   :     0.017844
      dxy     :     0.009320
      f0      :     0.001440  f :     0.007196
      f+1     :     0.000876
      f-1     :     0.001202
      f+2     :     0.000393
      f-2     :     0.001307
      f+3     :     0.001102
      f-3     :     0.000876
 39 C s       :     3.221100  s :     3.221100
      pz      :     0.838461  p :     2.838738
      px      :     1.002519
      py      :     0.997759
      dz2     :     0.019129  d :     0.076560
      dxz     :     0.019675
      dyz     :     0.021673
      dx2y2   :     0.006273
      dxy     :     0.009809
      f0      :     0.001760  f :     0.007314
      f+1     :     0.001188
      f-1     :     0.001312
      f+2     :     0.000970
      f-2     :     0.000933
      f+3     :     0.000554
      f-3     :     0.000599
 40 C s       :     3.226585  s :     3.226585
      pz      :     0.898626  p :     2.822340
      px      :     0.954985
      py      :     0.968729
      dz2     :     0.027324  d :     0.083739
      dxz     :     0.021781
      dyz     :     0.017791
      dx2y2   :     0.006413
      dxy     :     0.010430
      f0      :     0.001773  f :     0.007545
      f+1     :     0.001093
      f-1     :     0.001334
      f+2     :     0.001095
      f-2     :     0.001053
      f+3     :     0.000706
      f-3     :     0.000490
 41 C s       :     3.225585  s :     3.225585
      pz      :     0.958708  p :     2.842140
      px      :     0.962941
      py      :     0.920492
      dz2     :     0.016601  d :     0.076193
      dxz     :     0.014196
      dyz     :     0.016574
      dx2y2   :     0.017550
      dxy     :     0.011272
      f0      :     0.001400  f :     0.007216
      f+1     :     0.000985
      f-1     :     0.000875
      f+2     :     0.000546
      f-2     :     0.001309
      f+3     :     0.000554
      f-3     :     0.001547
 42 C s       :     3.236240  s :     3.236240
      pz      :     0.945961  p :     2.823369
      px      :     0.950572
      py      :     0.926837
      dz2     :     0.013433  d :     0.078015
      dxz     :     0.014495
      dyz     :     0.022881
      dx2y2   :     0.017909
      dxy     :     0.009297
      f0      :     0.001402  f :     0.007301
      f+1     :     0.000911
      f-1     :     0.001246
      f+2     :     0.000620
      f-2     :     0.001073
      f+3     :     0.000534
      f-3     :     0.001515
 43 C s       :     3.211961  s :     3.211961
      pz      :     0.862517  p :     2.902171
      px      :     1.003182
      py      :     1.036472
      dz2     :     0.018366  d :     0.073836
      dxz     :     0.021719
      dyz     :     0.019215
      dx2y2   :     0.005177
      dxy     :     0.009359
      f0      :     0.001701  f :     0.007325
      f+1     :     0.001131
      f-1     :     0.001308
      f+2     :     0.001025
      f-2     :     0.000991
      f+3     :     0.000678
      f-3     :     0.000491
 44 C s       :     3.215692  s :     3.215692
      pz      :     0.879611  p :     2.920210
      px      :     0.991002
      py      :     1.049598
      dz2     :     0.021399  d :     0.073752
      dxz     :     0.016987
      dyz     :     0.017429
      dx2y2   :     0.006152
      dxy     :     0.011785
      f0      :     0.001632  f :     0.007318
      f+1     :     0.000934
      f-1     :     0.001199
      f+2     :     0.001039
      f-2     :     0.001327
      f+3     :     0.000747
      f-3     :     0.000439
 45 C s       :     3.231961  s :     3.231961
      pz      :     0.951660  p :     2.821440
      px      :     0.941864
      py      :     0.927917
      dz2     :     0.014077  d :     0.078243
      dxz     :     0.011414
      dyz     :     0.022821
      dx2y2   :     0.020135
      dxy     :     0.009795
      f0      :     0.001411  f :     0.007307
      f+1     :     0.000639
      f-1     :     0.001090
      f+2     :     0.000835
      f-2     :     0.001299
      f+3     :     0.000581
      f-3     :     0.001452
 46 C s       :     3.227737  s :     3.227737
      pz      :     0.960082  p :     2.844682
      px      :     0.967694
      py      :     0.916906
      dz2     :     0.015575  d :     0.076052
      dxz     :     0.015813
      dyz     :     0.015488
      dx2y2   :     0.017267
      dxy     :     0.011910
      f0      :     0.001324  f :     0.007214
      f+1     :     0.000987
      f-1     :     0.000715
      f+2     :     0.000528
      f-2     :     0.001619
      f+3     :     0.000609
      f-3     :     0.001432
 47 C s       :     3.224382  s :     3.224382
      pz      :     0.903766  p :     2.820421
      px      :     0.948821
      py      :     0.967834
      dz2     :     0.029249  d :     0.083939
      dxz     :     0.018458
      dyz     :     0.015902
      dx2y2   :     0.007752
      dxy     :     0.012579
      f0      :     0.001691  f :     0.007552
      f+1     :     0.000939
      f-1     :     0.001183
      f+2     :     0.001056
      f-2     :     0.001451
      f+3     :     0.000795
      f-3     :     0.000438
 48 H s       :     0.828474  s :     0.828474
      pz      :     0.011317  p :     0.021893
      px      :     0.005814
      py      :     0.004762
 49 H s       :     0.830138  s :     0.830138
      pz      :     0.011052  p :     0.022171
      px      :     0.006113
      py      :     0.005006
 50 H s       :     0.836676  s :     0.836676
      pz      :     0.011539  p :     0.022244
      px      :     0.005683
      py      :     0.005021
 51 H s       :     0.833120  s :     0.833120
      pz      :     0.010993  p :     0.021883
      px      :     0.006115
      py      :     0.004775
 52 H s       :     0.838945  s :     0.838945
      pz      :     0.013239  p :     0.023857
      px      :     0.003482
      py      :     0.007135
 53 H s       :     0.838575  s :     0.838575
      pz      :     0.004466  p :     0.022026
      px      :     0.013649
      py      :     0.003911
 54 H s       :     0.837213  s :     0.837213
      pz      :     0.004731  p :     0.022270
      px      :     0.003863
      py      :     0.013676
 55 H s       :     0.810079  s :     0.810079
      pz      :     0.004631  p :     0.022357
      px      :     0.013774
      py      :     0.003952
 56 H s       :     0.820712  s :     0.820712
      pz      :     0.004684  p :     0.022251
      px      :     0.013511
      py      :     0.004056
 57 H s       :     0.827026  s :     0.827026
      pz      :     0.004319  p :     0.022166
      px      :     0.003646
      py      :     0.014201
 58 H s       :     0.841345  s :     0.841345
      pz      :     0.004338  p :     0.021871
      px      :     0.013739
      py      :     0.003794
 59 H s       :     0.776580  s :     0.776580
      pz      :     0.003875  p :     0.023758
      px      :     0.009720
      py      :     0.010163
 60 H s       :     0.811965  s :     0.811965
      pz      :     0.010703  p :     0.022115
      px      :     0.006507
      py      :     0.004905
 61 H s       :     0.808289  s :     0.808289
      pz      :     0.012576  p :     0.022226
      px      :     0.004156
      py      :     0.005495
 62 H s       :     0.812726  s :     0.812726
      pz      :     0.003426  p :     0.022347
      px      :     0.009301
      py      :     0.009620
 63 H s       :     0.812547  s :     0.812547
      pz      :     0.003322  p :     0.022345
      px      :     0.009864
      py      :     0.009159
 64 H s       :     0.808407  s :     0.808407
      pz      :     0.012139  p :     0.022228
      px      :     0.005747
      py      :     0.004342
 65 H s       :     0.812134  s :     0.812134
      pz      :     0.011269  p :     0.022112
      px      :     0.004778
      py      :     0.006066
 66 H s       :     0.778693  s :     0.778693
      pz      :     0.003760  p :     0.023705
      px      :     0.010365
      py      :     0.009579
 67 H s       :     0.841813  s :     0.841813
      pz      :     0.003418  p :     0.022057
      px      :     0.007434
      py      :     0.011206
 68 H s       :     0.847994  s :     0.847994
      pz      :     0.011837  p :     0.022077
      px      :     0.005656
      py      :     0.004584
 69 H s       :     0.858301  s :     0.858301
      pz      :     0.010277  p :     0.021864
      px      :     0.004697
      py      :     0.006890
 70 H s       :     0.828351  s :     0.828351
      pz      :     0.003864  p :     0.023169
      px      :     0.007907
      py      :     0.011398
 71 H s       :     0.823841  s :     0.823841
      pz      :     0.003892  p :     0.023171
      px      :     0.008124
      py      :     0.011155
 72 H s       :     0.857891  s :     0.857891
      pz      :     0.010231  p :     0.021862
      px      :     0.004166
      py      :     0.007465
 73 H s       :     0.847927  s :     0.847927
      pz      :     0.010805  p :     0.022078
      px      :     0.007023
      py      :     0.004250
 74 H s       :     0.841698  s :     0.841698
      pz      :     0.003477  p :     0.022060
      px      :     0.007504
      py      :     0.011080

SPIN
  0 C s       :    -0.000083  s :    -0.000083
      pz      :     0.000015  p :     0.000034
      px      :     0.000034
      py      :    -0.000015
      dz2     :    -0.000001  d :     0.000017
      dxz     :     0.000016
      dyz     :     0.000001
      dx2y2   :     0.000001
      dxy     :    -0.000001
      f0      :     0.000000  f :     0.000001
      f+1     :     0.000000
      f-1     :     0.000000
      f+2     :     0.000001
      f-2     :     0.000000
      f+3     :    -0.000000
      f-3     :    -0.000000
  1 C s       :     0.000007  s :     0.000007
      pz      :     0.000024  p :     0.000027
      px      :     0.000004
      py      :    -0.000002
      dz2     :     0.000000  d :     0.000002
      dxz     :     0.000000
      dyz     :     0.000000
      dx2y2   :     0.000001
      dxy     :     0.000000
      f0      :    -0.000000  f :    -0.000000
      f+1     :    -0.000000
      f-1     :    -0.000000
      f+2     :    -0.000000
      f-2     :     0.000000
      f+3     :     0.000000
      f-3     :    -0.000000
  2 C s       :    -0.000015  s :    -0.000015
      pz      :    -0.000003  p :    -0.000001
      px      :    -0.000002
      py      :     0.000004
      dz2     :     0.000000  d :     0.000000
      dxz     :     0.000000
      dyz     :     0.000000
      dx2y2   :     0.000000
      dxy     :     0.000000
      f0      :     0.000000  f :     0.000000
      f+1     :    -0.000000
      f-1     :     0.000000
      f+2     :     0.000000
      f-2     :     0.000000
      f+3     :     0.000000
      f-3     :     0.000000
  3 C s       :     0.000001  s :     0.000001
      pz      :     0.000001  p :     0.000011
      px      :     0.000009
      py      :     0.000002
      dz2     :     0.000000  d :    -0.000000
      dxz     :    -0.000000
      dyz     :    -0.000000
      dx2y2   :    -0.000000
      dxy     :    -0.000000
      f0      :    -0.000000  f :    -0.000000
      f+1     :     0.000000
      f-1     :    -0.000000
      f+2     :    -0.000000
      f-2     :    -0.000000
      f+3     :    -0.000000
      f-3     :    -0.000000
  4 C s       :     0.000007  s :     0.000007
      pz      :    -0.000009  p :    -0.000010
      px      :     0.000002
      py      :    -0.000003
      dz2     :    -0.000000  d :     0.000000
      dxz     :     0.000000
      dyz     :    -0.000000
      dx2y2   :    -0.000000
      dxy     :     0.000000
      f0      :     0.000000  f :     0.000000
      f+1     :     0.000000
      f-1     :     0.000000
      f+2     :     0.000000
      f-2     :    -0.000000
      f+3     :     0.000000
      f-3     :     0.000000
  5 C s       :     0.000018  s :     0.000018
      pz      :     0.000013  p :     0.000012
      px      :    -0.000011
      py      :     0.000009
      dz2     :     0.000000  d :    -0.000001
      dxz     :    -0.000000
      dyz     :    -0.000000
      dx2y2   :    -0.000000
      dxy     :    -0.000000
      f0      :     0.000000  f :     0.000000
      f+1     :     0.000000
      f-1     :     0.000000
      f+2     :    -0.000000
      f-2     :    -0.000000
      f+3     :     0.000000
      f-3     :     0.000000
  6 S s       :    -0.000001  s :    -0.000001
      pz      :     0.000000  p :     0.000000
      px      :    -0.000000
      py      :     0.000000
      dz2     :    -0.000000  d :     0.000000
      dxz     :    -0.000000
      dyz     :     0.000000
      dx2y2   :    -0.000000
      dxy     :     0.000000
      f0      :    -0.000000  f :     0.000000
      f+1     :    -0.000000
      f-1     :     0.000000
      f+2     :    -0.000000
      f-2     :    -0.000000
      f+3     :    -0.000000
      f-3     :     0.000000
  7 N s       :    -0.000032  s :    -0.000032
      pz      :     0.000395  p :     0.000453
      px      :     0.000035
      py      :     0.000023
      dz2     :    -0.000001  d :     0.000013
      dxz     :     0.000001
      dyz     :     0.000011
      dx2y2   :     0.000001
      dxy     :     0.000001
      f0      :    -0.000000  f :    -0.000000
      f+1     :    -0.000000
      f-1     :    -0.000000
      f+2     :     0.000000
      f-2     :     0.000000
      f+3     :    -0.000000
      f-3     :     0.000000
  8 C s       :     0.000139  s :     0.000139
      pz      :     0.001292  p :     0.000768
      px      :    -0.000292
      py      :    -0.000232
      dz2     :    -0.000000  d :    -0.000043
      dxz     :    -0.000014
      dyz     :    -0.000027
      dx2y2   :     0.000010
      dxy     :    -0.000012
      f0      :    -0.000002  f :    -0.000003
      f+1     :    -0.000001
      f-1     :    -0.000001
      f+2     :    -0.000002
      f-2     :     0.000002
      f+3     :    -0.000000
      f-3     :     0.000001
  9 C s       :     0.000342  s :     0.000342
      pz      :    -0.001082  p :    -0.000888
      px      :     0.000026
      py      :     0.000168
      dz2     :     0.000038  d :     0.000224
      dxz     :     0.000053
      dyz     :     0.000012
      dx2y2   :     0.000007
      dxy     :     0.000114
      f0      :     0.000002  f :     0.000018
      f+1     :     0.000001
      f-1     :     0.000001
      f+2     :     0.000001
      f-2     :     0.000003
      f+3     :     0.000006
      f-3     :     0.000003
 10 C s       :    -0.000055  s :    -0.000055
      pz      :     0.000379  p :     0.000561
      px      :    -0.000176
      py      :     0.000358
      dz2     :    -0.000006  d :    -0.000040
      dxz     :    -0.000004
      dyz     :    -0.000033
      dx2y2   :     0.000002
      dxy     :     0.000001
      f0      :    -0.000000  f :    -0.000002
      f+1     :    -0.000000
      f-1     :    -0.000000
      f+2     :    -0.000001
      f-2     :    -0.000000
      f+3     :     0.000000
      f-3     :     0.000000
 11 C s       :    -0.000127  s :    -0.000127
      pz      :    -0.000332  p :    -0.000386
      px      :     0.000025
      py      :    -0.000078
      dz2     :    -0.000003  d :     0.000027
      dxz     :     0.000017
      dyz     :     0.000006
      dx2y2   :    -0.000004
      dxy     :     0.000011
      f0      :     0.000001  f :     0.000004
      f+1     :     0.000000
      f-1     :     0.000000
      f+2     :     0.000000
      f-2     :     0.000001
      f+3     :     0.000001
      f-3     :     0.000000
 12 C s       :    -0.000920  s :    -0.000920
      pz      :     0.002406  p :     0.007348
      px      :     0.002035
      py      :     0.002908
      dz2     :     0.000205  d :     0.000378
      dxz     :    -0.000006
      dyz     :    -0.000007
      dx2y2   :    -0.000059
      dxy     :     0.000245
      f0      :    -0.000001  f :    -0.000002
      f+1     :    -0.000000
      f-1     :     0.000002
      f+2     :     0.000002
      f-2     :    -0.000000
      f+3     :     0.000001
      f-3     :    -0.000006
 13 C s       :    -0.000046  s :    -0.000046
      pz      :    -0.002709  p :    -0.006427
      px      :    -0.001380
      py      :    -0.002338
      dz2     :    -0.000050  d :     0.005318
      dxz     :    -0.000020
      dyz     :    -0.000036
      dx2y2   :     0.005707
      dxy     :    -0.000282
      f0      :    -0.000005  f :     0.000509
      f+1     :     0.000002
      f-1     :     0.000003
      f+2     :     0.000003
      f-2     :     0.000010
      f+3     :     0.000252
      f-3     :     0.000244
 14 C s       :    -0.000061  s :    -0.000061
      pz      :     0.002171  p :     0.006888
      px      :     0.003804
      py      :     0.000913
      dz2     :     0.000222  d :     0.000360
      dxz     :    -0.000017
      dyz     :    -0.000009
      dx2y2   :    -0.000012
      dxy     :     0.000177
      f0      :    -0.000000  f :    -0.000002
      f+1     :     0.000002
      f-1     :    -0.000000
      f+2     :     0.000003
      f-2     :    -0.000001
      f+3     :    -0.000005
      f-3     :     0.000001
 15 C s       :    -0.000052  s :    -0.000052
      pz      :    -0.001487  p :    -0.001103
      px      :     0.000481
      py      :    -0.000097
      dz2     :     0.000031  d :     0.000268
      dxz     :     0.000008
      dyz     :     0.000050
      dx2y2   :     0.000095
      dxy     :     0.000083
      f0      :     0.000003  f :     0.000016
      f+1     :     0.000001
      f-1     :     0.000001
      f+2     :     0.000001
      f-2     :     0.000003
      f+3     :     0.000003
      f-3     :     0.000003
 16 C s       :     0.000355  s :     0.000355
      pz      :     0.000270  p :     0.000299
      px      :    -0.000045
      py      :     0.000075
      dz2     :    -0.000001  d :    -0.000015
      dxz     :    -0.000001
      dyz     :    -0.000013
      dx2y2   :     0.000002
      dxy     :    -0.000002
      f0      :    -0.000000  f :    -0.000001
      f+1     :    -0.000000
      f-1     :    -0.000000
      f+2     :    -0.000000
      f-2     :    -0.000001
      f+3     :    -0.000000
      f-3     :     0.000000
 17 C s       :    -0.000120  s :    -0.000120
      pz      :    -0.000334  p :    -0.000479
      px      :    -0.000023
      py      :    -0.000123
      dz2     :     0.000001  d :     0.000007
      dxz     :     0.000007
      dyz     :     0.000001
      dx2y2   :    -0.000001
      dxy     :    -0.000001
      f0      :     0.000000  f :     0.000001
      f+1     :     0.000000
      f-1     :     0.000000
      f+2     :     0.000000
      f-2     :     0.000000
      f+3     :    -0.000000
      f-3     :    -0.000000
 18 C s       :     0.000069  s :     0.000069
      pz      :     0.000231  p :     0.000441
      px      :     0.000098
      py      :     0.000112
      dz2     :    -0.000001  d :    -0.000009
      dxz     :    -0.000007
      dyz     :    -0.000006
      dx2y2   :     0.000003
      dxy     :     0.000002
      f0      :    -0.000000  f :    -0.000001
      f+1     :    -0.000000
      f-1     :    -0.000000
      f+2     :    -0.000001
      f-2     :    -0.000000
      f+3     :     0.000000
      f-3     :    -0.000000
 19 C s       :    -0.000336  s :    -0.000336
      pz      :    -0.000292  p :    -0.000321
      px      :    -0.000121
      py      :     0.000092
      dz2     :     0.000000  d :     0.000008
      dxz     :     0.000002
      dyz     :     0.000010
      dx2y2   :     0.000002
      dxy     :    -0.000005
      f0      :     0.000000  f :     0.000001
      f+1     :     0.000000
      f-1     :     0.000000
      f+2     :     0.000000
      f-2     :     0.000000
      f+3     :    -0.000000
      f-3     :     0.000000
 20 N s       :     0.013673  s :     0.013673
      pz      :     0.018185  p :     0.275885
      px      :     0.127571
      py      :     0.130129
      dz2     :     0.000142  d :    -0.000738
      dxz     :    -0.000193
      dyz     :    -0.000205
      dx2y2   :     0.000012
      dxy     :    -0.000495
      f0      :    -0.000051  f :    -0.000445
      f+1     :    -0.000066
      f-1     :    -0.000068
      f+2     :    -0.000009
      f-2     :    -0.000073
      f+3     :    -0.000088
      f-3     :    -0.000089
 21 C s       :    -0.002666  s :    -0.002666
      pz      :    -0.003267  p :     0.014203
      px      :     0.009845
      py      :     0.007626
      dz2     :     0.000200  d :     0.009008
      dxz     :     0.002950
      dyz     :     0.001309
      dx2y2   :     0.004659
      dxy     :    -0.000111
      f0      :     0.000022  f :     0.000460
      f+1     :     0.000104
      f-1     :     0.000062
      f+2     :     0.000207
      f-2     :    -0.000028
      f+3     :     0.000066
      f-3     :     0.000027
 22 C s       :     0.014528  s :     0.014528
      pz      :     0.000510  p :     0.102409
      px      :     0.049618
      py      :     0.052281
      dz2     :     0.000144  d :     0.001856
      dxz     :    -0.000854
      dyz     :    -0.000443
      dx2y2   :     0.003173
      dxy     :    -0.000164
      f0      :    -0.000032  f :    -0.000181
      f+1     :    -0.000013
      f-1     :    -0.000030
      f+2     :     0.000068
      f-2     :    -0.000052
      f+3     :    -0.000073
      f-3     :    -0.000048
 23 S s       :     0.007694  s :     0.007694
      pz      :     0.010493  p :     0.286263
      px      :     0.131552
      py      :     0.144219
      dz2     :     0.001042  d :     0.001687
      dxz     :    -0.000711
      dyz     :    -0.000828
      dx2y2   :     0.001180
      dxy     :     0.001005
      f0      :     0.000008  f :    -0.000439
      f+1     :    -0.000049
      f-1     :    -0.000057
      f+2     :     0.000018
      f-2     :    -0.000214
      f+3     :    -0.000067
      f-3     :    -0.000078
 24 C s       :     0.014390  s :     0.014390
      pz      :    -0.000049  p :     0.102230
      px      :     0.049203
      py      :     0.053076
      dz2     :     0.000177  d :     0.001859
      dxz     :    -0.000299
      dyz     :    -0.000762
      dx2y2   :     0.002982
      dxy     :    -0.000240
      f0      :    -0.000029  f :    -0.000181
      f+1     :    -0.000025
      f-1     :    -0.000013
      f+2     :     0.000056
      f-2     :    -0.000054
      f+3     :    -0.000041
      f-3     :    -0.000075
 25 C s       :    -0.002530  s :    -0.002530
      pz      :    -0.002948  p :     0.013869
      px      :     0.004775
      py      :     0.012042
      dz2     :     0.000181  d :     0.009032
      dxz     :     0.000884
      dyz     :     0.002898
      dx2y2   :     0.005088
      dxy     :    -0.000019
      f0      :     0.000015  f :     0.000461
      f+1     :     0.000052
      f-1     :     0.000091
      f+2     :     0.000251
      f-2     :    -0.000022
      f+3     :     0.000030
      f-3     :     0.000044
 26 N s       :    -0.000010  s :    -0.000010
      pz      :    -0.000005  p :    -0.000004
      px      :    -0.000009
      py      :     0.000010
      dz2     :    -0.000000  d :     0.000004
      dxz     :     0.000002
      dyz     :     0.000002
      dx2y2   :     0.000000
      dxy     :     0.000000
      f0      :     0.000000  f :     0.000000
      f+1     :     0.000000
      f-1     :     0.000000
      f+2     :    -0.000000
      f-2     :     0.000000
      f+3     :     0.000000
      f-3     :     0.000000
 27 C s       :     0.000006  s :     0.000006
      pz      :     0.000000  p :    -0.000039
      px      :    -0.000019
      py      :    -0.000021
      dz2     :     0.000000  d :    -0.000001
      dxz     :     0.000000
      dyz     :    -0.000002
      dx2y2   :     0.000000
      dxy     :    -0.000001
      f0      :     0.000000  f :     0.000000
      f+1     :     0.000000
      f-1     :     0.000000
      f+2     :    -0.000000
      f-2     :     0.000000
      f+3     :     0.000000
      f-3     :     0.000000
 28 C s       :     0.000008  s :     0.000008
      pz      :    -0.000000  p :    -0.000001
      px      :     0.000000
      py      :    -0.000001
      dz2     :    -0.000001  d :    -0.000000
      dxz     :     0.000000
      dyz     :     0.000000
      dx2y2   :     0.000000
      dxy     :    -0.000000
      f0      :    -0.000000  f :    -0.000000
      f+1     :     0.000000
      f-1     :    -0.000000
      f+2     :     0.000000
      f-2     :     0.000000
      f+3     :    -0.000000
      f-3     :     0.000000
 29 S s       :    -0.000001  s :    -0.000001
      pz      :     0.000000  p :     0.000001
      px      :     0.000001
      py      :     0.000000
      dz2     :     0.000000  d :     0.000000
      dxz     :     0.000000
      dyz     :     0.000000
      dx2y2   :    -0.000000
      dxy     :     0.000000
      f0      :    -0.000000  f :     0.000000
      f+1     :     0.000000
      f-1     :     0.000000
      f+2     :    -0.000000
      f-2     :     0.000000
      f+3     :     0.000000
      f-3     :    -0.000000
 30 C s       :    -0.000007  s :    -0.000007
      pz      :    -0.000005  p :    -0.000003
      px      :     0.000005
      py      :    -0.000002
      dz2     :    -0.000000  d :    -0.000000
      dxz     :     0.000000
      dyz     :    -0.000000
      dx2y2   :    -0.000000
      dxy     :     0.000000
      f0      :    -0.000000  f :     0.000000
      f+1     :     0.000000
      f-1     :    -0.000000
      f+2     :     0.000000
      f-2     :     0.000000
      f+3     :    -0.000000
      f-3     :     0.000000
 31 C s       :     0.000024  s :     0.000024
      pz      :     0.000013  p :    -0.000017
      px      :    -0.000025
      py      :    -0.000005
      dz2     :    -0.000000  d :    -0.000002
      dxz     :     0.000000
      dyz     :    -0.000001
      dx2y2   :    -0.000000
      dxy     :    -0.000001
      f0      :     0.000000  f :     0.000000
      f+1     :     0.000000
      f-1     :     0.000000
      f+2     :     0.000000
      f-2     :    -0.000000
      f+3     :     0.000000
      f-3     :     0.000000
 32 C s       :    -0.004584  s :    -0.004584
      pz      :    -0.000916  p :     0.019587
      px      :     0.010405
      py      :     0.010098
      dz2     :    -0.000055  d :     0.000880
      dxz     :     0.000153
      dyz     :     0.000746
      dx2y2   :     0.000167
      dxy     :    -0.000132
      f0      :    -0.000010  f :     0.000068
      f+1     :    -0.000015
      f-1     :     0.000002
      f+2     :     0.000110
      f-2     :    -0.000018
      f+3     :     0.000012
      f-3     :    -0.000013
 33 C s       :     0.003706  s :     0.003706
      pz      :    -0.000135  p :     0.011415
      px      :     0.005806
      py      :     0.005744
      dz2     :     0.000190  d :     0.002536
      dxz     :     0.000670
      dyz     :     0.000171
      dx2y2   :     0.001514
      dxy     :    -0.000009
      f0      :     0.000009  f :     0.000120
      f+1     :     0.000009
      f-1     :     0.000018
      f+2     :     0.000000
      f-2     :    -0.000010
      f+3     :     0.000045
      f-3     :     0.000049
 34 C s       :     0.005060  s :     0.005060
      pz      :     0.005384  p :     0.082271
      px      :     0.038149
      py      :     0.038738
      dz2     :     0.000122  d :    -0.000201
      dxz     :    -0.000151
      dyz     :    -0.000098
      dx2y2   :     0.000138
      dxy     :    -0.000213
      f0      :    -0.000021  f :    -0.000178
      f+1     :    -0.000012
      f-1     :    -0.000036
      f+2     :    -0.000028
      f-2     :    -0.000036
      f+3     :    -0.000029
      f-3     :    -0.000015
 35 C s       :    -0.009179  s :    -0.009179
      pz      :    -0.006957  p :    -0.047777
      px      :    -0.020392
      py      :    -0.020428
      dz2     :    -0.000104  d :     0.003268
      dxz     :     0.001690
      dyz     :     0.001435
      dx2y2   :     0.000120
      dxy     :     0.000126
      f0      :     0.000018  f :     0.000408
      f+1     :     0.000066
      f-1     :     0.000029
      f+2     :     0.000242
      f-2     :     0.000015
      f+3     :     0.000015
      f-3     :     0.000023
 36 C s       :    -0.009144  s :    -0.009144
      pz      :    -0.006728  p :    -0.047789
      px      :    -0.019612
      py      :    -0.021450
      dz2     :    -0.000133  d :     0.003265
      dxz     :     0.001367
      dyz     :     0.001717
      dx2y2   :     0.000191
      dxy     :     0.000124
      f0      :     0.000017  f :     0.000408
      f+1     :     0.000029
      f-1     :     0.000057
      f+2     :     0.000248
      f-2     :     0.000016
      f+3     :     0.000026
      f-3     :     0.000014
 37 C s       :     0.005072  s :     0.005072
      pz      :     0.005014  p :     0.082246
      px      :     0.036631
      py      :     0.040601
      dz2     :     0.000098  d :    -0.000205
      dxz     :    -0.000066
      dyz     :    -0.000138
      dx2y2   :     0.000123
      dxy     :    -0.000222
      f0      :    -0.000021  f :    -0.000179
      f+1     :    -0.000037
      f-1     :    -0.000016
      f+2     :    -0.000028
      f-2     :    -0.000036
      f+3     :    -0.000009
      f-3     :    -0.000032
 38 C s       :     0.003719  s :     0.003719
      pz      :    -0.000081  p :     0.011157
      px      :     0.005028
      py      :     0.006211
      dz2     :     0.000194  d :     0.002541
      dxz     :     0.000127
      dyz     :     0.000575
      dx2y2   :     0.001625
      dxy     :     0.000020
      f0      :     0.000007  f :     0.000121
      f+1     :     0.000016
      f-1     :     0.000011
      f+2     :     0.000002
      f-2     :    -0.000007
      f+3     :     0.000056
      f-3     :     0.000036
 39 C s       :    -0.004639  s :    -0.004639
      pz      :    -0.001421  p :     0.019937
      px      :     0.010044
      py      :     0.011314
      dz2     :    -0.000072  d :     0.000850
      dxz     :     0.000701
      dyz     :     0.000247
      dx2y2   :     0.000112
      dxy     :    -0.000138
      f0      :    -0.000013  f :     0.000068
      f+1     :     0.000004
      f-1     :    -0.000017
      f+2     :     0.000121
      f-2     :    -0.000018
      f+3     :    -0.000013
      f-3     :     0.000004
 40 C s       :     0.000003  s :     0.000003
      pz      :    -0.000003  p :    -0.000006
      px      :    -0.000006
      py      :     0.000003
      dz2     :     0.000000  d :     0.000000
      dxz     :     0.000000
      dyz     :    -0.000000
      dx2y2   :     0.000000
      dxy     :    -0.000000
      f0      :     0.000000  f :     0.000000
      f+1     :     0.000000
      f-1     :    -0.000000
      f+2     :     0.000000
      f-2     :    -0.000000
      f+3     :    -0.000000
      f-3     :     0.000000
 41 C s       :     0.000003  s :     0.000003
      pz      :    -0.000003  p :    -0.000000
      px      :     0.000001
      py      :     0.000001
      dz2     :    -0.000000  d :     0.000000
      dxz     :    -0.000000
      dyz     :     0.000000
      dx2y2   :     0.000000
      dxy     :     0.000000
      f0      :    -0.000000  f :    -0.000000
      f+1     :     0.000000
      f-1     :    -0.000000
      f+2     :    -0.000000
      f-2     :    -0.000000
      f+3     :     0.000000
      f-3     :    -0.000000
 42 C s       :     0.000004  s :     0.000004
      pz      :     0.000002  p :     0.000006
      px      :    -0.000003
      py      :     0.000007
      dz2     :     0.000000  d :     0.000000
      dxz     :     0.000000
      dyz     :    -0.000000
      dx2y2   :     0.000000
      dxy     :     0.000000
      f0      :    -0.000000  f :     0.000000
      f+1     :     0.000000
      f-1     :     0.000000
      f+2     :    -0.000000
      f-2     :     0.000000
      f+3     :     0.000000
      f-3     :     0.000000
 43 C s       :    -0.000032  s :    -0.000032
      pz      :     0.000000  p :     0.000035
      px      :     0.000042
      py      :    -0.000008
      dz2     :     0.000000  d :     0.000000
      dxz     :     0.000000
      dyz     :     0.000000
      dx2y2   :    -0.000000
      dxy     :    -0.000000
      f0      :    -0.000000  f :     0.000000
      f+1     :     0.000000
      f-1     :     0.000000
      f+2     :    -0.000000
      f-2     :    -0.000000
      f+3     :     0.000000
      f-3     :     0.000000
 44 C s       :    -0.000005  s :    -0.000005
      pz      :     0.000008  p :     0.000021
      px      :     0.000020
      py      :    -0.000007
      dz2     :    -0.000000  d :     0.000000
      dxz     :     0.000000
      dyz     :     0.000000
      dx2y2   :    -0.000000
      dxy     :     0.000000
      f0      :     0.000000  f :    -0.000000
      f+1     :    -0.000000
      f-1     :    -0.000000
      f+2     :    -0.000000
      f-2     :     0.000000
      f+3     :    -0.000000
      f-3     :    -0.000000
 45 C s       :     0.000004  s :     0.000004
      pz      :    -0.000003  p :    -0.000000
      px      :    -0.000000
      py      :     0.000003
      dz2     :     0.000000  d :     0.000000
      dxz     :    -0.000000
      dyz     :     0.000000
      dx2y2   :    -0.000000
      dxy     :     0.000000
      f0      :    -0.000000  f :     0.000000
      f+1     :    -0.000000
      f-1     :     0.000000
      f+2     :    -0.000000
      f-2     :     0.000000
      f+3     :     0.000000
      f-3     :     0.000000
 46 C s       :     0.000002  s :     0.000002
      pz      :     0.000000  p :     0.000003
      px      :     0.000001
      py      :     0.000002
      dz2     :    -0.000000  d :    -0.000000
      dxz     :    -0.000000
      dyz     :     0.000000
      dx2y2   :     0.000000
      dxy     :    -0.000000
      f0      :    -0.000000  f :    -0.000000
      f+1     :    -0.000000
      f-1     :     0.000000
      f+2     :    -0.000000
      f-2     :    -0.000000
      f+3     :     0.000000
      f-3     :    -0.000000
 47 C s       :    -0.000001  s :    -0.000001
      pz      :    -0.000003  p :    -0.000005
      px      :    -0.000001
      py      :     0.000000
      dz2     :     0.000000  d :    -0.000000
      dxz     :    -0.000000
      dyz     :    -0.000000
      dx2y2   :     0.000000
      dxy     :    -0.000000
      f0      :     0.000000  f :     0.000000
      f+1     :     0.000000
      f-1     :    -0.000000
      f+2     :     0.000000
      f-2     :    -0.000000
      f+3     :    -0.000000
      f-3     :     0.000000
 48 H s       :    -0.000006  s :    -0.000006
      pz      :     0.000000  p :     0.000000
      px      :    -0.000000
      py      :     0.000000
 49 H s       :    -0.000001  s :    -0.000001
      pz      :    -0.000000  p :    -0.000000
      px      :    -0.000000
      py      :    -0.000000
 50 H s       :     0.000004  s :     0.000004
      pz      :     0.000000  p :    -0.000000
      px      :    -0.000000
      py      :    -0.000000
 51 H s       :    -0.000002  s :    -0.000002
      pz      :     0.000000  p :     0.000000
      px      :    -0.000000
      py      :     0.000000
 52 H s       :    -0.000000  s :    -0.000000
      pz      :     0.000000  p :     0.000000
      px      :    -0.000000
      py      :     0.000000
 53 H s       :    -0.000554  s :    -0.000554
      pz      :     0.000011  p :     0.000024
      px      :     0.000006
      py      :     0.000008
 54 H s       :    -0.000479  s :    -0.000479
      pz      :     0.000009  p :     0.000019
      px      :     0.000005
      py      :     0.000005
 55 H s       :     0.000514  s :     0.000514
      pz      :    -0.000008  p :    -0.000010
      px      :    -0.000005
      py      :     0.000003
 56 H s       :     0.000027  s :     0.000027
      pz      :     0.000002  p :     0.000002
      px      :     0.000000
      py      :     0.000000
 57 H s       :     0.000024  s :     0.000024
      pz      :    -0.000002  p :    -0.000002
      px      :    -0.000000
      py      :    -0.000000
 58 H s       :     0.000018  s :     0.000018
      pz      :    -0.000001  p :    -0.000002
      px      :    -0.000000
      py      :    -0.000000
 59 H s       :    -0.001679  s :    -0.001679
      pz      :    -0.000013  p :     0.000101
      px      :     0.000050
      py      :     0.000063
 60 H s       :    -0.000644  s :    -0.000644
      pz      :     0.000004  p :     0.000080
      px      :     0.000040
      py      :     0.000036
 61 H s       :    -0.004394  s :    -0.004394
      pz      :     0.000042  p :     0.000482
      px      :     0.000217
      py      :     0.000223
 62 H s       :     0.001293  s :     0.001293
      pz      :    -0.000023  p :    -0.000268
      px      :    -0.000122
      py      :    -0.000122
 63 H s       :     0.001294  s :     0.001294
      pz      :    -0.000023  p :    -0.000268
      px      :    -0.000116
      py      :    -0.000129
 64 H s       :    -0.004392  s :    -0.004392
      pz      :     0.000039  p :     0.000482
      px      :     0.000212
      py      :     0.000231
 65 H s       :    -0.000638  s :    -0.000638
      pz      :     0.000005  p :     0.000079
      px      :     0.000035
      py      :     0.000039
 66 H s       :    -0.001718  s :    -0.001718
      pz      :    -0.000013  p :     0.000101
      px      :     0.000062
      py      :     0.000052
 67 H s       :     0.000002  s :     0.000002
      pz      :     0.000000  p :    -0.000000
      px      :    -0.000000
      py      :     0.000000
 68 H s       :     0.000000  s :     0.000000
      pz      :    -0.000000  p :     0.000000
      px      :     0.000000
      py      :    -0.000000
 69 H s       :    -0.000001  s :    -0.000001
      pz      :    -0.000000  p :    -0.000000
      px      :    -0.000000
      py      :     0.000000
 70 H s       :    -0.000010  s :    -0.000010
      pz      :     0.000000  p :     0.000000
      px      :     0.000000
      py      :     0.000000
 71 H s       :     0.000005  s :     0.000005
      pz      :     0.000000  p :     0.000000
      px      :     0.000000
      py      :     0.000000
 72 H s       :     0.000000  s :     0.000000
      pz      :    -0.000000  p :    -0.000000
      px      :    -0.000000
      py      :     0.000000
 73 H s       :     0.000000  s :     0.000000
      pz      :    -0.000000  p :     0.000000
      px      :     0.000000
      py      :     0.000000
 74 H s       :     0.000000  s :     0.000000
      pz      :    -0.000000  p :    -0.000000
      px      :    -0.000000
      py      :     0.000000


                     *******************************
                     * LOEWDIN POPULATION ANALYSIS *
                     *******************************

-------------------------------------------
LOEWDIN ATOMIC CHARGES AND SPIN POPULATIONS
-------------------------------------------
   0 C :   -0.178789    0.000043
   1 C :   -0.097635    0.000012
   2 C :   -0.134399    0.000001
   3 C :   -0.382273    0.000001
   4 C :   -0.137521    0.000000
   5 C :   -0.100191    0.000016
   6 S :    0.395701    0.000001
   7 N :    0.331020    0.000418
   8 C :   -0.112295    0.000831
   9 C :   -0.068023    0.000177
  10 C :   -0.081798    0.000396
  11 C :   -0.110957   -0.000107
  12 C :   -0.067760    0.006083
  13 C :   -0.196571    0.012899
  14 C :   -0.115231    0.005994
  15 C :   -0.098317   -0.000074
  16 C :   -0.103229    0.000163
  17 C :   -0.075320   -0.000232
  18 C :   -0.177592    0.000117
  19 C :   -0.067619   -0.000176
  20 N :    0.363615    0.222946
  21 C :   -0.127030    0.053733
  22 C :   -0.316206    0.094736
  23 S :    0.897989    0.271450
  24 C :   -0.316266    0.094629
  25 C :   -0.127456    0.053682
  26 N :    0.280022    0.000012
  27 C :   -0.160679    0.000003
  28 C :   -0.330603    0.000001
  29 S :    0.692958    0.000001
  30 C :   -0.331561    0.000001
  31 C :   -0.160515    0.000005
  32 C :   -0.083009    0.022315
  33 C :   -0.093686    0.021257
  34 C :   -0.097126    0.062280
  35 C :   -0.123443   -0.013981
  36 C :   -0.123339   -0.014028
  37 C :   -0.097260    0.062214
  38 C :   -0.093908    0.021072
  39 C :   -0.083439    0.022442
  40 C :   -0.138978   -0.000001
  41 C :   -0.149674    0.000001
  42 C :   -0.144983   -0.000001
  43 C :   -0.125439    0.000002
  44 C :   -0.127472    0.000002
  45 C :   -0.144840   -0.000000
  46 C :   -0.150112    0.000001
  47 C :   -0.139223   -0.000001
  48 H :    0.158098   -0.000000
  49 H :    0.153487    0.000000
  50 H :    0.149587    0.000001
  51 H :    0.156494   -0.000000
  52 H :    0.048633    0.000000
  53 H :    0.161008   -0.000199
  54 H :    0.158913   -0.000197
  55 H :    0.160800    0.000277
  56 H :    0.157539    0.000007
  57 H :    0.162438   -0.000000
  58 H :    0.159974    0.000005
  59 H :    0.172572   -0.000223
  60 H :    0.161822   -0.000022
  61 H :    0.161658   -0.000097
  62 H :    0.160384   -0.000275
  63 H :    0.160393   -0.000275
  64 H :    0.161632   -0.000096
  65 H :    0.161700   -0.000022
  66 H :    0.172046   -0.000222
  67 H :    0.150522    0.000000
  68 H :    0.147035    0.000000
  69 H :    0.145294    0.000000
  70 H :    0.153166    0.000000
  71 H :    0.152287    0.000000
  72 H :    0.145404    0.000000
  73 H :    0.147048    0.000000
  74 H :    0.150526    0.000000

----------------------------------------------------
LOEWDIN REDUCED ORBITAL CHARGES AND SPIN POPULATIONS
----------------------------------------------------
CHARGE
  0 C s       :     2.689202  s :     2.689202
      pz      :     1.068231  p :     2.830753
      px      :     0.845581
      py      :     0.916940
      dz2     :     0.146477  d :     0.583141
      dxz     :     0.192270
      dyz     :     0.081314
      dx2y2   :     0.095115
      dxy     :     0.067964
      f0      :     0.019035  f :     0.075694
      f+1     :     0.011100
      f-1     :     0.005726
      f+2     :     0.015556
      f-2     :     0.007653
      f+3     :     0.008449
      f-3     :     0.008175
  1 C s       :     2.752923  s :     2.752923
      pz      :     0.990925  p :     2.912071
      px      :     1.043968
      py      :     0.877177
      dz2     :     0.082283  d :     0.387842
      dxz     :     0.142433
      dyz     :     0.033045
      dx2y2   :     0.055790
      dxy     :     0.074291
      f0      :     0.009319  f :     0.044800
      f+1     :     0.007516
      f-1     :     0.004522
      f+2     :     0.008617
      f-2     :     0.003976
      f+3     :     0.004985
      f-3     :     0.005864
  2 C s       :     2.756389  s :     2.756389
      pz      :     0.998968  p :     2.950632
      px      :     1.052626
      py      :     0.899039
      dz2     :     0.083082  d :     0.383116
      dxz     :     0.148122
      dyz     :     0.031922
      dx2y2   :     0.055662
      dxy     :     0.064328
      f0      :     0.009696  f :     0.044262
      f+1     :     0.007290
      f-1     :     0.004436
      f+2     :     0.008704
      f-2     :     0.003258
      f+3     :     0.005047
      f-3     :     0.005830
  3 C s       :     2.769909  s :     2.769909
      pz      :     1.080243  p :     2.990450
      px      :     1.029817
      py      :     0.880390
      dz2     :     0.148472  d :     0.565163
      dxz     :     0.140376
      dyz     :     0.075617
      dx2y2   :     0.094527
      dxy     :     0.106171
      f0      :     0.013407  f :     0.056751
      f+1     :     0.009075
      f-1     :     0.006040
      f+2     :     0.010725
      f-2     :     0.007327
      f+3     :     0.004635
      f-3     :     0.005543
  4 C s       :     2.756841  s :     2.756841
      pz      :     0.994907  p :     2.951921
      px      :     1.051174
      py      :     0.905839
      dz2     :     0.086308  d :     0.384617
      dxz     :     0.144533
      dyz     :     0.029755
      dx2y2   :     0.057928
      dxy     :     0.066093
      f0      :     0.009457  f :     0.044143
      f+1     :     0.007363
      f-1     :     0.004150
      f+2     :     0.008768
      f-2     :     0.003519
      f+3     :     0.005059
      f-3     :     0.005827
  5 C s       :     2.752930  s :     2.752930
      pz      :     0.992728  p :     2.914187
      px      :     1.042088
      py      :     0.879371
      dz2     :     0.081341  d :     0.388319
      dxz     :     0.144289
      dyz     :     0.035727
      dx2y2   :     0.054050
      dxy     :     0.072912
      f0      :     0.009561  f :     0.044754
      f+1     :     0.007428
      f-1     :     0.004883
      f+2     :     0.008483
      f-2     :     0.003602
      f+3     :     0.004943
      f-3     :     0.005856
  6 S s       :     5.324402  s :     5.324402
      pz      :     3.214144  p :    10.056715
      px      :     3.087488
      py      :     3.755083
      dz2     :     0.066882  d :     0.194138
      dxz     :     0.037002
      dyz     :     0.006662
      dx2y2   :     0.048152
      dxy     :     0.035439
      f0      :     0.008426  f :     0.029045
      f+1     :     0.003985
      f-1     :     0.001626
      f+2     :     0.003670
      f-2     :     0.000157
      f+3     :     0.005953
      f-3     :     0.005229
  7 N s       :     2.822924  s :     2.822924
      pz      :     1.305884  p :     3.517521
      px      :     1.097499
      py      :     1.114138
      dz2     :     0.016720  d :     0.306487
      dxz     :     0.039351
      dyz     :     0.045753
      dx2y2   :     0.094107
      dxy     :     0.110556
      f0      :     0.001958  f :     0.022048
      f+1     :     0.002059
      f-1     :     0.001687
      f+2     :     0.001710
      f-2     :     0.003389
      f+3     :     0.002820
      f-3     :     0.008425
  8 C s       :     2.673195  s :     2.673195
      pz      :     0.841981  p :     2.745949
      px      :     0.948706
      py      :     0.955263
      dz2     :     0.041870  d :     0.611653
      dxz     :     0.087870
      dyz     :     0.118096
      dx2y2   :     0.171013
      dxy     :     0.192804
      f0      :     0.005313  f :     0.081498
      f+1     :     0.004674
      f-1     :     0.006256
      f+2     :     0.007883
      f-2     :     0.014530
      f+3     :     0.019790
      f-3     :     0.023053
  9 C s       :     2.671773  s :     2.671773
      pz      :     0.861750  p :     2.819446
      px      :     0.988360
      py      :     0.969337
      dz2     :     0.034388  d :     0.515101
      dxz     :     0.065462
      dyz     :     0.089213
      dx2y2   :     0.170144
      dxy     :     0.155895
      f0      :     0.004096  f :     0.061702
      f+1     :     0.004415
      f-1     :     0.004338
      f+2     :     0.008456
      f-2     :     0.006021
      f+3     :     0.020568
      f-3     :     0.013807
 10 C s       :     2.669643  s :     2.669643
      pz      :     0.882560  p :     2.836958
      px      :     0.996374
      py      :     0.958024
      dz2     :     0.034356  d :     0.513189
      dxz     :     0.073514
      dyz     :     0.078198
      dx2y2   :     0.175446
      dxy     :     0.151674
      f0      :     0.004071  f :     0.062007
      f+1     :     0.004419
      f-1     :     0.004428
      f+2     :     0.007975
      f-2     :     0.006533
      f+3     :     0.020703
      f-3     :     0.013878
 11 C s       :     2.673873  s :     2.673873
      pz      :     0.853163  p :     2.749782
      px      :     0.945649
      py      :     0.950970
      dz2     :     0.041904  d :     0.606674
      dxz     :     0.086528
      dyz     :     0.116401
      dx2y2   :     0.166019
      dxy     :     0.195823
      f0      :     0.005243  f :     0.080627
      f+1     :     0.004715
      f-1     :     0.006246
      f+2     :     0.008558
      f-2     :     0.013587
      f+3     :     0.020004
      f-3     :     0.022273
 12 C s       :     2.742129  s :     2.742129
      pz      :     0.878772  p :     2.895783
      px      :     0.996207
      py      :     1.020803
      dz2     :     0.026005  d :     0.384885
      dxz     :     0.018375
      dyz     :     0.090010
      dx2y2   :     0.142798
      dxy     :     0.107698
      f0      :     0.003346  f :     0.044962
      f+1     :     0.003366
      f-1     :     0.004395
      f+2     :     0.003883
      f-2     :     0.007235
      f+3     :     0.011672
      f-3     :     0.011066
 13 C s       :     2.690220  s :     2.690220
      pz      :     0.954564  p :     2.854207
      px      :     0.947728
      py      :     0.951915
      dz2     :     0.047369  d :     0.578606
      dxz     :     0.076264
      dyz     :     0.079208
      dx2y2   :     0.172129
      dxy     :     0.203634
      f0      :     0.005306  f :     0.073538
      f+1     :     0.005764
      f-1     :     0.005817
      f+2     :     0.008119
      f-2     :     0.007138
      f+3     :     0.020947
      f-3     :     0.020448
 14 C s       :     2.750681  s :     2.750681
      pz      :     0.894427  p :     2.928327
      px      :     1.034681
      py      :     0.999220
      dz2     :     0.026873  d :     0.391451
      dxz     :     0.091524
      dyz     :     0.017626
      dx2y2   :     0.151120
      dxy     :     0.104307
      f0      :     0.003319  f :     0.044771
      f+1     :     0.004528
      f-1     :     0.003297
      f+2     :     0.003424
      f-2     :     0.007423
      f+3     :     0.011552
      f-3     :     0.011229
 15 C s       :     2.747623  s :     2.747623
      pz      :     0.900021  p :     2.935065
      px      :     1.005321
      py      :     1.029723
      dz2     :     0.024549  d :     0.371552
      dxz     :     0.019022
      dyz     :     0.074408
      dx2y2   :     0.142707
      dxy     :     0.110865
      f0      :     0.003297  f :     0.044077
      f+1     :     0.003404
      f-1     :     0.004495
      f+2     :     0.003205
      f-2     :     0.006232
      f+3     :     0.012186
      f-3     :     0.011259
 16 C s       :     2.747376  s :     2.747376
      pz      :     0.906916  p :     2.942151
      px      :     1.006935
      py      :     1.028300
      dz2     :     0.024749  d :     0.369581
      dxz     :     0.017799
      dyz     :     0.071530
      dx2y2   :     0.145913
      dxy     :     0.109590
      f0      :     0.003262  f :     0.044121
      f+1     :     0.003462
      f-1     :     0.004503
      f+2     :     0.003333
      f-2     :     0.005906
      f+3     :     0.012435
      f-3     :     0.011219
 17 C s       :     2.754052  s :     2.754052
      pz      :     0.852185  p :     2.892890
      px      :     1.040215
      py      :     1.000489
      dz2     :     0.027198  d :     0.384529
      dxz     :     0.082224
      dyz     :     0.017119
      dx2y2   :     0.149257
      dxy     :     0.108730
      f0      :     0.003264  f :     0.043850
      f+1     :     0.004460
      f-1     :     0.003241
      f+2     :     0.002944
      f-2     :     0.006896
      f+3     :     0.011757
      f-3     :     0.011288
 18 C s       :     2.689837  s :     2.689837
      pz      :     0.882032  p :     2.817608
      px      :     0.963271
      py      :     0.972306
      dz2     :     0.042540  d :     0.593803
      dxz     :     0.071552
      dyz     :     0.077958
      dx2y2   :     0.206974
      dxy     :     0.194779
      f0      :     0.005214  f :     0.076344
      f+1     :     0.005550
      f-1     :     0.005661
      f+2     :     0.007580
      f-2     :     0.007849
      f+3     :     0.022455
      f-3     :     0.022036
 19 C s       :     2.745205  s :     2.745205
      pz      :     0.875052  p :     2.895787
      px      :     0.991042
      py      :     1.029693
      dz2     :     0.027959  d :     0.382357
      dxz     :     0.019806
      dyz     :     0.081007
      dx2y2   :     0.138320
      dxy     :     0.115266
      f0      :     0.003227  f :     0.044271
      f+1     :     0.003409
      f-1     :     0.004328
      f+2     :     0.003459
      f-2     :     0.006884
      f+3     :     0.011838
      f-3     :     0.011126
 20 N s       :     2.841295  s :     2.841295
      pz      :     1.129662  p :     3.471713
      px      :     1.170465
      py      :     1.171585
      dz2     :     0.079508  d :     0.303065
      dxz     :     0.076174
      dyz     :     0.075741
      dx2y2   :     0.036208
      dxy     :     0.035434
      f0      :     0.005759  f :     0.020313
      f+1     :     0.002519
      f-1     :     0.002407
      f+2     :     0.002286
      f-2     :     0.003725
      f+3     :     0.001803
      f-3     :     0.001814
 21 C s       :     2.688150  s :     2.688150
      pz      :     0.909188  p :     2.769051
      px      :     0.940671
      py      :     0.919192
      dz2     :     0.148698  d :     0.594151
      dxz     :     0.139696
      dyz     :     0.146557
      dx2y2   :     0.084694
      dxy     :     0.074507
      f0      :     0.018618  f :     0.075678
      f+1     :     0.011613
      f-1     :     0.011340
      f+2     :     0.010458
      f-2     :     0.013131
      f+3     :     0.005104
      f-3     :     0.005414
 22 C s       :     2.751683  s :     2.751683
      pz      :     1.015761  p :     2.965458
      px      :     0.973154
      py      :     0.976543
      dz2     :     0.113419  d :     0.543602
      dxz     :     0.142829
      dyz     :     0.132189
      dx2y2   :     0.084184
      dxy     :     0.070982
      f0      :     0.012386  f :     0.055462
      f+1     :     0.007872
      f-1     :     0.007236
      f+2     :     0.006489
      f-2     :     0.010416
      f+3     :     0.005603
      f-3     :     0.005460
 23 S s       :     5.142233  s :     5.142233
      pz      :     2.877600  p :     9.584191
      px      :     3.348440
      py      :     3.358151
      dz2     :     0.084398  d :     0.323288
      dxz     :     0.090788
      dyz     :     0.088378
      dx2y2   :     0.034251
      dxy     :     0.025473
      f0      :     0.009275  f :     0.052299
      f+1     :     0.009599
      f-1     :     0.009128
      f+2     :     0.009092
      f-2     :     0.011273
      f+3     :     0.001997
      f-3     :     0.001934
 24 C s       :     2.751618  s :     2.751618
      pz      :     1.014034  p :     2.965531
      px      :     0.981311
      py      :     0.970186
      dz2     :     0.116052  d :     0.543638
      dxz     :     0.134658
      dyz     :     0.139680
      dx2y2   :     0.083405
      dxy     :     0.069843
      f0      :     0.012639  f :     0.055480
      f+1     :     0.007287
      f-1     :     0.007368
      f+2     :     0.006711
      f-2     :     0.010627
      f+3     :     0.005335
      f-3     :     0.005513
 25 C s       :     2.688063  s :     2.688063
      pz      :     0.916907  p :     2.769147
      px      :     0.919633
      py      :     0.932607
      dz2     :     0.145760  d :     0.594505
      dxz     :     0.149840
      dyz     :     0.138886
      dx2y2   :     0.085482
      dxy     :     0.074537
      f0      :     0.018761  f :     0.075741
      f+1     :     0.011168
      f-1     :     0.010721
      f+2     :     0.010806
      f-2     :     0.013636
      f+3     :     0.005457
      f-3     :     0.005190
 26 N s       :     2.841090  s :     2.841090
      pz      :     1.102543  p :     3.578060
      px      :     1.215741
      py      :     1.259776
      dz2     :     0.074294  d :     0.281128
      dxz     :     0.076607
      dyz     :     0.057196
      dx2y2   :     0.034361
      dxy     :     0.038670
      f0      :     0.004920  f :     0.019700
      f+1     :     0.002456
      f-1     :     0.002474
      f+2     :     0.002185
      f-2     :     0.003528
      f+3     :     0.002023
      f-3     :     0.002114
 27 C s       :     2.690422  s :     2.690422
      pz      :     0.908135  p :     2.784113
      px      :     0.879201
      py      :     0.996777
      dz2     :     0.135113  d :     0.610306
      dxz     :     0.129453
      dyz     :     0.158355
      dx2y2   :     0.099919
      dxy     :     0.087466
      f0      :     0.015941  f :     0.075838
      f+1     :     0.010422
      f-1     :     0.011814
      f+2     :     0.011306
      f-2     :     0.012841
      f+3     :     0.006113
      f-3     :     0.007401
 28 C s       :     2.752147  s :     2.752147
      pz      :     0.995074  p :     2.979395
      px      :     0.979990
      py      :     1.004330
      dz2     :     0.103100  d :     0.543292
      dxz     :     0.098375
      dyz     :     0.154294
      dx2y2   :     0.089956
      dxy     :     0.097568
      f0      :     0.011067  f :     0.055769
      f+1     :     0.006700
      f-1     :     0.007302
      f+2     :     0.006496
      f-2     :     0.011152
      f+3     :     0.005959
      f-3     :     0.007094
 29 S s       :     5.179165  s :     5.179165
      pz      :     2.866185  p :     9.798181
      px      :     3.650793
      py      :     3.281203
      dz2     :     0.074583  d :     0.282621
      dxz     :     0.040989
      dyz     :     0.109132
      dx2y2   :     0.025556
      dxy     :     0.032360
      f0      :     0.007457  f :     0.047075
      f+1     :     0.003288
      f-1     :     0.013903
      f+2     :     0.011129
      f-2     :     0.007239
      f+3     :     0.002287
      f-3     :     0.001773
 30 C s       :     2.752092  s :     2.752092
      pz      :     1.012438  p :     2.979403
      px      :     0.961990
      py      :     1.004975
      dz2     :     0.111604  d :     0.544241
      dxz     :     0.106860
      dyz     :     0.165102
      dx2y2   :     0.077605
      dxy     :     0.083068
      f0      :     0.012520  f :     0.055826
      f+1     :     0.006658
      f-1     :     0.008572
      f+2     :     0.006240
      f-2     :     0.010581
      f+3     :     0.005400
      f-3     :     0.005854
 31 C s       :     2.690123  s :     2.690123
      pz      :     0.904635  p :     2.784577
      px      :     0.890335
      py      :     0.989606
      dz2     :     0.144301  d :     0.609951
      dxz     :     0.131824
      dyz     :     0.169924
      dx2y2   :     0.088088
      dxy     :     0.075815
      f0      :     0.017857  f :     0.075864
      f+1     :     0.010646
      f-1     :     0.012962
      f+2     :     0.011392
      f-2     :     0.011884
      f+3     :     0.005258
      f-3     :     0.005864
 32 C s       :     2.747994  s :     2.747994
      pz      :     1.037995  p :     2.919376
      px      :     0.936389
      py      :     0.944993
      dz2     :     0.125283  d :     0.371919
      dxz     :     0.092549
      dyz     :     0.088127
      dx2y2   :     0.016093
      dxy     :     0.049868
      f0      :     0.011536  f :     0.043720
      f+1     :     0.007358
      f-1     :     0.006815
      f+2     :     0.007000
      f-2     :     0.007484
      f+3     :     0.001868
      f-3     :     0.001659
 33 C s       :     2.758652  s :     2.758652
      pz      :     1.023167  p :     2.904071
      px      :     0.934258
      py      :     0.946646
      dz2     :     0.083122  d :     0.386385
      dxz     :     0.100595
      dyz     :     0.092694
      dx2y2   :     0.057818
      dxy     :     0.052156
      f0      :     0.010691  f :     0.044577
      f+1     :     0.006762
      f-1     :     0.006374
      f+2     :     0.002524
      f-2     :     0.008401
      f+3     :     0.004959
      f-3     :     0.004867
 34 C s       :     2.759196  s :     2.759196
      pz      :     1.012039  p :     2.909619
      px      :     0.952841
      py      :     0.944739
      dz2     :     0.095905  d :     0.383550
      dxz     :     0.075651
      dyz     :     0.087602
      dx2y2   :     0.065054
      dxy     :     0.059338
      f0      :     0.009941  f :     0.044762
      f+1     :     0.005950
      f-1     :     0.005575
      f+2     :     0.004367
      f-2     :     0.008896
      f+3     :     0.004735
      f-3     :     0.005298
 35 C s       :     2.754868  s :     2.754868
      pz      :     1.051416  p :     2.934778
      px      :     0.946658
      py      :     0.936704
      dz2     :     0.140762  d :     0.388825
      dxz     :     0.089510
      dyz     :     0.088652
      dx2y2   :     0.015086
      dxy     :     0.054814
      f0      :     0.011762  f :     0.044972
      f+1     :     0.007837
      f-1     :     0.006727
      f+2     :     0.007216
      f-2     :     0.007602
      f+3     :     0.001928
      f-3     :     0.001900
 36 C s       :     2.754840  s :     2.754840
      pz      :     1.054870  p :     2.934638
      px      :     0.939115
      py      :     0.940653
      dz2     :     0.140886  d :     0.388881
      dxz     :     0.090842
      dyz     :     0.088830
      dx2y2   :     0.014492
      dxy     :     0.053831
      f0      :     0.012146  f :     0.044980
      f+1     :     0.006852
      f-1     :     0.007172
      f+2     :     0.007414
      f-2     :     0.007798
      f+3     :     0.001642
      f-3     :     0.001956
 37 C s       :     2.759132  s :     2.759132
      pz      :     1.015757  p :     2.909753
      px      :     0.948883
      py      :     0.945113
      dz2     :     0.092739  d :     0.383601
      dxz     :     0.094426
      dyz     :     0.077207
      dx2y2   :     0.062480
      dxy     :     0.056749
      f0      :     0.010573  f :     0.044775
      f+1     :     0.005852
      f-1     :     0.005736
      f+2     :     0.003793
      f-2     :     0.008868
      f+3     :     0.005202
      f-3     :     0.004750
 38 C s       :     2.758609  s :     2.758609
      pz      :     1.020369  p :     2.904262
      px      :     0.953254
      py      :     0.930639
      dz2     :     0.085844  d :     0.386448
      dxz     :     0.092111
      dyz     :     0.093982
      dx2y2   :     0.060259
      dxy     :     0.054253
      f0      :     0.010761  f :     0.044588
      f+1     :     0.006119
      f-1     :     0.006161
      f+2     :     0.002930
      f-2     :     0.008713
      f+3     :     0.004882
      f-3     :     0.005023
 39 C s       :     2.748036  s :     2.748036
      pz      :     1.036125  p :     2.919730
      px      :     0.948908
      py      :     0.934697
      dz2     :     0.128213  d :     0.371952
      dxz     :     0.088277
      dyz     :     0.089771
      dx2y2   :     0.015474
      dxy     :     0.050217
      f0      :     0.011819  f :     0.043721
      f+1     :     0.007006
      f-1     :     0.006860
      f+2     :     0.007067
      f-2     :     0.007557
      f+3     :     0.001471
      f-3     :     0.001941
 40 C s       :     2.756651  s :     2.756651
      pz      :     1.060783  p :     2.942033
      px      :     0.916971
      py      :     0.964279
      dz2     :     0.138766  d :     0.395324
      dxz     :     0.089794
      dyz     :     0.095475
      dx2y2   :     0.021306
      dxy     :     0.049983
      f0      :     0.011460  f :     0.044971
      f+1     :     0.005831
      f-1     :     0.008218
      f+2     :     0.007894
      f-2     :     0.007712
      f+3     :     0.002922
      f-3     :     0.000935
 41 C s       :     2.756511  s :     2.756511
      pz      :     1.001570  p :     2.959788
      px      :     0.943615
      py      :     1.014603
      dz2     :     0.093181  d :     0.388470
      dxz     :     0.068679
      dyz     :     0.099992
      dx2y2   :     0.066243
      dxy     :     0.060375
      f0      :     0.009871  f :     0.044906
      f+1     :     0.004838
      f-1     :     0.006760
      f+2     :     0.004447
      f-2     :     0.008530
      f+3     :     0.005216
      f-3     :     0.005244
 42 C s       :     2.756841  s :     2.756841
      pz      :     1.009384  p :     2.946423
      px      :     0.941400
      py      :     0.995639
      dz2     :     0.081619  d :     0.396785
      dxz     :     0.070145
      dyz     :     0.128973
      dx2y2   :     0.064389
      dxy     :     0.051659
      f0      :     0.010553  f :     0.044934
      f+1     :     0.005814
      f-1     :     0.007314
      f+2     :     0.003407
      f-2     :     0.007534
      f+3     :     0.004759
      f-3     :     0.005553
 43 C s       :     2.747212  s :     2.747212
      pz      :     1.045008  p :     2.955655
      px      :     0.946778
      py      :     0.963869
      dz2     :     0.127858  d :     0.378780
      dxz     :     0.083338
      dyz     :     0.099269
      dx2y2   :     0.019908
      dxy     :     0.048407
      f0      :     0.011251  f :     0.043792
      f+1     :     0.005506
      f-1     :     0.008374
      f+2     :     0.007616
      f-2     :     0.007317
      f+3     :     0.002827
      f-3     :     0.000901
 44 C s       :     2.747434  s :     2.747434
      pz      :     1.035159  p :     2.958147
      px      :     0.958353
      py      :     0.964635
      dz2     :     0.124656  d :     0.378148
      dxz     :     0.076726
      dyz     :     0.090494
      dx2y2   :     0.026119
      dxy     :     0.060153
      f0      :     0.009244  f :     0.043743
      f+1     :     0.006226
      f-1     :     0.008044
      f+2     :     0.007555
      f-2     :     0.007698
      f+3     :     0.003327
      f-3     :     0.001649
 45 C s       :     2.756942  s :     2.756942
      pz      :     0.994739  p :     2.945927
      px      :     0.959224
      py      :     0.991964
      dz2     :     0.077337  d :     0.397037
      dxz     :     0.062477
      dyz     :     0.123267
      dx2y2   :     0.076321
      dxy     :     0.057634
      f0      :     0.009589  f :     0.044933
      f+1     :     0.005528
      f-1     :     0.006240
      f+2     :     0.004296
      f-2     :     0.008051
      f+3     :     0.004815
      f-3     :     0.006414
 46 C s       :     2.756456  s :     2.756456
      pz      :     0.994526  p :     2.960410
      px      :     0.947867
      py      :     1.018017
      dz2     :     0.079738  d :     0.388325
      dxz     :     0.080393
      dyz     :     0.093823
      dx2y2   :     0.071135
      dxy     :     0.063236
      f0      :     0.008958  f :     0.044921
      f+1     :     0.005108
      f-1     :     0.006511
      f+2     :     0.004219
      f-2     :     0.008699
      f+3     :     0.005470
      f-3     :     0.005956
 47 C s       :     2.756656  s :     2.756656
      pz      :     1.045772  p :     2.941794
      px      :     0.927574
      py      :     0.968448
      dz2     :     0.132526  d :     0.395778
      dxz     :     0.084395
      dyz     :     0.087593
      dx2y2   :     0.029794
      dxy     :     0.061470
      f0      :     0.009183  f :     0.044994
      f+1     :     0.006664
      f-1     :     0.007904
      f+2     :     0.007814
      f-2     :     0.008184
      f+3     :     0.003556
      f-3     :     0.001690
 48 H s       :     0.783460  s :     0.783460
      pz      :     0.028489  p :     0.058441
      px      :     0.016174
      py      :     0.013778
 49 H s       :     0.787506  s :     0.787506
      pz      :     0.028082  p :     0.059007
      px      :     0.016560
      py      :     0.014365
 50 H s       :     0.791644  s :     0.791644
      pz      :     0.028713  p :     0.058769
      px      :     0.015653
      py      :     0.014403
 51 H s       :     0.785157  s :     0.785157
      pz      :     0.027696  p :     0.058349
      px      :     0.016818
      py      :     0.013835
 52 H s       :     0.877373  s :     0.877373
      pz      :     0.045101  p :     0.073995
      px      :     0.008375
      py      :     0.020519
 53 H s       :     0.779835  s :     0.779835
      pz      :     0.013654  p :     0.059157
      px      :     0.033417
      py      :     0.012086
 54 H s       :     0.781868  s :     0.781868
      pz      :     0.013966  p :     0.059219
      px      :     0.011775
      py      :     0.033478
 55 H s       :     0.778953  s :     0.778953
      pz      :     0.013611  p :     0.060248
      px      :     0.034414
      py      :     0.012223
 56 H s       :     0.782467  s :     0.782467
      pz      :     0.013842  p :     0.059994
      px      :     0.033700
      py      :     0.012452
 57 H s       :     0.778809  s :     0.778809
      pz      :     0.012537  p :     0.058753
      px      :     0.011211
      py      :     0.035004
 58 H s       :     0.781177  s :     0.781177
      pz      :     0.013445  p :     0.058849
      px      :     0.033607
      py      :     0.011797
 59 H s       :     0.763730  s :     0.763730
      pz      :     0.011509  p :     0.063697
      px      :     0.025557
      py      :     0.026632
 60 H s       :     0.779599  s :     0.779599
      pz      :     0.026984  p :     0.058579
      px      :     0.017597
      py      :     0.013997
 61 H s       :     0.779386  s :     0.779386
      pz      :     0.031397  p :     0.058956
      px      :     0.012255
      py      :     0.015303
 62 H s       :     0.780290  s :     0.780290
      pz      :     0.010491  p :     0.059325
      px      :     0.024075
      py      :     0.024759
 63 H s       :     0.780287  s :     0.780287
      pz      :     0.010271  p :     0.059320
      px      :     0.025305
      py      :     0.023744
 64 H s       :     0.779413  s :     0.779413
      pz      :     0.030397  p :     0.058955
      px      :     0.015895
      py      :     0.012663
 65 H s       :     0.779729  s :     0.779729
      pz      :     0.028263  p :     0.058572
      px      :     0.013737
      py      :     0.016572
 66 H s       :     0.764276  s :     0.764276
      pz      :     0.011251  p :     0.063678
      px      :     0.027200
      py      :     0.025226
 67 H s       :     0.790970  s :     0.790970
      pz      :     0.010542  p :     0.058507
      px      :     0.019655
      py      :     0.028311
 68 H s       :     0.794570  s :     0.794570
      pz      :     0.029303  p :     0.058395
      px      :     0.015700
      py      :     0.013392
 69 H s       :     0.796995  s :     0.796995
      pz      :     0.025662  p :     0.057711
      px      :     0.013528
      py      :     0.018521
 70 H s       :     0.785020  s :     0.785020
      pz      :     0.011677  p :     0.061814
      px      :     0.021374
      py      :     0.028763
 71 H s       :     0.785806  s :     0.785806
      pz      :     0.011860  p :     0.061907
      px      :     0.021831
      py      :     0.028216
 72 H s       :     0.796885  s :     0.796885
      pz      :     0.025539  p :     0.057711
      px      :     0.012401
      py      :     0.019770
 73 H s       :     0.794551  s :     0.794551
      pz      :     0.027031  p :     0.058401
      px      :     0.018709
      py      :     0.012661
 74 H s       :     0.790964  s :     0.790964
      pz      :     0.010682  p :     0.058510
      px      :     0.019791
      py      :     0.028037

SPIN
  0 C s       :    -0.000002  s :    -0.000002
      pz      :    -0.000003  p :    -0.000007
      px      :    -0.000010
      py      :     0.000006
      dz2     :     0.000001  d :     0.000044
      dxz     :     0.000041
      dyz     :     0.000001
      dx2y2   :     0.000002
      dxy     :    -0.000001
      f0      :     0.000003  f :     0.000007
      f+1     :     0.000000
      f-1     :     0.000000
      f+2     :     0.000003
      f-2     :     0.000000
      f+3     :     0.000000
      f-3     :     0.000000
  1 C s       :     0.000002  s :     0.000002
      pz      :     0.000002  p :     0.000009
      px      :     0.000003
      py      :     0.000004
      dz2     :    -0.000000  d :     0.000002
      dxz     :    -0.000000
      dyz     :     0.000000
      dx2y2   :     0.000002
      dxy     :    -0.000000
      f0      :    -0.000000  f :    -0.000000
      f+1     :     0.000000
      f-1     :    -0.000000
      f+2     :    -0.000000
      f-2     :    -0.000000
      f+3     :     0.000000
      f-3     :    -0.000000
  2 C s       :     0.000000  s :     0.000000
      pz      :    -0.000000  p :    -0.000000
      px      :     0.000001
      py      :    -0.000001
      dz2     :     0.000000  d :     0.000001
      dxz     :     0.000000
      dyz     :     0.000000
      dx2y2   :     0.000000
      dxy     :     0.000000
      f0      :     0.000000  f :     0.000000
      f+1     :     0.000000
      f-1     :     0.000000
      f+2     :     0.000000
      f-2     :     0.000000
      f+3     :     0.000000
      f-3     :     0.000000
  3 C s       :     0.000000  s :     0.000000
      pz      :     0.000000  p :     0.000002
      px      :     0.000000
      py      :     0.000001
      dz2     :    -0.000000  d :    -0.000000
      dxz     :     0.000000
      dyz     :    -0.000000
      dx2y2   :    -0.000000
      dxy     :    -0.000000
      f0      :     0.000000  f :    -0.000000
      f+1     :    -0.000000
      f-1     :    -0.000000
      f+2     :     0.000000
      f-2     :    -0.000000
      f+3     :    -0.000000
      f-3     :     0.000000
  4 C s       :    -0.000000  s :    -0.000000
      pz      :    -0.000000  p :    -0.000002
      px      :     0.000001
      py      :    -0.000002
      dz2     :     0.000000  d :     0.000002
      dxz     :     0.000001
      dyz     :     0.000000
      dx2y2   :     0.000000
      dxy     :     0.000000
      f0      :     0.000000  f :     0.000000
      f+1     :     0.000000
      f-1     :     0.000000
      f+2     :     0.000000
      f-2     :     0.000000
      f+3     :     0.000000
      f-3     :     0.000000
  5 C s       :     0.000004  s :     0.000004
      pz      :     0.000006  p :     0.000013
      px      :     0.000004
      py      :     0.000003
      dz2     :     0.000000  d :    -0.000001
      dxz     :    -0.000001
      dyz     :    -0.000000
      dx2y2   :    -0.000000
      dxy     :    -0.000000
      f0      :    -0.000000  f :    -0.000000
      f+1     :     0.000000
      f-1     :    -0.000000
      f+2     :    -0.000000
      f-2     :    -0.000000
      f+3     :    -0.000000
      f-3     :     0.000000
  6 S s       :    -0.000000  s :    -0.000000
      pz      :     0.000000  p :     0.000000
      px      :    -0.000000
      py      :     0.000000
      dz2     :     0.000000  d :     0.000000
      dxz     :     0.000000
      dyz     :     0.000000
      dx2y2   :     0.000000
      dxy     :     0.000000
      f0      :     0.000000  f :     0.000000
      f+1     :     0.000000
      f-1     :     0.000000
      f+2     :     0.000000
      f-2     :    -0.000000
      f+3     :     0.000000
      f-3     :     0.000000
  7 N s       :     0.000008  s :     0.000008
      pz      :     0.000360  p :     0.000371
      px      :     0.000007
      py      :     0.000005
      dz2     :    -0.000001  d :     0.000035
      dxz     :     0.000007
      dyz     :     0.000031
      dx2y2   :    -0.000001
      dxy     :    -0.000000
      f0      :     0.000002  f :     0.000004
      f+1     :    -0.000000
      f-1     :    -0.000000
      f+2     :     0.000000
      f-2     :     0.000002
      f+3     :    -0.000000
      f-3     :    -0.000000
  8 C s       :     0.000021  s :     0.000021
      pz      :     0.000892  p :     0.000936
      px      :     0.000028
      py      :     0.000017
      dz2     :    -0.000004  d :    -0.000128
      dxz     :    -0.000059
      dyz     :    -0.000092
      dx2y2   :     0.000048
      dxy     :    -0.000021
      f0      :    -0.000003  f :     0.000002
      f+1     :    -0.000001
      f-1     :    -0.000001
      f+2     :    -0.000014
      f-2     :     0.000006
      f+3     :     0.000006
      f-3     :     0.000009
  9 C s       :     0.000036  s :     0.000036
      pz      :    -0.000740  p :    -0.000492
      px      :     0.000034
      py      :     0.000214
      dz2     :     0.000016  d :     0.000569
      dxz     :     0.000171
      dyz     :     0.000103
      dx2y2   :     0.000254
      dxy     :     0.000025
      f0      :     0.000007  f :     0.000065
      f+1     :     0.000002
      f-1     :     0.000002
      f+2     :     0.000005
      f-2     :     0.000023
      f+3     :     0.000019
      f-3     :     0.000007
 10 C s       :     0.000040  s :     0.000040
      pz      :     0.000247  p :     0.000486
      px      :     0.000039
      py      :     0.000201
      dz2     :     0.000005  d :    -0.000116
      dxz     :    -0.000020
      dyz     :    -0.000091
      dx2y2   :    -0.000008
      dxy     :    -0.000004
      f0      :    -0.000002  f :    -0.000013
      f+1     :    -0.000000
      f-1     :    -0.000000
      f+2     :    -0.000008
      f-2     :    -0.000002
      f+3     :     0.000001
      f-3     :    -0.000001
 11 C s       :    -0.000007  s :    -0.000007
      pz      :    -0.000230  p :    -0.000219
      px      :     0.000018
      py      :    -0.000007
      dz2     :     0.000003  d :     0.000102
      dxz     :     0.000049
      dyz     :     0.000028
      dx2y2   :     0.000006
      dxy     :     0.000017
      f0      :     0.000001  f :     0.000016
      f+1     :     0.000000
      f-1     :     0.000000
      f+2     :     0.000002
      f-2     :     0.000008
      f+3     :     0.000002
      f-3     :     0.000002
 12 C s       :     0.000781  s :     0.000781
      pz      :     0.001839  p :     0.005502
      px      :     0.000180
      py      :     0.003484
      dz2     :     0.000353  d :    -0.000113
      dxz     :    -0.000022
      dyz     :    -0.000173
      dx2y2   :    -0.000275
      dxy     :     0.000005
      f0      :    -0.000012  f :    -0.000088
      f+1     :     0.000001
      f-1     :    -0.000009
      f+2     :    -0.000011
      f-2     :    -0.000007
      f+3     :    -0.000006
      f-3     :    -0.000043
 13 C s       :    -0.001143  s :    -0.001143
      pz      :    -0.001650  p :    -0.007227
      px      :    -0.002832
      py      :    -0.002745
      dz2     :     0.000349  d :     0.017882
      dxz     :     0.000409
      dyz     :     0.000340
      dx2y2   :     0.015992
      dxy     :     0.000792
      f0      :     0.000043  f :     0.003388
      f+1     :     0.000110
      f-1     :     0.000117
      f+2     :     0.000028
      f-2     :     0.000096
      f+3     :     0.001532
      f-3     :     0.001463
 14 C s       :     0.000752  s :     0.000752
      pz      :     0.001598  p :     0.005473
      px      :     0.003687
      py      :     0.000187
      dz2     :     0.000324  d :    -0.000142
      dxz     :    -0.000184
      dyz     :    -0.000025
      dx2y2   :    -0.000289
      dxy     :     0.000032
      f0      :    -0.000011  f :    -0.000088
      f+1     :    -0.000010
      f-1     :     0.000001
      f+2     :    -0.000009
      f-2     :    -0.000011
      f+3     :    -0.000043
      f-3     :    -0.000006
 15 C s       :     0.000027  s :     0.000027
      pz      :    -0.001078  p :    -0.000760
      px      :     0.000281
      py      :     0.000037
      dz2     :     0.000026  d :     0.000594
      dxz     :     0.000055
      dyz     :     0.000168
      dx2y2   :     0.000333
      dxy     :     0.000012
      f0      :     0.000008  f :     0.000065
      f+1     :     0.000002
      f-1     :     0.000002
      f+2     :     0.000006
      f-2     :     0.000021
      f+3     :     0.000011
      f-3     :     0.000014
 16 C s       :     0.000010  s :     0.000010
      pz      :     0.000188  p :     0.000210
      px      :     0.000006
      py      :     0.000016
      dz2     :    -0.000001  d :    -0.000050
      dxz     :    -0.000007
      dyz     :    -0.000042
      dx2y2   :    -0.000001
      dxy     :     0.000001
      f0      :    -0.000001  f :    -0.000007
      f+1     :    -0.000000
      f-1     :    -0.000000
      f+2     :    -0.000001
      f-2     :    -0.000004
      f+3     :    -0.000000
      f-3     :    -0.000000
 17 C s       :    -0.000008  s :    -0.000008
      pz      :    -0.000252  p :    -0.000266
      px      :    -0.000008
      py      :    -0.000006
      dz2     :     0.000001  d :     0.000037
      dxz     :     0.000030
      dyz     :     0.000003
      dx2y2   :     0.000002
      dxy     :     0.000002
      f0      :     0.000001  f :     0.000006
      f+1     :     0.000000
      f-1     :     0.000000
      f+2     :     0.000001
      f-2     :     0.000002
      f+3     :     0.000000
      f-3     :     0.000000
 18 C s       :     0.000007  s :     0.000007
      pz      :     0.000155  p :     0.000170
      px      :     0.000007
      py      :     0.000008
      dz2     :    -0.000001  d :    -0.000053
      dxz     :    -0.000023
      dyz     :    -0.000025
      dx2y2   :    -0.000003
      dxy     :    -0.000002
      f0      :    -0.000001  f :    -0.000006
      f+1     :    -0.000000
      f-1     :    -0.000000
      f+2     :    -0.000004
      f-2     :    -0.000001
      f+3     :    -0.000000
      f-3     :    -0.000000
 19 C s       :    -0.000009  s :    -0.000009
      pz      :    -0.000217  p :    -0.000238
      px      :    -0.000009
      py      :    -0.000011
      dz2     :     0.000002  d :     0.000062
      dxz     :     0.000008
      dyz     :     0.000030
      dx2y2   :     0.000017
      dxy     :     0.000005
      f0      :     0.000001  f :     0.000009
      f+1     :     0.000000
      f-1     :     0.000000
      f+2     :     0.000001
      f-2     :     0.000003
      f+3     :     0.000002
      f-3     :     0.000001
 20 N s       :     0.006965  s :     0.006965
      pz      :     0.008993  p :     0.220259
      px      :     0.104157
      py      :     0.107108
      dz2     :    -0.000694  d :    -0.004495
      dxz     :    -0.001590
      dyz     :    -0.001636
      dx2y2   :     0.000197
      dxy     :    -0.000773
      f0      :    -0.000027  f :     0.000218
      f+1     :     0.000140
      f-1     :     0.000144
      f+2     :    -0.000108
      f-2     :    -0.000011
      f+3     :     0.000047
      f-3     :     0.000033
 21 C s       :    -0.000764  s :    -0.000764
      pz      :    -0.002866  p :     0.014725
      px      :     0.009293
      py      :     0.008297
      dz2     :     0.002194  d :     0.034980
      dxz     :     0.011412
      dyz     :     0.007225
      dx2y2   :     0.013818
      dxy     :     0.000331
      f0      :     0.000353  f :     0.004792
      f+1     :     0.001372
      f-1     :     0.000766
      f+2     :     0.001667
      f-2     :     0.000071
      f+3     :     0.000330
      f-3     :     0.000233
 22 C s       :     0.002134  s :     0.002134
      pz      :     0.002545  p :     0.080062
      px      :     0.037917
      py      :     0.039600
      dz2     :     0.000082  d :     0.012211
      dxz     :    -0.000208
      dyz     :     0.002188
      dx2y2   :     0.010383
      dxy     :    -0.000235
      f0      :    -0.000064  f :     0.000329
      f+1     :    -0.000082
      f-1     :     0.000169
      f+2     :     0.000562
      f-2     :    -0.000065
      f+3     :    -0.000062
      f-3     :    -0.000128
 23 S s       :     0.004194  s :     0.004194
      pz      :     0.007586  p :     0.250068
      px      :     0.115667
      py      :     0.126815
      dz2     :     0.001407  d :     0.014908
      dxz     :    -0.000303
      dyz     :    -0.000486
      dx2y2   :     0.013450
      dxy     :     0.000840
      f0      :     0.000216  f :     0.002281
      f+1     :     0.000526
      f-1     :     0.000610
      f+2     :     0.000151
      f-2     :     0.000003
      f+3     :     0.000451
      f-3     :     0.000323
 24 C s       :     0.002132  s :     0.002132
      pz      :     0.002330  p :     0.079958
      px      :     0.037166
      py      :     0.040462
      dz2     :     0.000257  d :     0.012213
      dxz     :     0.002407
      dyz     :     0.000368
      dx2y2   :     0.009637
      dxy     :    -0.000456
      f0      :    -0.000042  f :     0.000326
      f+1     :     0.000216
      f-1     :    -0.000031
      f+2     :     0.000502
      f-2     :    -0.000101
      f+3     :    -0.000132
      f-3     :    -0.000086
 25 C s       :    -0.000766  s :    -0.000766
      pz      :    -0.002778  p :     0.014580
      px      :     0.007711
      py      :     0.009647
      dz2     :     0.002029  d :     0.035069
      dxz     :     0.006489
      dyz     :     0.010869
      dx2y2   :     0.015185
      dxy     :     0.000497
      f0      :     0.000292  f :     0.004798
      f+1     :     0.000626
      f-1     :     0.001280
      f+2     :     0.001968
      f-2     :     0.000105
      f+3     :     0.000267
      f-3     :     0.000260
 26 N s       :    -0.000001  s :    -0.000001
      pz      :    -0.000000  p :     0.000000
      px      :    -0.000001
      py      :     0.000002
      dz2     :     0.000000  d :     0.000011
      dxz     :     0.000005
      dyz     :     0.000005
      dx2y2   :     0.000000
      dxy     :     0.000000
      f0      :     0.000000  f :     0.000001
      f+1     :     0.000000
      f-1     :     0.000000
      f+2     :     0.000000
      f-2     :     0.000000
      f+3     :     0.000000
      f-3     :     0.000000
 27 C s       :     0.000001  s :     0.000001
      pz      :     0.000001  p :     0.000002
      px      :     0.000001
      py      :     0.000000
      dz2     :    -0.000000  d :     0.000000
      dxz     :     0.000000
      dyz     :     0.000000
      dx2y2   :     0.000000
      dxy     :     0.000000
      f0      :    -0.000000  f :     0.000000
      f+1     :     0.000000
      f-1     :     0.000000
      f+2     :     0.000000
      f-2     :    -0.000000
      f+3     :    -0.000000
      f-3     :     0.000000
 28 C s       :     0.000000  s :     0.000000
      pz      :     0.000000  p :     0.000001
      px      :     0.000001
      py      :     0.000000
      dz2     :    -0.000000  d :     0.000000
      dxz     :     0.000000
      dyz     :     0.000000
      dx2y2   :    -0.000000
      dxy     :     0.000000
      f0      :     0.000000  f :     0.000000
      f+1     :     0.000000
      f-1     :    -0.000000
      f+2     :    -0.000000
      f-2     :     0.000000
      f+3     :     0.000000
      f-3     :    -0.000000
 29 S s       :     0.000000  s :     0.000000
      pz      :     0.000000  p :     0.000001
      px      :     0.000001
      py      :    -0.000000
      dz2     :     0.000000  d :     0.000000
      dxz     :     0.000000
      dyz     :     0.000000
      dx2y2   :     0.000000
      dxy     :     0.000000
      f0      :     0.000000  f :     0.000000
      f+1     :     0.000000
      f-1     :     0.000000
      f+2     :    -0.000000
      f-2     :     0.000000
      f+3     :     0.000000
      f-3     :    -0.000000
 30 C s       :     0.000000  s :     0.000000
      pz      :     0.000000  p :     0.000001
      px      :     0.000001
      py      :     0.000000
      dz2     :     0.000000  d :     0.000000
      dxz     :     0.000000
      dyz     :     0.000000
      dx2y2   :    -0.000000
      dxy     :    -0.000000
      f0      :     0.000000  f :     0.000000
      f+1     :    -0.000000
      f-1     :    -0.000000
      f+2     :    -0.000000
      f-2     :     0.000000
      f+3     :     0.000000
      f-3     :    -0.000000
 31 C s       :     0.000001  s :     0.000001
      pz      :     0.000002  p :     0.000003
      px      :    -0.000001
      py      :     0.000001
      dz2     :    -0.000000  d :     0.000001
      dxz     :     0.000000
      dyz     :     0.000000
      dx2y2   :     0.000000
      dxy     :     0.000000
      f0      :     0.000000  f :     0.000000
      f+1     :     0.000000
      f-1     :     0.000000
      f+2     :     0.000000
      f-2     :     0.000000
      f+3     :     0.000000
      f-3     :     0.000000
 32 C s       :     0.000322  s :     0.000322
      pz      :     0.000367  p :     0.019030
      px      :     0.009651
      py      :     0.009011
      dz2     :    -0.000237  d :     0.002499
      dxz     :     0.001208
      dyz     :     0.001548
      dx2y2   :     0.000193
      dxy     :    -0.000213
      f0      :    -0.000047  f :     0.000464
      f+1     :     0.000036
      f-1     :    -0.000041
      f+2     :     0.000542
      f-2     :    -0.000044
      f+3     :     0.000030
      f-3     :    -0.000012
 33 C s       :     0.000087  s :     0.000087
      pz      :     0.000303  p :     0.011478
      px      :     0.005769
      py      :     0.005406
      dz2     :     0.000478  d :     0.008789
      dxz     :     0.002553
      dyz     :     0.001237
      dx2y2   :     0.004413
      dxy     :     0.000109
      f0      :     0.000073  f :     0.000904
      f+1     :     0.000228
      f-1     :     0.000193
      f+2     :     0.000043
      f-2     :     0.000007
      f+3     :     0.000179
      f-3     :     0.000180
 34 C s       :     0.001613  s :     0.001613
      pz      :     0.002626  p :     0.062284
      px      :     0.029802
      py      :     0.029856
      dz2     :    -0.000213  d :    -0.001187
      dxz     :    -0.000219
      dyz     :    -0.000054
      dx2y2   :    -0.000420
      dxy     :    -0.000281
      f0      :    -0.000034  f :    -0.000430
      f+1     :     0.000010
      f-1     :    -0.000030
      f+2     :    -0.000150
      f-2     :    -0.000053
      f+3     :    -0.000107
      f-3     :    -0.000068
 35 C s       :    -0.001211  s :    -0.001211
      pz      :    -0.002781  p :    -0.028856
      px      :    -0.012943
      py      :    -0.013132
      dz2     :     0.001066  d :     0.013886
      dxz     :     0.005805
      dyz     :     0.005725
      dx2y2   :     0.000927
      dxy     :     0.000363
      f0      :     0.000061  f :     0.002200
      f+1     :     0.000262
      f-1     :     0.000168
      f+2     :     0.001542
      f-2     :     0.000035
      f+3     :     0.000096
      f-3     :     0.000036
 36 C s       :    -0.001211  s :    -0.001211
      pz      :    -0.002715  p :    -0.028887
      px      :    -0.012504
      py      :    -0.013668
      dz2     :     0.000942  d :     0.013871
      dxz     :     0.005434
      dyz     :     0.006159
      dx2y2   :     0.000997
      dxy     :     0.000338
      f0      :     0.000053  f :     0.002199
      f+1     :     0.000182
      f-1     :     0.000226
      f+2     :     0.001594
      f-2     :     0.000035
      f+3     :     0.000044
      f-3     :     0.000064
 37 C s       :     0.001613  s :     0.001613
      pz      :     0.002374  p :     0.062242
      px      :     0.028295
      py      :     0.031573
      dz2     :    -0.000216  d :    -0.001208
      dxz     :    -0.000035
      dyz     :    -0.000160
      dx2y2   :    -0.000499
      dxy     :    -0.000298
      f0      :    -0.000036  f :    -0.000433
      f+1     :    -0.000041
      f-1     :     0.000011
      f+2     :    -0.000154
      f-2     :    -0.000048
      f+3     :    -0.000069
      f-3     :    -0.000095
 38 C s       :     0.000081  s :     0.000081
      pz      :     0.000235  p :     0.011272
      px      :     0.005035
      py      :     0.006001
      dz2     :     0.000400  d :     0.008811
      dxz     :     0.001045
      dyz     :     0.002412
      dx2y2   :     0.004769
      dxy     :     0.000185
      f0      :     0.000057  f :     0.000908
      f+1     :     0.000170
      f-1     :     0.000247
      f+2     :     0.000069
      f-2     :     0.000013
      f+3     :     0.000202
      f-3     :     0.000151
 39 C s       :     0.000325  s :     0.000325
      pz      :     0.000214  p :     0.019211
      px      :     0.008547
      py      :     0.010449
      dz2     :    -0.000232  d :     0.002445
      dxz     :     0.001424
      dyz     :     0.001311
      dx2y2   :     0.000151
      dxy     :    -0.000210
      f0      :    -0.000058  f :     0.000461
      f+1     :    -0.000042
      f-1     :     0.000006
      f+2     :     0.000587
      f-2     :    -0.000038
      f+3     :    -0.000009
      f-3     :     0.000015
 40 C s       :     0.000000  s :     0.000000
      pz      :    -0.000000  p :    -0.000001
      px      :    -0.000001
      py      :    -0.000000
      dz2     :     0.000000  d :     0.000000
      dxz     :     0.000000
      dyz     :     0.000000
      dx2y2   :     0.000000
      dxy     :     0.000000
      f0      :     0.000000  f :     0.000000
      f+1     :     0.000000
      f-1     :     0.000000
      f+2     :     0.000000
      f-2     :     0.000000
      f+3     :     0.000000
      f-3     :     0.000000
 41 C s       :     0.000000  s :     0.000000
      pz      :     0.000000  p :     0.000001
      px      :     0.000000
      py      :     0.000000
      dz2     :    -0.000000  d :    -0.000000
      dxz     :    -0.000000
      dyz     :     0.000000
      dx2y2   :    -0.000000
      dxy     :    -0.000000
      f0      :     0.000000  f :    -0.000000
      f+1     :    -0.000000
      f-1     :     0.000000
      f+2     :    -0.000000
      f-2     :    -0.000000
      f+3     :    -0.000000
      f-3     :    -0.000000
 42 C s       :    -0.000000  s :    -0.000000
      pz      :     0.000000  p :    -0.000001
      px      :    -0.000001
      py      :    -0.000000
      dz2     :     0.000000  d :     0.000000
      dxz     :     0.000000
      dyz     :     0.000000
      dx2y2   :     0.000000
      dxy     :     0.000000
      f0      :     0.000000  f :     0.000000
      f+1     :     0.000000
      f-1     :     0.000000
      f+2     :     0.000000
      f-2     :     0.000000
      f+3     :     0.000000
      f-3     :     0.000000
 43 C s       :     0.000000  s :     0.000000
      pz      :     0.000001  p :     0.000001
      px      :     0.000001
      py      :    -0.000000
      dz2     :    -0.000000  d :     0.000000
      dxz     :     0.000000
      dyz     :     0.000000
      dx2y2   :    -0.000000
      dxy     :     0.000000
      f0      :     0.000000  f :     0.000000
      f+1     :     0.000000
      f-1     :     0.000000
      f+2     :    -0.000000
      f-2     :     0.000000
      f+3     :    -0.000000
      f-3     :    -0.000000
 44 C s       :     0.000000  s :     0.000000
      pz      :     0.000000  p :     0.000002
      px      :     0.000002
      py      :    -0.000001
      dz2     :    -0.000000  d :     0.000000
      dxz     :     0.000000
      dyz     :     0.000000
      dx2y2   :    -0.000000
      dxy     :     0.000000
      f0      :     0.000000  f :     0.000000
      f+1     :    -0.000000
      f-1     :     0.000000
      f+2     :    -0.000000
      f-2     :     0.000000
      f+3     :     0.000000
      f-3     :     0.000000
 45 C s       :    -0.000000  s :    -0.000000
      pz      :    -0.000000  p :    -0.000001
      px      :    -0.000001
      py      :    -0.000000
      dz2     :     0.000000  d :     0.000000
      dxz     :     0.000000
      dyz     :    -0.000000
      dx2y2   :     0.000000
      dxy     :     0.000000
      f0      :     0.000000  f :     0.000000
      f+1     :    -0.000000
      f-1     :    -0.000000
      f+2     :     0.000000
      f-2     :     0.000000
      f+3     :     0.000000
      f-3     :     0.000000
 46 C s       :     0.000000  s :     0.000000
      pz      :     0.000000  p :     0.000001
      px      :     0.000000
      py      :     0.000001
      dz2     :    -0.000000  d :    -0.000000
      dxz     :    -0.000000
      dyz     :     0.000000
      dx2y2   :    -0.000000
      dxy     :    -0.000000
      f0      :    -0.000000  f :    -0.000000
      f+1     :    -0.000000
      f-1     :    -0.000000
      f+2     :    -0.000000
      f-2     :    -0.000000
      f+3     :    -0.000000
      f-3     :    -0.000000
 47 C s       :    -0.000000  s :    -0.000000
      pz      :    -0.000000  p :    -0.000001
      px      :    -0.000001
      py      :    -0.000000
      dz2     :     0.000000  d :     0.000000
      dxz     :     0.000000
      dyz     :     0.000000
      dx2y2   :     0.000000
      dxy     :     0.000000
      f0      :     0.000000  f :     0.000000
      f+1     :     0.000000
      f-1     :     0.000000
      f+2     :     0.000000
      f-2     :     0.000000
      f+3     :     0.000000
      f-3     :     0.000000
 48 H s       :    -0.000001  s :    -0.000001
      pz      :     0.000000  p :     0.000000
      px      :    -0.000000
      py      :     0.000000
 49 H s       :     0.000000  s :     0.000000
      pz      :    -0.000000  p :    -0.000000
      px      :     0.000000
      py      :    -0.000000
 50 H s       :     0.000001  s :     0.000001
      pz      :    -0.000000  p :    -0.000000
      px      :     0.000000
      py      :    -0.000000
 51 H s       :    -0.000001  s :    -0.000001
      pz      :     0.000000  p :     0.000000
      px      :    -0.000000
      py      :     0.000000
 52 H s       :    -0.000000  s :    -0.000000
      pz      :     0.000000  p :     0.000000
      px      :     0.000000
      py      :     0.000000
 53 H s       :    -0.000278  s :    -0.000278
      pz      :     0.000035  p :     0.000078
      px      :     0.000025
      py      :     0.000019
 54 H s       :    -0.000271  s :    -0.000271
      pz      :     0.000031  p :     0.000073
      px      :     0.000018
      py      :     0.000024
 55 H s       :     0.000309  s :     0.000309
      pz      :    -0.000024  p :    -0.000032
      px      :    -0.000014
      py      :     0.000006
 56 H s       :     0.000001  s :     0.000001
      pz      :     0.000005  p :     0.000005
      px      :     0.000001
      py      :     0.000000
 57 H s       :     0.000007  s :     0.000007
      pz      :    -0.000006  p :    -0.000007
      px      :    -0.000000
      py      :    -0.000001
 58 H s       :     0.000012  s :     0.000012
      pz      :    -0.000005  p :    -0.000006
      px      :    -0.000001
      py      :    -0.000000
 59 H s       :    -0.000662  s :    -0.000662
      pz      :    -0.000004  p :     0.000440
      px      :     0.000198
      py      :     0.000246
 60 H s       :    -0.000331  s :    -0.000331
      pz      :     0.000026  p :     0.000309
      px      :     0.000150
      py      :     0.000132
 61 H s       :    -0.001722  s :    -0.001722
      pz      :     0.000235  p :     0.001625
      px      :     0.000679
      py      :     0.000712
 62 H s       :     0.000536  s :     0.000536
      pz      :    -0.000061  p :    -0.000811
      px      :    -0.000370
      py      :    -0.000379
 63 H s       :     0.000537  s :     0.000537
      pz      :    -0.000059  p :    -0.000812
      px      :    -0.000363
      py      :    -0.000390
 64 H s       :    -0.001721  s :    -0.001721
      pz      :     0.000219  p :     0.001625
      px      :     0.000680
      py      :     0.000726
 65 H s       :    -0.000325  s :    -0.000325
      pz      :     0.000027  p :     0.000304
      px      :     0.000125
      py      :     0.000152
 66 H s       :    -0.000667  s :    -0.000667
      pz      :    -0.000005  p :     0.000445
      px      :     0.000243
      py      :     0.000207
 67 H s       :     0.000000  s :     0.000000
      pz      :    -0.000000  p :    -0.000000
      px      :    -0.000000
      py      :    -0.000000
 68 H s       :    -0.000000  s :    -0.000000
      pz      :     0.000000  p :     0.000000
      px      :     0.000000
      py      :     0.000000
 69 H s       :     0.000000  s :     0.000000
      pz      :    -0.000000  p :    -0.000000
      px      :    -0.000000
      py      :    -0.000000
 70 H s       :    -0.000000  s :    -0.000000
      pz      :     0.000000  p :     0.000000
      px      :     0.000000
      py      :     0.000000
 71 H s       :     0.000000  s :     0.000000
      pz      :     0.000000  p :     0.000000
      px      :     0.000000
      py      :     0.000000
 72 H s       :     0.000000  s :     0.000000
      pz      :    -0.000000  p :    -0.000000
      px      :    -0.000000
      py      :    -0.000000
 73 H s       :    -0.000000  s :    -0.000000
      pz      :     0.000000  p :     0.000000
      px      :     0.000000
      py      :     0.000000
 74 H s       :     0.000000  s :     0.000000
      pz      :    -0.000000  p :    -0.000000
      px      :    -0.000000
      py      :    -0.000000


                      *****************************
                      * MAYER POPULATION ANALYSIS *
                      *****************************

  NA   - Mulliken gross atomic population
  ZA   - Total nuclear charge
  QA   - Mulliken gross atomic charge
  VA   - Mayer's total valence
  BVA  - Mayer's bonded valence
  FA   - Mayer's free valence

  ATOM       NA         ZA         QA         VA         BVA        FA
  0 C      5.9454     6.0000     0.0546     3.6200     3.6200     0.0000
  1 C      6.2332     6.0000    -0.2332     4.0474     4.0474     0.0000
  2 C      6.1120     6.0000    -0.1120     3.8478     3.8478     0.0000
  3 C      5.8920     6.0000     0.1080     3.9340     3.9340     0.0000
  4 C      6.1438     6.0000    -0.1438     3.8768     3.8768    -0.0000
  5 C      6.2344     6.0000    -0.2344     4.0384     4.0384     0.0000
  6 S     16.0845    16.0000    -0.0845     2.2964     2.2964     0.0000
  7 N      6.9469     7.0000     0.0531     3.1969     3.1969     0.0000
  8 C      5.9099     6.0000     0.0901     3.9211     3.9211     0.0000
  9 C      5.8298     6.0000     0.1702     3.6254     3.6254     0.0000
 10 C      5.7917     6.0000     0.2083     3.4314     3.4314    -0.0000
 11 C      5.9018     6.0000     0.0982     3.8861     3.8861     0.0000
 12 C      6.3146     6.0000    -0.3146     3.9918     3.9917     0.0001
 13 C      6.0396     6.0000    -0.0396     3.5091     3.5088     0.0003
 14 C      6.1838     6.0000    -0.1838     3.9802     3.9802     0.0001
 15 C      6.1276     6.0000    -0.1276     3.8397     3.8397     0.0000
 16 C      6.1618     6.0000    -0.1618     3.8815     3.8815     0.0000
 17 C      6.1240     6.0000    -0.1240     4.0230     4.0230     0.0000
 18 C      5.9133     6.0000     0.0867     3.6782     3.6782     0.0000
 19 C      6.5476     6.0000    -0.5476     3.8424     3.8424     0.0000
 20 N      6.9150     7.0000     0.0850     3.2142     3.1437     0.0705
 21 C      5.8524     6.0000     0.1476     3.8438     3.8396     0.0042
 22 C      6.0094     6.0000    -0.0094     3.9651     3.9513     0.0139
 23 S     15.8428    16.0000     0.1572     2.8393     2.7464     0.0928
 24 C      6.0098     6.0000    -0.0098     3.9633     3.9495     0.0138
 25 C      5.8545     6.0000     0.1455     3.8485     3.8443     0.0042
 26 N      7.0404     7.0000    -0.0404     2.9957     2.9957     0.0000
 27 C      5.8361     6.0000     0.1639     3.8155     3.8155     0.0000
 28 C      6.0376     6.0000    -0.0376     3.8923     3.8923     0.0000
 29 S     16.0100    16.0000    -0.0100     2.4689     2.4689     0.0000
 30 C      6.0351     6.0000    -0.0351     3.9013     3.9013     0.0000
 31 C      5.8494     6.0000     0.1506     3.8244     3.8244    -0.0000
 32 C      6.1478     6.0000    -0.1478     3.8691     3.8681     0.0010
 33 C      6.1224     6.0000    -0.1224     3.9251     3.9244     0.0007
 34 C      6.1166     6.0000    -0.1166     3.9371     3.9309     0.0063
 35 C      6.1524     6.0000    -0.1524     3.8538     3.8521     0.0017
 36 C      6.1526     6.0000    -0.1526     3.8545     3.8528     0.0017
 37 C      6.1169     6.0000    -0.1169     3.9393     3.9330     0.0063
 38 C      6.1222     6.0000    -0.1222     3.9244     3.9237     0.0007
 39 C      6.1437     6.0000    -0.1437     3.8649     3.8640     0.0010
 40 C      6.1402     6.0000    -0.1402     3.8556     3.8556     0.0000
 41 C      6.1511     6.0000    -0.1511     3.9294     3.9294    -0.0000
 42 C      6.1449     6.0000    -0.1449     3.9193     3.9193     0.0000
 43 C      6.1953     6.0000    -0.1953     3.8908     3.8908    -0.0000
 44 C      6.2170     6.0000    -0.2170     3.9114     3.9114     0.0000
 45 C      6.1390     6.0000    -0.1390     3.9210     3.9210     0.0000
 46 C      6.1557     6.0000    -0.1557     3.9336     3.9336     0.0000
 47 C      6.1363     6.0000    -0.1363     3.8517     3.8517     0.0000
 48 H      0.8504     1.0000     0.1496     0.9774     0.9774     0.0000
 49 H      0.8523     1.0000     0.1477     0.9764     0.9764     0.0000
 50 H      0.8589     1.0000     0.1411     0.9669     0.9669     0.0000
 51 H      0.8550     1.0000     0.1450     0.9788     0.9788     0.0000
 52 H      0.8628     1.0000     0.1372     0.9751     0.9751     0.0000
 53 H      0.8606     1.0000     0.1394     0.9921     0.9921     0.0000
 54 H      0.8595     1.0000     0.1405     0.9839     0.9839     0.0000
 55 H      0.8324     1.0000     0.1676     0.9718     0.9718     0.0000
 56 H      0.8430     1.0000     0.1570     0.9735     0.9735     0.0000
 57 H      0.8492     1.0000     0.1508     0.9832     0.9832     0.0000
 58 H      0.8632     1.0000     0.1368     0.9896     0.9896     0.0000
 59 H      0.8003     1.0000     0.1997     0.9486     0.9486     0.0000
 60 H      0.8341     1.0000     0.1659     0.9657     0.9657     0.0000
 61 H      0.8305     1.0000     0.1695     0.9643     0.9643     0.0000
 62 H      0.8351     1.0000     0.1649     0.9682     0.9682     0.0000
 63 H      0.8349     1.0000     0.1651     0.9681     0.9681     0.0000
 64 H      0.8306     1.0000     0.1694     0.9644     0.9644     0.0000
 65 H      0.8342     1.0000     0.1658     0.9657     0.9657     0.0000
 66 H      0.8024     1.0000     0.1976     0.9508     0.9508     0.0000
 67 H      0.8639     1.0000     0.1361     0.9792     0.9792     0.0000
 68 H      0.8701     1.0000     0.1299     0.9706     0.9706     0.0000
 69 H      0.8802     1.0000     0.1198     0.9730     0.9730     0.0000
 70 H      0.8515     1.0000     0.1485     0.9573     0.9573     0.0000
 71 H      0.8470     1.0000     0.1530     0.9525     0.9525     0.0000
 72 H      0.8798     1.0000     0.1202     0.9726     0.9726     0.0000
 73 H      0.8700     1.0000     0.1300     0.9708     0.9708     0.0000
 74 H      0.8638     1.0000     0.1362     0.9791     0.9791     0.0000

  Mayer bond orders larger than 0.100000
B(  0-C ,  1-C ) :   1.3973 B(  0-C ,  5-C ) :   1.3942 B(  0-C ,  7-N ) :   0.8092 
B(  1-C ,  2-C ) :   1.4556 B(  1-C , 48-H ) :   0.9734 B(  2-C ,  3-C ) :   1.3264 
B(  2-C , 49-H ) :   0.9579 B(  3-C ,  4-C ) :   1.3397 B(  3-C ,  6-S ) :   1.1543 
B(  4-C ,  5-C ) :   1.4339 B(  4-C , 50-H ) :   0.9500 B(  5-C , 51-H ) :   0.9674 
B(  6-S , 52-H ) :   0.9698 B(  7-N ,  8-C ) :   1.1739 B(  7-N , 11-C ) :   1.1119 
B(  8-C ,  9-C ) :   1.2585 B(  8-C , 15-C ) :   1.3249 B(  9-C , 10-C ) :   1.0875 
B(  9-C , 12-C ) :   1.2643 B(  9-C , 13-C ) :  -0.1016 B( 10-C , 11-C ) :   1.3074 
B( 10-C , 18-C ) :  -0.1108 B( 10-C , 19-C ) :   1.0769 B( 11-C , 16-C ) :   1.3211 
B( 12-C , 13-C ) :   1.5158 B( 12-C , 53-H ) :   0.9919 B( 13-C , 14-C ) :   1.4113 
B( 13-C , 20-N ) :   0.6382 B( 14-C , 15-C ) :   1.4208 B( 14-C , 54-H ) :   0.9956 
B( 15-C , 55-H ) :   0.9506 B( 16-C , 17-C ) :   1.4567 B( 16-C , 56-H ) :   0.9608 
B( 17-C , 18-C ) :   1.4305 B( 17-C , 57-H ) :   0.9701 B( 18-C , 19-C ) :   1.5006 
B( 18-C , 26-N ) :   0.7465 B( 19-C , 58-H ) :   1.0542 B( 20-N , 21-C ) :   1.1863 
B( 20-N , 25-C ) :   1.1862 B( 21-C , 22-C ) :   1.2191 B( 21-C , 32-C ) :   1.2841 
B( 22-C , 23-S ) :   1.2570 B( 22-C , 35-C ) :   1.2719 B( 23-S , 24-C ) :   1.2571 
B( 24-C , 25-C ) :   1.2185 B( 24-C , 36-C ) :   1.2713 B( 25-C , 39-C ) :   1.2862 
B( 26-N , 27-C ) :   1.0713 B( 26-N , 31-C ) :   1.0602 B( 27-C , 28-C ) :   1.2653 
B( 27-C , 44-C ) :   1.3717 B( 28-C , 29-S ) :   1.0880 B( 28-C , 47-C ) :   1.3628 
B( 29-S , 30-C ) :   1.0962 B( 30-C , 31-C ) :   1.2678 B( 30-C , 40-C ) :   1.3620 
B( 31-C , 43-C ) :   1.3757 B( 32-C , 33-C ) :   1.5258 B( 32-C , 59-H ) :   0.9258 
B( 33-C , 34-C ) :   1.3035 B( 33-C , 60-H ) :   0.9544 B( 34-C , 35-C ) :   1.5155 
B( 34-C , 61-H ) :   0.9583 B( 35-C , 62-H ) :   0.9479 B( 36-C , 37-C ) :   1.5168 
B( 36-C , 63-H ) :   0.9479 B( 37-C , 38-C ) :   1.3041 B( 37-C , 64-H ) :   0.9579 
B( 38-C , 39-C ) :   1.5256 B( 38-C , 65-H ) :   0.9538 B( 39-C , 66-H ) :   0.9261 
B( 40-C , 41-C ) :   1.4066 B( 40-C , 67-H ) :   0.9638 B( 41-C , 42-C ) :   1.4215 
B( 41-C , 68-H ) :   0.9730 B( 42-C , 43-C ) :   1.4157 B( 42-C , 69-H ) :   0.9747 
B( 43-C , 70-H ) :   0.9392 B( 44-C , 45-C ) :   1.4188 B( 44-C , 71-H ) :   0.9382 
B( 45-C , 46-C ) :   1.4232 B( 45-C , 72-H ) :   0.9746 B( 46-C , 47-C ) :   1.4057 
B( 46-C , 73-H ) :   0.9728 B( 47-C , 74-H ) :   0.9644 

-------
TIMINGS
-------

Total SCF time: 0 days 0 hours 9 min 58 sec 

Total time                  ....     598.679 sec
Sum of individual times     ....     582.397 sec  ( 97.3%)

Fock matrix formation       ....     506.128 sec  ( 84.5%)
  Split-RI-J                ....      32.900 sec  (  6.5% of F)
  Chain of spheres X        ....     416.677 sec  ( 82.3% of F)
  XC integration            ....      38.510 sec  (  7.6% of F)
    Basis function eval.    ....       2.488 sec  (  6.5% of XC)
    Density eval.           ....      18.102 sec  ( 47.0% of XC)
    XC-Functional eval.     ....       0.589 sec  (  1.5% of XC)
    XC-Potential eval.      ....       7.372 sec  ( 19.1% of XC)
Diagonalization             ....      29.162 sec  (  4.9%)
Density matrix formation    ....       1.887 sec  (  0.3%)
Population analysis         ....       6.716 sec  (  1.1%)
Initial guess               ....       1.849 sec  (  0.3%)
Orbital Transformation      ....       0.000 sec  (  0.0%)
Orbital Orthonormalization  ....       0.000 sec  (  0.0%)
DIIS solution               ....      28.299 sec  (  4.7%)
Grid generation             ....       8.358 sec  (  1.4%)

Maximum memory used throughout the entire SCF-calculation: 651.6 MB


-------------------------------------------------------------------------------
                          DFT DISPERSION CORRECTION                            
                                                                               
                                 DFTD4 V2.5                                    
-------------------------------------------------------------------------------
The CAM-B3LYP functional is recognized
Active option DFTDOPT                   ...         5   

Starting D4
-------------------------   ----------------
Dispersion correction           -0.123877398
-------------------------   ----------------


-------------------------   --------------------
FINAL SINGLE POINT ENERGY     -2975.187017516907
-------------------------   --------------------



           ************************************************************
           *        Program running with 36 parallel MPI-processes    *
           *              working on a shared directory               *
           ************************************************************
------------------------------------------------------------------------------
                         ORCA SCF GRADIENT CALCULATION
------------------------------------------------------------------------------

 ... reading COSX grid (gridx3)
Gradient of the Kohn-Sham DFT energy:
Kohn-Sham wavefunction type      ... UKS
Hartree-Fock exchange scaling    ...    0.190
Number of operators              ...    2
Number of atoms                  ...   75
Basis set dimensions             ... 1668
Integral neglect threshold       ... 2.5e-11
Integral primitive cutoff        ... 2.5e-12
SHARK Integral package           ... ON

Nuc. rep. gradient       (SHARK) ... done (  0.0 sec)
HCore & Overlap gradient (SHARK) ... done (  1.0 sec)
RI-J gradient            (SHARK) ... done (  3.9 sec)
COSX-gradient                    ... done ( 66.1 sec)
Exchange-correlation gradient    ... done
Point charge gradient            ... done
Dispersion correction            ... Starting D4
Starting D4
Starting D4
Starting D4
Starting D4
Starting D4
Starting D4
Starting D4
Starting D4
Starting D4
Starting D4
Starting D4
Starting D4
Starting D4
Starting D4
Starting D4
Starting D4
Starting D4
Starting D4
Starting D4
Starting D4
Starting D4
Starting D4
Starting D4
Starting D4
Starting D4
Starting D4
Starting D4
Starting D4
Starting D4
Starting D4
Starting D4
Starting D4
Starting D4
Starting D4
Starting D4


------------------- 
Dispersion Gradient 
------------------- 
   1  :   -0.000325966    0.000001675   -0.000006347
   2  :   -0.000294455    0.000064086    0.000376354
   3  :   -0.000333386    0.000042330    0.000257887
   4  :   -0.000301260    0.000003073   -0.000000957
   5  :   -0.000328337   -0.000038364   -0.000267602
   6  :   -0.000274552   -0.000062100   -0.000385275
   7  :   -0.000748461    0.000005092   -0.000033997
   8  :   -0.000238952    0.000006752   -0.000001366
   9  :   -0.000057981   -0.000231294   -0.000010992
  10  :    0.000029212   -0.000026229    0.000015351
  11  :    0.000016274    0.000029444    0.000022721
  12  :   -0.000052506    0.000243934    0.000025170
  13  :    0.000192795    0.000134527    0.000018831
  14  :   -0.000179510   -0.000026410   -0.000013368
  15  :   -0.000429411   -0.000316295   -0.000035096
  16  :   -0.000312439   -0.000433076   -0.000029873
  17  :   -0.000278573    0.000473150    0.000023280
  18  :   -0.000477291    0.000339062    0.000031793
  19  :   -0.000221924    0.000024372    0.000029601
  20  :    0.000157970   -0.000107935    0.000023133
  21  :   -0.000005530   -0.000019972   -0.000004490
  22  :    0.000100433   -0.000181844    0.000337472
  23  :    0.000249394   -0.000301382    0.000282735
  24  :    0.000796469   -0.000766092    0.000031113
  25  :    0.000313264   -0.000254925   -0.000264957
  26  :    0.000175367   -0.000129309   -0.000329911
  27  :   -0.000049314    0.000061388    0.000016961
  28  :    0.000161191    0.000133568    0.000342447
  29  :    0.000232783    0.000318761    0.000281503
  30  :    0.000317791    0.001109245    0.000013199
  31  :    0.000190503    0.000341234   -0.000294371
  32  :    0.000111892    0.000163920   -0.000341914
  33  :   -0.000069025   -0.000068940    0.000601510
  34  :   -0.000084105   -0.000030649    0.000576873
  35  :    0.000041811   -0.000133414    0.000439828
  36  :    0.000183682   -0.000249828    0.000333548
  37  :    0.000264697   -0.000189987   -0.000315438
  38  :    0.000148398   -0.000058008   -0.000434487
  39  :    0.000036694    0.000052251   -0.000576730
  40  :    0.000055684    0.000014181   -0.000609354
  41  :    0.000197616    0.000242887   -0.000364545
  42  :    0.000136936    0.000065256   -0.000442323
  43  :    0.000060902   -0.000086852   -0.000566363
  44  :    0.000093643   -0.000062124   -0.000622431
  45  :    0.000165181   -0.000111634    0.000591354
  46  :    0.000141077   -0.000121688    0.000534788
  47  :    0.000209553    0.000035122    0.000412322
  48  :    0.000257747    0.000216758    0.000339031
  49  :   -0.000076052    0.000019352    0.000175996
  50  :   -0.000062875    0.000019662    0.000093748
  51  :   -0.000050656   -0.000019196   -0.000099656
  52  :   -0.000070658   -0.000016871   -0.000177957
  53  :   -0.000085176    0.000002730    0.000003122
  54  :    0.000141827    0.000085038    0.000016854
  55  :   -0.000174888   -0.000115546   -0.000019748
  56  :   -0.000068887   -0.000160392   -0.000004426
  57  :   -0.000056822    0.000165679   -0.000000938
  58  :   -0.000177652    0.000113122    0.000012837
  59  :    0.000125688   -0.000085023    0.000000743
  60  :   -0.000033494   -0.000017328    0.000164341
  61  :   -0.000030462    0.000006896    0.000112241
  62  :    0.000011645   -0.000030707    0.000095153
  63  :    0.000072925   -0.000082558    0.000054114
  64  :    0.000087711   -0.000071477   -0.000048175
  65  :    0.000035171   -0.000013141   -0.000092847
  66  :   -0.000006807    0.000021709   -0.000114194
  67  :   -0.000001507   -0.000001487   -0.000170511
  68  :    0.000067412    0.000090311   -0.000059818
  69  :    0.000031121    0.000015682   -0.000092397
  70  :    0.000000764   -0.000029415   -0.000110563
  71  :    0.000020319   -0.000023911   -0.000173813
  72  :    0.000035446   -0.000035795    0.000169708
  73  :    0.000017111   -0.000035885    0.000105419
  74  :    0.000047455    0.000009485    0.000086075
  75  :    0.000078040    0.000086008    0.000052404

  |G| =    0.035494128

done

------------------
CARTESIAN GRADIENT
------------------

   1   C   :    0.000013153    0.000024366    0.000019480
   2   C   :    0.000017841    0.000003023    0.000011946
   3   C   :   -0.000004506   -0.000018041    0.000030000
   4   C   :   -0.000017150   -0.000000889   -0.000047495
   5   C   :    0.000006337   -0.000001424    0.000004719
   6   C   :    0.000007906    0.000008156   -0.000046688
   7   S   :    0.000006137   -0.000002143   -0.000018196
   8   N   :   -0.000006280   -0.000206694    0.000021693
   9   C   :   -0.000120855    0.000122299    0.000005291
  10   C   :    0.000077861    0.000090554   -0.000016822
  11   C   :   -0.000077745    0.000014422   -0.000007573
  12   C   :    0.000050381    0.000079399    0.000020781
  13   C   :    0.000064703    0.000047868    0.000021033
  14   C   :   -0.000068750    0.000007467   -0.000014240
  15   C   :    0.000000809   -0.000082057    0.000032000
  16   C   :    0.000050026   -0.000006082    0.000022340
  17   C   :   -0.000021128    0.000028109   -0.000021072
  18   C   :   -0.000061582   -0.000083247   -0.000002689
  19   C   :    0.000132432    0.000074427    0.000012710
  20   C   :    0.000043314    0.000055842    0.000016757
  21   N   :   -0.000022684   -0.000067749    0.000009481
  22   C   :    0.000020146   -0.000015012    0.000040875
  23   C   :   -0.000020753    0.000021390   -0.000013199
  24   S   :    0.000038377   -0.000015450    0.000012954
  25   C   :   -0.000084300    0.000046134    0.000067234
  26   C   :    0.000060450   -0.000000188   -0.000051503
  27   N   :   -0.000076513   -0.000024733   -0.000062242
  28   C   :    0.000000810   -0.000029160    0.000116482
  29   C   :    0.000009329    0.000096568   -0.000066090
  30   S   :    0.000032938    0.000075627   -0.000022785
  31   C   :    0.000000155   -0.000049408    0.000113318
  32   C   :    0.000009086    0.000028448   -0.000075819
  33   C   :   -0.000012330    0.000029677    0.000003176
  34   C   :   -0.000005760   -0.000011522    0.000027205
  35   C   :   -0.000011254    0.000007778    0.000001052
  36   C   :   -0.000025060    0.000010328    0.000017003
  37   C   :   -0.000030914    0.000032096   -0.000025351
  38   C   :   -0.000049146   -0.000001663    0.000025655
  39   C   :    0.000035485   -0.000023707   -0.000029958
  40   C   :   -0.000009560   -0.000002328    0.000045939
  41   C   :    0.000027147   -0.000044737   -0.000005952
  42   C   :    0.000020121   -0.000002565    0.000009564
  43   C   :   -0.000000712    0.000040251   -0.000002547
  44   C   :   -0.000034226   -0.000005016    0.000044134
  45   C   :   -0.000073173   -0.000038850   -0.000119400
  46   C   :    0.000053450   -0.000066846    0.000061835
  47   C   :    0.000077754   -0.000038564    0.000034065
  48   C   :    0.000061723   -0.000001415    0.000051539
  49   H   :   -0.000005438    0.000012078   -0.000002223
  50   H   :    0.000003962    0.000018086   -0.000006595
  51   H   :    0.000004141    0.000017460   -0.000012397
  52   H   :    0.000007056    0.000022775   -0.000005783
  53   H   :    0.000006519    0.000012975   -0.000001777
  54   H   :   -0.000001392   -0.000026550    0.000012458
  55   H   :    0.000003696   -0.000004975    0.000001228
  56   H   :    0.000006786    0.000046855   -0.000017773
  57   H   :   -0.000000892    0.000034080    0.000004188
  58   H   :    0.000024496    0.000005530    0.000012338
  59   H   :   -0.000003648   -0.000029178    0.000019960
  60   H   :   -0.000011062    0.000014366   -0.000008652
  61   H   :   -0.000004684    0.000012077   -0.000002774
  62   H   :   -0.000005377    0.000008961    0.000005555
  63   H   :    0.000001199    0.000007128    0.000004278
  64   H   :    0.000005881    0.000007019    0.000007384
  65   H   :    0.000008711    0.000010614    0.000009352
  66   H   :    0.000005785    0.000014871    0.000013487
  67   H   :    0.000012231    0.000014095    0.000004569
  68   H   :    0.000000769    0.000004621    0.000015374
  69   H   :    0.000000289    0.000016371    0.000013540
  70   H   :   -0.000008105    0.000003257    0.000004595
  71   H   :   -0.000013161    0.000017376   -0.000014784
  72   H   :    0.000006005   -0.000041435    0.000071739
  73   H   :   -0.000000541   -0.000001463    0.000013703
  74   H   :   -0.000001200    0.000014486    0.000010434
  75   H   :   -0.000015624    0.000005571   -0.000003193

Difference to translation invariance:
           :    0.0001098955    0.0003217852    0.0003988696

Difference to rotation invariance:
           :    0.0011992838   -0.0014365790   -0.0042384086

Norm of the cartesian gradient     ...    0.0006017000
RMS gradient                       ...    0.0000401133
MAX gradient                       ...    0.0002066938

-------
TIMINGS
-------

Total SCF gradient time            ...       95.620 sec

One electron gradient       ....       0.973 sec  (  1.0%)
RI-J Coulomb gradient       ....       3.884 sec  (  4.1%)
COSX gradient               ....      66.135 sec  ( 69.2%)
XC gradient                 ....       9.841 sec  ( 10.3%)
Point charge gradient       ....       1.679 sec  (  1.8%)

Maximum memory used throughout the entire SCFGRAD-calculation: 413.3 MB
------------------------------------------------------------------------------
                         ORCA GEOMETRY RELAXATION STEP
------------------------------------------------------------------------------

Reading the OPT-File                    .... done
Getting information on internals        .... done
Copying old internal coords+grads       .... done
Making the new internal coordinates     .... (new redundants).... done
Validating the new internal coordinates .... (new redundants).... done
Calculating the B-matrix                .... done
Calculating the G,G- and P matrices     .... done
Transforming gradient to internals      .... done
Projecting the internal gradient        .... done
Number of atoms                         ....  75
Number of internal coordinates          .... 440
Current Energy                          .... -2975.187017517 Eh
Current gradient norm                   ....     0.000601700 Eh/bohr
Maximum allowed component of the step   ....  0.300
Current trust radius                    ....  0.300
Evaluating the initial hessian          ....  (Almloef) done
Projecting the Hessian                  .... done
Forming the augmented Hessian           .... done
Diagonalizing the augmented Hessian     .... done
Last element of RFO vector              ....  0.999163041
Lowest eigenvalues of augmented Hessian:
 -0.000037367  0.004312055  0.012660582  0.016323544  0.019341209
Length of the computed step             ....  0.040939234
The final length of the internal step   ....  0.040939234
Converting the step to cartesian space:
 Initial RMS(Int)=    0.0019517014
Transforming coordinates:
 Iter   0:  RMS(Cart)=    0.0441961343 RMS(Int)=    0.5187117383
 Iter   1:  RMS(Cart)=    0.0004605910 RMS(Int)=    0.0001127145
 Iter   2:  RMS(Cart)=    0.0000096902 RMS(Int)=    0.0000005981
 Iter   3:  RMS(Cart)=    0.0000002085 RMS(Int)=    0.0000000528
 Iter   4:  RMS(Cart)=    0.0000000045 RMS(Int)=    0.0000000003
done
Storing new coordinates                 .... done

                                .--------------------.
          ----------------------|Geometry convergence|-------------------------
          Item                value                   Tolerance       Converged
          ---------------------------------------------------------------------
          RMS gradient        0.0000582020            0.0001000000      YES
          MAX gradient        0.0003597981            0.0003000000      NO
          RMS step            0.0019517014            0.0020000000      YES
          MAX step            0.0180597980            0.0040000000      NO
          ........................................................
          Max(Bonds)      0.0002      Max(Angles)    0.04
          Max(Dihed)        1.03      Max(Improp)    0.00
          ---------------------------------------------------------------------

The optimization has not yet converged - more geometry cycles are needed


    ---------------------------------------------------------------------------
                         Redundant Internal Coordinates
                            (Angstroem and degrees)

        Definition                    Value    dE/dq     Step     New-Value
    ----------------------------------------------------------------------------
     1. B(C   1,C   0)                1.3848 -0.000004  0.0000    1.3848   
     2. B(C   2,C   1)                1.3795  0.000047 -0.0000    1.3795   
     3. B(C   3,C   2)                1.3917  0.000068 -0.0001    1.3917   
     4. B(C   4,C   3)                1.3900 -0.000029  0.0000    1.3900   
     5. B(C   5,C   4)                1.3812 -0.000040  0.0000    1.3812   
     6. B(C   5,C   0)                1.3837  0.000036 -0.0000    1.3836   
     7. B(S   6,C   3)                1.7565 -0.000009  0.0000    1.7566   
     8. B(N   7,C   0)                1.4210 -0.000025  0.0000    1.4210   
     9. B(C   8,N   7)                1.3699 -0.000117  0.0001    1.3700   
    10. B(C   9,C   8)                1.4122 -0.000017  0.0000    1.4122   
    11. B(C  10,C   9)                1.4393 -0.000127  0.0001    1.4394   
    12. B(C  11,C  10)                1.4024 -0.000008  0.0000    1.4024   
    13. B(C  11,N   7)                1.3865  0.000190 -0.0002    1.3863   
    14. B(C  12,C   9)                1.3843 -0.000014  0.0000    1.3843   
    15. B(C  13,C  12)                1.3788  0.000009 -0.0000    1.3788   
    16. B(C  14,C  13)                1.3923 -0.000025  0.0000    1.3923   
    17. B(C  15,C   8)                1.3885  0.000020 -0.0000    1.3885   
    18. B(C  15,C  14)                1.3787  0.000018 -0.0000    1.3786   
    19. B(C  16,C  11)                1.3860  0.000070 -0.0001    1.3859   
    20. B(C  17,C  16)                1.3777  0.000078 -0.0001    1.3776   
    21. B(C  18,C  17)                1.3973  0.000081 -0.0001    1.3973   
    22. B(C  19,C  18)                1.3788 -0.000126  0.0001    1.3789   
    23. B(C  19,C  10)                1.3878 -0.000094  0.0001    1.3878   
    24. B(N  20,C  13)                1.4462 -0.000055  0.0001    1.4463   
    25. B(C  21,N  20)                1.3824 -0.000032  0.0000    1.3824   
    26. B(C  22,C  21)                1.4075 -0.000053  0.0000    1.4075   
    27. B(S  23,C  22)                1.7143  0.000024 -0.0000    1.7143   
    28. B(C  24,S  23)                1.7143  0.000049 -0.0001    1.7143   
    29. B(C  25,C  24)                1.4073 -0.000082  0.0001    1.4073   
    30. B(C  25,N  20)                1.3821 -0.000053  0.0001    1.3822   
    31. B(N  26,C  18)                1.4236 -0.000102  0.0001    1.4238   
    32. B(C  27,N  26)                1.4103  0.000077 -0.0001    1.4102   
    33. B(C  28,C  27)                1.3961  0.000085 -0.0001    1.3960   
    34. B(S  29,C  28)                1.7567  0.000019  0.0000    1.7568   
    35. B(C  30,S  29)                1.7559  0.000044 -0.0000    1.7559   
    36. B(C  31,C  30)                1.3952 -0.000014 -0.0000    1.3952   
    37. B(C  31,N  26)                1.4114 -0.000026 -0.0000    1.4114   
    38. B(C  32,C  21)                1.4064  0.000002 -0.0000    1.4064   
    39. B(C  33,C  32)                1.3674 -0.000001  0.0000    1.3674   
    40. B(C  34,C  33)                1.3979 -0.000002  0.0000    1.3979   
    41. B(C  35,C  34)                1.3672  0.000018 -0.0000    1.3672   
    42. B(C  35,C  22)                1.3986  0.000008 -0.0000    1.3986   
    43. B(C  36,C  24)                1.3985  0.000013 -0.0000    1.3985   
    44. B(C  37,C  36)                1.3671 -0.000010  0.0000    1.3672   
    45. B(C  38,C  37)                1.3977 -0.000046  0.0000    1.3978   
    46. B(C  39,C  38)                1.3674  0.000004 -0.0000    1.3674   
    47. B(C  39,C  25)                1.4063 -0.000024  0.0000    1.4063   
    48. B(C  40,C  30)                1.3834  0.000008 -0.0000    1.3834   
    49. B(C  41,C  40)                1.3835 -0.000009  0.0000    1.3835   
    50. B(C  42,C  41)                1.3805 -0.000010  0.0000    1.3805   
    51. B(C  43,C  42)                1.3846  0.000006 -0.0000    1.3846   
    52. B(C  43,C  31)                1.3909 -0.000002 -0.0000    1.3909   
    53. B(C  44,C  27)                1.3906  0.000061 -0.0001    1.3906   
    54. B(C  45,C  44)                1.3849  0.000086 -0.0001    1.3848   
    55. B(C  46,C  45)                1.3804  0.000054 -0.0001    1.3804   
    56. B(C  47,C  46)                1.3834  0.000055 -0.0000    1.3833   
    57. B(C  47,C  28)                1.3834  0.000066 -0.0000    1.3833   
    58. B(H  48,C   1)                1.0817 -0.000005  0.0000    1.0817   
    59. B(H  49,C   2)                1.0818 -0.000005  0.0000    1.0818   
    60. B(H  50,C   4)                1.0813  0.000008 -0.0000    1.0813   
    61. B(H  51,C   5)                1.0818  0.000005 -0.0000    1.0818   
    62. B(H  52,S   6)                1.3377 -0.000002  0.0000    1.3377   
    63. B(H  53,C  12)                1.0822 -0.000009  0.0000    1.0822   
    64. B(H  54,C  14)                1.0816  0.000009 -0.0000    1.0816   
    65. B(H  55,C  15)                1.0804 -0.000017  0.0000    1.0804   
    66. B(H  56,C  16)                1.0804  0.000012 -0.0000    1.0804   
    67. B(H  57,C  17)                1.0811 -0.000004  0.0000    1.0811   
    68. B(H  58,C  19)                1.0820  0.000002 -0.0000    1.0820   
    69. B(H  59,C  32)                1.0769  0.000014 -0.0000    1.0768   
    70. B(H  60,C  33)                1.0808 -0.000003  0.0000    1.0808   
    71. B(H  61,C  34)                1.0805 -0.000002  0.0000    1.0805   
    72. B(H  62,C  35)                1.0820  0.000001 -0.0000    1.0820   
    73. B(H  63,C  36)                1.0820  0.000002 -0.0000    1.0820   
    74. B(H  64,C  37)                1.0805 -0.000001  0.0000    1.0805   
    75. B(H  65,C  38)                1.0808 -0.000003  0.0000    1.0808   
    76. B(H  66,C  39)                1.0769 -0.000002  0.0000    1.0769   
    77. B(H  67,C  40)                1.0819 -0.000004  0.0000    1.0820   
    78. B(H  68,C  41)                1.0808 -0.000003  0.0000    1.0808   
    79. B(H  69,C  42)                1.0816  0.000007 -0.0000    1.0816   
    80. B(H  70,C  43)                1.0783 -0.000001  0.0000    1.0784   
    81. B(H  71,C  44)                1.0782  0.000032 -0.0000    1.0782   
    82. B(H  72,C  45)                1.0817  0.000005 -0.0000    1.0816   
    83. B(H  73,C  46)                1.0808  0.000001 -0.0000    1.0808   
    84. B(H  74,C  47)                1.0819 -0.000007  0.0000    1.0819   
    85. A(C   5,C   0,N   7)          120.14 -0.000224    0.03    120.17   
    86. A(C   1,C   0,N   7)          119.96  0.000206   -0.03    119.93   
    87. A(C   1,C   0,C   5)          119.90  0.000017   -0.00    119.90   
    88. A(C   0,C   1,H  48)          119.68  0.000027   -0.00    119.67   
    89. A(C   2,C   1,H  48)          120.26  0.000020   -0.00    120.26   
    90. A(C   0,C   1,C   2)          120.06 -0.000047    0.01    120.06   
    91. A(C   3,C   2,H  49)          119.90 -0.000003    0.00    119.90   
    92. A(C   1,C   2,C   3)          120.41  0.000010   -0.00    120.41   
    93. A(C   1,C   2,H  49)          119.69 -0.000006    0.00    119.69   
    94. A(C   4,C   3,S   6)          123.17 -0.000035    0.00    123.17   
    95. A(C   2,C   3,C   4)          119.17  0.000006   -0.00    119.17   
    96. A(C   2,C   3,S   6)          117.67  0.000029   -0.00    117.66   
    97. A(C   3,C   4,H  50)          120.26  0.000011   -0.00    120.26   
    98. A(C   5,C   4,H  50)          119.42  0.000001   -0.00    119.42   
    99. A(C   3,C   4,C   5)          120.31 -0.000012    0.00    120.31   
   100. A(C   0,C   5,H  51)          119.68 -0.000015    0.00    119.68   
   101. A(C   4,C   5,H  51)          120.17 -0.000012    0.00    120.17   
   102. A(C   0,C   5,C   4)          120.15  0.000026   -0.00    120.14   
   103. A(C   3,S   6,H  52)           97.02 -0.000009    0.00     97.02   
   104. A(C   0,N   7,C  11)          125.47  0.000188   -0.03    125.44   
   105. A(C   0,N   7,C   8)          125.92 -0.000180    0.03    125.95   
   106. A(C   8,N   7,C  11)          108.61 -0.000008    0.00    108.61   
   107. A(N   7,C   8,C   9)          109.13  0.000034   -0.00    109.13   
   108. A(N   7,C   8,C  15)          129.11 -0.000022    0.00    129.11   
   109. A(C   9,C   8,C  15)          121.76 -0.000011    0.00    121.77   
   110. A(C   8,C   9,C  10)          106.60  0.000003    0.00    106.61   
   111. A(C  10,C   9,C  12)          133.84 -0.000000   -0.00    133.84   
   112. A(C   8,C   9,C  12)          119.55 -0.000003    0.00    119.55   
   113. A(C   9,C  10,C  11)          106.39  0.000068   -0.01    106.38   
   114. A(C   9,C  10,C  19)          133.76 -0.000170    0.02    133.78   
   115. A(C  11,C  10,C  19)          119.83  0.000102   -0.01    119.82   
   116. A(C  10,C  11,C  16)          121.77 -0.000080    0.01    121.78   
   117. A(N   7,C  11,C  16)          128.97  0.000177   -0.02    128.95   
   118. A(N   7,C  11,C  10)          109.26 -0.000097    0.01    109.27   
   119. A(C  13,C  12,H  53)          120.53 -0.000021    0.00    120.53   
   120. A(C   9,C  12,H  53)          121.36  0.000036   -0.01    121.35   
   121. A(C   9,C  12,C  13)          118.11 -0.000015    0.00    118.12   
   122. A(C  14,C  13,N  20)          118.73  0.000040   -0.01    118.72   
   123. A(C  12,C  13,C  14)          122.38  0.000064   -0.01    122.37   
   124. A(C  12,C  13,N  20)          118.89 -0.000104    0.01    118.91   
   125. A(C  15,C  14,H  54)          120.14  0.000048   -0.01    120.13   
   126. A(C  13,C  14,H  54)          119.57  0.000031   -0.00    119.57   
   127. A(C  13,C  14,C  15)          120.29 -0.000079    0.01    120.30   
   128. A(C   8,C  15,C  14)          117.89  0.000045   -0.01    117.89   
   129. A(C   8,C  15,H  55)          121.15 -0.000059    0.01    121.16   
   130. A(C  14,C  15,H  55)          120.95  0.000014   -0.00    120.95   
   131. A(C  17,C  16,H  56)          121.22 -0.000006    0.00    121.23   
   132. A(C  11,C  16,C  17)          117.32 -0.000038    0.00    117.33   
   133. A(C  11,C  16,H  56)          121.45  0.000044   -0.01    121.45   
   134. A(C  18,C  17,H  57)          117.99 -0.000034    0.01    118.00   
   135. A(C  16,C  17,H  57)          120.25  0.000004    0.00    120.25   
   136. A(C  16,C  17,C  18)          121.76  0.000029   -0.00    121.75   
   137. A(C  19,C  18,N  26)          121.14 -0.000233    0.03    121.18   
   138. A(C  17,C  18,N  26)          118.32  0.000271   -0.04    118.28   
   139. A(C  17,C  18,C  19)          120.51 -0.000039    0.01    120.52   
   140. A(C  10,C  19,H  58)          121.46 -0.000045    0.01    121.47   
   141. A(C  18,C  19,H  58)          119.73  0.000023   -0.01    119.72   
   142. A(C  10,C  19,C  18)          118.80  0.000024   -0.00    118.80   
   143. A(C  21,N  20,C  25)          124.88  0.000054   -0.01    124.87   
   144. A(C  13,N  20,C  25)          117.65  0.000058   -0.01    117.64   
   145. A(C  13,N  20,C  21)          117.48 -0.000112    0.02    117.49   
   146. A(C  22,C  21,C  32)          117.81  0.000045   -0.01    117.80   
   147. A(N  20,C  21,C  22)          122.37  0.000003   -0.00    122.37   
   148. A(N  20,C  21,C  32)          119.82 -0.000048    0.01    119.83   
   149. A(S  23,C  22,C  35)          115.92  0.000052   -0.01    115.92   
   150. A(C  21,C  22,C  35)          120.51 -0.000030    0.00    120.52   
   151. A(C  21,C  22,S  23)          123.56 -0.000021    0.00    123.56   
   152. A(C  22,S  23,C  24)          103.22 -0.000022    0.00    103.22   
   153. A(C  25,C  24,C  36)          120.51 -0.000048    0.01    120.52   
   154. A(S  23,C  24,C  36)          115.92  0.000017   -0.00    115.92   
   155. A(S  23,C  24,C  25)          123.57  0.000031   -0.00    123.57   
   156. A(N  20,C  25,C  24)          122.38 -0.000044    0.01    122.39   
   157. A(C  24,C  25,C  39)          117.81  0.000048   -0.01    117.81   
   158. A(N  20,C  25,C  39)          119.81 -0.000004    0.00    119.81   
   159. A(C  27,N  26,C  31)          121.06  0.000004    0.01    121.08   
   160. A(C  18,N  26,C  31)          117.25 -0.000012    0.02    117.27   
   161. A(C  18,N  26,C  27)          118.73 -0.000019    0.03    118.76   
   162. A(N  26,C  27,C  28)          119.97 -0.000006   -0.00    119.97   
   163. A(C  28,C  27,C  44)          118.13  0.000035   -0.00    118.12   
   164. A(N  26,C  27,C  44)          121.89 -0.000027    0.00    121.90   
   165. A(C  27,C  28,S  29)          120.31  0.000006    0.00    120.31   
   166. A(S  29,C  28,C  47)          118.95  0.000038   -0.01    118.93   
   167. A(C  27,C  28,C  47)          120.55 -0.000041    0.00    120.56   
   168. A(C  28,S  29,C  30)           99.19 -0.000053    0.02     99.21   
   169. A(S  29,C  30,C  31)          120.14  0.000089   -0.01    120.13   
   170. A(C  31,C  30,C  40)          120.55 -0.000049    0.01    120.55   
   171. A(S  29,C  30,C  40)          119.15 -0.000042    0.01    119.16   
   172. A(N  26,C  31,C  30)          120.25 -0.000044    0.00    120.25   
   173. A(C  30,C  31,C  43)          118.21  0.000041   -0.00    118.20   
   174. A(N  26,C  31,C  43)          121.54  0.000001    0.00    121.54   
   175. A(C  21,C  32,C  33)          120.79 -0.000012    0.00    120.79   
   176. A(C  33,C  32,H  59)          119.82  0.000018   -0.00    119.82   
   177. A(C  21,C  32,H  59)          119.39 -0.000006    0.00    119.39   
   178. A(C  34,C  33,H  60)          119.84  0.000018   -0.00    119.83   
   179. A(C  32,C  33,H  60)          119.22 -0.000001    0.00    119.22   
   180. A(C  32,C  33,C  34)          120.95 -0.000017    0.00    120.95   
   181. A(C  33,C  34,H  61)          120.36 -0.000007    0.00    120.36   
   182. A(C  33,C  34,C  35)          119.48  0.000008   -0.00    119.48   
   183. A(C  35,C  34,H  61)          120.15 -0.000001    0.00    120.15   
   184. A(C  34,C  35,H  62)          120.56  0.000000   -0.00    120.56   
   185. A(C  22,C  35,H  62)          118.99 -0.000007    0.00    118.99   
   186. A(C  22,C  35,C  34)          120.45  0.000006   -0.00    120.45   
   187. A(C  37,C  36,H  63)          120.57 -0.000012    0.00    120.57   
   188. A(C  24,C  36,H  63)          118.98 -0.000010    0.00    118.98   
   189. A(C  24,C  36,C  37)          120.45  0.000022   -0.00    120.45   
   190. A(C  38,C  37,H  64)          120.37 -0.000002    0.00    120.37   
   191. A(C  36,C  37,H  64)          120.15 -0.000004    0.00    120.15   
   192. A(C  36,C  37,C  38)          119.48  0.000007   -0.00    119.48   
   193. A(C  39,C  38,H  65)          119.23  0.000004   -0.00    119.23   
   194. A(C  37,C  38,H  65)          119.83  0.000019   -0.00    119.83   
   195. A(C  37,C  38,C  39)          120.94 -0.000023    0.00    120.94   
   196. A(C  38,C  39,H  66)          119.86  0.000000    0.00    119.86   
   197. A(C  25,C  39,H  66)          119.34  0.000004   -0.00    119.34   
   198. A(C  25,C  39,C  38)          120.80 -0.000005    0.00    120.80   
   199. A(C  41,C  40,H  67)          120.40 -0.000009    0.00    120.40   
   200. A(C  30,C  40,H  67)          118.86 -0.000020    0.00    118.87   
   201. A(C  30,C  40,C  41)          120.72  0.000029   -0.00    120.72   
   202. A(C  42,C  41,H  68)          120.79  0.000008   -0.00    120.79   
   203. A(C  40,C  41,H  68)          120.15 -0.000007    0.00    120.15   
   204. A(C  40,C  41,C  42)          119.06 -0.000001    0.00    119.06   
   205. A(C  41,C  42,H  69)          120.25  0.000010   -0.00    120.25   
   206. A(C  41,C  42,C  43)          120.55 -0.000005    0.00    120.55   
   207. A(C  43,C  42,H  69)          119.20 -0.000005    0.00    119.21   
   208. A(C  31,C  43,C  42)          120.86 -0.000017    0.00    120.86   
   209. A(C  42,C  43,H  70)          119.21 -0.000010    0.00    119.21   
   210. A(C  31,C  43,H  70)          119.92  0.000026   -0.00    119.92   
   211. A(C  27,C  44,C  45)          120.91 -0.000020    0.00    120.91   
   212. A(C  45,C  44,H  71)          119.09 -0.000061    0.01    119.10   
   213. A(C  27,C  44,H  71)          119.99  0.000082   -0.01    119.97   
   214. A(C  44,C  45,C  46)          120.57 -0.000002   -0.00    120.57   
   215. A(C  46,C  45,H  72)          120.25  0.000000    0.00    120.25   
   216. A(C  44,C  45,H  72)          119.17  0.000002    0.00    119.17   
   217. A(C  45,C  46,C  47)          119.00  0.000007   -0.00    119.00   
   218. A(C  47,C  46,H  73)          120.16 -0.000015    0.00    120.16   
   219. A(C  45,C  46,H  73)          120.83  0.000009   -0.00    120.83   
   220. A(C  28,C  47,C  46)          120.77  0.000022   -0.00    120.77   
   221. A(C  46,C  47,H  74)          120.38  0.000011   -0.00    120.37   
   222. A(C  28,C  47,H  74)          118.84 -0.000033    0.00    118.84   
   223. D(H  48,C   1,C   0,C   5)   -179.73 -0.000000    0.00   -179.73   
   224. D(C   2,C   1,C   0,C   5)     -0.11  0.000015   -0.03     -0.14   
   225. D(C   2,C   1,C   0,N   7)    179.26  0.000041   -0.09    179.17   
   226. D(H  48,C   1,C   0,N   7)     -0.36  0.000026   -0.06     -0.41   
   227. D(C   3,C   2,C   1,H  48)   -179.86  0.000007   -0.02   -179.88   
   228. D(C   3,C   2,C   1,C   0)      0.52 -0.000009    0.02      0.53   
   229. D(H  49,C   2,C   1,C   0)   -179.55 -0.000006    0.01   -179.54   
   230. D(H  49,C   2,C   1,H  48)      0.06  0.000009   -0.02      0.05   
   231. D(S   6,C   3,C   2,C   1)    179.64 -0.000005    0.01    179.65   
   232. D(S   6,C   3,C   2,H  49)     -0.29 -0.000008    0.02     -0.27   
   233. D(C   4,C   3,C   2,C   1)     -0.32 -0.000004    0.01     -0.31   
   234. D(C   4,C   3,C   2,H  49)    179.75 -0.000006    0.01    179.77   
   235. D(C   5,C   4,C   3,S   6)    179.75  0.000011   -0.02    179.73   
   236. D(H  50,C   4,C   3,C   2)   -179.64  0.000005   -0.01   -179.65   
   237. D(C   5,C   4,C   3,C   2)     -0.29  0.000009   -0.02     -0.31   
   238. D(H  50,C   4,C   3,S   6)      0.40  0.000007   -0.02      0.39   
   239. D(C   4,C   5,C   0,C   1)     -0.49 -0.000010    0.02     -0.48   
   240. D(H  51,C   5,C   4,H  50)      0.47 -0.000004    0.01      0.48   
   241. D(C   0,C   5,C   4,H  50)   -179.95  0.000002   -0.00   -179.95   
   242. D(C   4,C   5,C   0,N   7)   -179.87 -0.000039    0.08   -179.79   
   243. D(H  51,C   5,C   0,C   1)    179.08 -0.000005    0.01    179.09   
   244. D(H  51,C   5,C   0,N   7)     -0.29 -0.000033    0.07     -0.22   
   245. D(C   0,C   5,C   4,C   3)      0.70 -0.000002    0.01      0.70   
   246. D(H  51,C   5,C   4,C   3)   -178.88 -0.000008    0.02   -178.87   
   247. D(H  52,S   6,C   3,C   2)    177.33  0.000001   -0.01    177.31   
   248. D(H  52,S   6,C   3,C   4)     -2.72 -0.000000   -0.01     -2.72   
   249. D(C  11,N   7,C   0,C   5)    104.59 -0.000023    0.07    104.66   
   250. D(C  11,N   7,C   0,C   1)    -74.78 -0.000051    0.13    -74.65   
   251. D(C   8,N   7,C   0,C   5)    -75.58 -0.000010    0.05    -75.54   
   252. D(C   8,N   7,C   0,C   1)    105.04 -0.000037    0.11    105.15   
   253. D(C   9,C   8,N   7,C   0)   -179.42 -0.000086    0.17   -179.25   
   254. D(C   9,C   8,N   7,C  11)      0.43 -0.000074    0.15      0.58   
   255. D(C  15,C   8,N   7,C  11)   -179.87 -0.000086    0.19   -179.68   
   256. D(C  15,C   8,N   7,C   0)      0.28 -0.000098    0.21      0.48   
   257. D(C  12,C   9,C   8,C  15)     -0.95 -0.000015    0.05     -0.90   
   258. D(C  12,C   9,C   8,N   7)    178.78 -0.000025    0.08    178.86   
   259. D(C  10,C   9,C   8,N   7)     -0.69  0.000002    0.01     -0.67   
   260. D(C  10,C   9,C   8,C  15)    179.59  0.000012   -0.02    179.57   
   261. D(C  19,C  10,C   9,C  12)      2.94  0.000071   -0.19      2.74   
   262. D(C  19,C  10,C   9,C   8)   -177.71  0.000038   -0.11   -177.82   
   263. D(C  11,C  10,C   9,C  12)   -178.68  0.000102   -0.25   -178.93   
   264. D(C  11,C  10,C   9,C   8)      0.68  0.000070   -0.17      0.50   
   265. D(C  16,C  11,C  10,C   9)   -179.58 -0.000106    0.24   -179.34   
   266. D(C  16,C  11,C  10,C  19)     -0.92 -0.000085    0.19     -0.73   
   267. D(N   7,C  11,C  10,C  19)    178.22 -0.000095    0.22    178.44   
   268. D(C  16,C  11,N   7,C   8)    179.08  0.000105   -0.24    178.84   
   269. D(C  10,C  11,N   7,C   0)    179.87  0.000131   -0.29    179.58   
   270. D(C  16,C  11,N   7,C   0)     -1.07  0.000117   -0.26     -1.33   
   271. D(C  10,C  11,N   7,C   8)      0.01  0.000119   -0.27     -0.25   
   272. D(N   7,C  11,C  10,C   9)     -0.43 -0.000116    0.27     -0.16   
   273. D(H  53,C  12,C   9,C  10)      0.06 -0.000005    0.02      0.07   
   274. D(C  13,C  12,C   9,C  10)   -179.96 -0.000080    0.16   -179.80   
   275. D(C  13,C  12,C   9,C   8)      0.75 -0.000044    0.07      0.82   
   276. D(H  53,C  12,C   9,C   8)   -179.23  0.000030   -0.07   -179.30   
   277. D(N  20,C  13,C  12,H  53)      0.49  0.000027   -0.06      0.43   
   278. D(N  20,C  13,C  12,C   9)   -179.49  0.000101   -0.20   -179.69   
   279. D(C  14,C  13,C  12,H  53)   -180.00 -0.000014    0.03   -179.96   
   280. D(C  14,C  13,C  12,C   9)      0.02  0.000060   -0.11     -0.09   
   281. D(H  54,C  14,C  13,N  20)     -0.58 -0.000050    0.11     -0.47   
   282. D(H  54,C  14,C  13,C  12)    179.90 -0.000008    0.01    179.92   
   283. D(C  15,C  14,C  13,N  20)    178.87 -0.000056    0.12    178.99   
   284. D(C  15,C  14,C  13,C  12)     -0.65 -0.000014    0.03     -0.62   
   285. D(C  14,C  15,C   8,N   7)   -179.34  0.000072   -0.17   -179.50   
   286. D(H  55,C  15,C  14,H  54)     -0.03 -0.000003    0.00     -0.03   
   287. D(C   8,C  15,C  14,H  54)    179.90 -0.000052    0.11    180.00   
   288. D(C   8,C  15,C  14,C  13)      0.45 -0.000046    0.09      0.54   
   289. D(H  55,C  15,C   8,C   9)   -179.74  0.000011   -0.03   -179.77   
   290. D(H  55,C  15,C  14,C  13)   -179.47  0.000003   -0.01   -179.49   
   291. D(H  55,C  15,C   8,N   7)      0.59  0.000024   -0.06      0.53   
   292. D(C  14,C  15,C   8,C   9)      0.33  0.000059   -0.13      0.20   
   293. D(H  56,C  16,C  11,C  10)   -180.00  0.000016   -0.04   -180.04   
   294. D(H  56,C  16,C  11,N   7)      1.04  0.000031   -0.07      0.97   
   295. D(C  17,C  16,C  11,C  10)      0.41 -0.000018    0.03      0.44   
   296. D(C  17,C  16,C  11,N   7)   -178.55 -0.000003   -0.01   -178.55   
   297. D(H  57,C  17,C  16,H  56)     -0.01 -0.000020    0.04      0.02   
   298. D(H  57,C  17,C  16,C  11)    179.58  0.000014   -0.03    179.55   
   299. D(C  18,C  17,C  16,H  56)   -179.28  0.000067   -0.14   -179.43   
   300. D(C  18,C  17,C  16,C  11)      0.31  0.000101   -0.21      0.09   
   301. D(N  26,C  18,C  17,H  57)     -1.69 -0.000019    0.04     -1.65   
   302. D(N  26,C  18,C  17,C  16)    177.59 -0.000104    0.21    177.81   
   303. D(C  19,C  18,C  17,H  57)   -179.81  0.000001    0.00   -179.81   
   304. D(C  19,C  18,C  17,C  16)     -0.53 -0.000084    0.18     -0.35   
   305. D(H  58,C  19,C  18,N  26)      1.20  0.000063   -0.14      1.06   
   306. D(H  58,C  19,C  18,C  17)    179.27  0.000052   -0.10    179.16   
   307. D(C  10,C  19,C  18,N  26)   -178.05 -0.000011    0.01   -178.04   
   308. D(C  10,C  19,C  18,C  17)      0.01 -0.000022    0.05      0.06   
   309. D(H  58,C  19,C  10,C  11)   -178.55  0.000028   -0.07   -178.63   
   310. D(H  58,C  19,C  10,C   9)     -0.34  0.000062   -0.14     -0.48   
   311. D(C  18,C  19,C  10,C  11)      0.69  0.000104   -0.23      0.46   
   312. D(C  18,C  19,C  10,C   9)    178.90  0.000137   -0.29    178.61   
   313. D(C  25,N  20,C  13,C  14)     95.72 -0.000010    0.08     95.80   
   314. D(C  25,N  20,C  13,C  12)    -84.74 -0.000050    0.17    -84.58   
   315. D(C  21,N  20,C  13,C  14)    -84.20 -0.000047    0.17    -84.03   
   316. D(C  21,N  20,C  13,C  12)     95.33 -0.000086    0.26     95.59   
   317. D(C  32,C  21,N  20,C  25)    179.94 -0.000029    0.08    180.02   
   318. D(C  32,C  21,N  20,C  13)     -0.14  0.000010   -0.02     -0.16   
   319. D(C  22,C  21,N  20,C  25)     -0.03 -0.000005    0.02     -0.02   
   320. D(C  22,C  21,N  20,C  13)    179.89  0.000034   -0.08    179.80   
   321. D(C  35,C  22,C  21,C  32)      0.81  0.000001    0.01      0.82   
   322. D(C  35,C  22,C  21,N  20)   -179.22 -0.000023    0.07   -179.15   
   323. D(S  23,C  22,C  21,C  32)   -178.64  0.000014   -0.03   -178.67   
   324. D(S  23,C  22,C  21,N  20)      1.33 -0.000010    0.03      1.37   
   325. D(C  24,S  23,C  22,C  35)    179.28  0.000022   -0.07    179.21   
   326. D(C  24,S  23,C  22,C  21)     -1.25  0.000009   -0.04     -1.28   
   327. D(C  36,C  24,S  23,C  22)   -179.54 -0.000006    0.03   -179.51   
   328. D(C  25,C  24,S  23,C  22)      0.12  0.000005    0.00      0.12   
   329. D(C  39,C  25,C  24,C  36)      0.71 -0.000007    0.01      0.72   
   330. D(C  39,C  25,C  24,S  23)   -178.93 -0.000019    0.04   -178.89   
   331. D(N  20,C  25,C  24,C  36)   -179.34 -0.000008    0.01   -179.33   
   332. D(N  20,C  25,C  24,S  23)      1.02 -0.000020    0.04      1.06   
   333. D(C  39,C  25,N  20,C  21)    178.76  0.000019   -0.05    178.71   
   334. D(C  24,C  25,N  20,C  21)     -1.19  0.000020   -0.06     -1.24   
   335. D(C  24,C  25,N  20,C  13)    178.89 -0.000019    0.05    178.94   
   336. D(C  39,C  25,N  20,C  13)     -1.16 -0.000020    0.05     -1.11   
   337. D(C  31,N  26,C  18,C  19)     84.25  0.000259   -0.80     83.45   
   338. D(C  31,N  26,C  18,C  17)    -93.86  0.000276   -0.83    -94.69   
   339. D(C  27,N  26,C  18,C  19)    -76.52  0.000343   -1.00    -77.52   
   340. D(C  27,N  26,C  18,C  17)    105.37  0.000360   -1.03    104.33   
   341. D(C  44,C  27,N  26,C  31)   -148.88  0.000087   -0.19   -149.07   
   342. D(C  44,C  27,N  26,C  18)     11.14 -0.000004    0.02     11.16   
   343. D(C  28,C  27,N  26,C  31)     32.33 -0.000013    0.04     32.37   
   344. D(C  28,C  27,N  26,C  18)   -167.66 -0.000104    0.25   -167.41   
   345. D(C  47,C  28,C  27,C  44)      2.78 -0.000005    0.01      2.79   
   346. D(C  47,C  28,C  27,N  26)   -178.38  0.000090   -0.21   -178.59   
   347. D(S  29,C  28,C  27,C  44)   -172.21 -0.000056    0.14   -172.07   
   348. D(S  29,C  28,C  27,N  26)      6.62  0.000040   -0.08      6.54   
   349. D(C  30,S  29,C  28,C  27)    -34.76  0.000000    0.06    -34.70   
   350. D(C  30,S  29,C  28,C  47)    150.16 -0.000046    0.19    150.36   
   351. D(C  40,C  30,S  29,C  28)   -150.32 -0.000008    0.02   -150.30   
   352. D(C  31,C  30,S  29,C  28)     34.29  0.000009   -0.02     34.27   
   353. D(C  43,C  31,C  30,C  40)     -2.17 -0.000018    0.04     -2.13   
   354. D(C  43,C  31,C  30,S  29)    173.16 -0.000034    0.08    173.23   
   355. D(N  26,C  31,C  30,C  40)    178.86  0.000022   -0.06    178.81   
   356. D(N  26,C  31,C  30,S  29)     -5.81  0.000006   -0.02     -5.83   
   357. D(C  43,C  31,N  26,C  27)    148.25  0.000035   -0.09    148.16   
   358. D(C  43,C  31,N  26,C  18)    -12.05  0.000126   -0.30    -12.35   
   359. D(C  30,C  31,N  26,C  27)    -32.82 -0.000006    0.01    -32.81   
   360. D(C  30,C  31,N  26,C  18)    166.88  0.000085   -0.20    166.68   
   361. D(H  59,C  32,C  21,C  22)    179.25 -0.000008    0.02    179.26   
   362. D(H  59,C  32,C  21,N  20)     -0.73  0.000015   -0.04     -0.77   
   363. D(C  33,C  32,C  21,C  22)     -0.83 -0.000001   -0.00     -0.83   
   364. D(C  33,C  32,C  21,N  20)    179.20  0.000023   -0.06    179.14   
   365. D(H  60,C  33,C  32,H  59)      0.09  0.000000   -0.00      0.08   
   366. D(H  60,C  33,C  32,C  21)   -179.84 -0.000007    0.02   -179.82   
   367. D(C  34,C  33,C  32,H  59)   -179.83  0.000009   -0.02   -179.86   
   368. D(C  34,C  33,C  32,C  21)      0.24  0.000001   -0.00      0.24   
   369. D(H  61,C  34,C  33,H  60)      0.18 -0.000000    0.00      0.18   
   370. D(H  61,C  34,C  33,C  32)   -179.90 -0.000009    0.02   -179.88   
   371. D(C  35,C  34,C  33,H  60)   -179.53  0.000006   -0.01   -179.54   
   372. D(C  35,C  34,C  33,C  32)      0.39 -0.000002    0.01      0.39   
   373. D(H  62,C  35,C  34,H  61)     -0.14 -0.000003    0.00     -0.14   
   374. D(H  62,C  35,C  34,C  33)    179.57 -0.000009    0.02    179.59   
   375. D(C  22,C  35,C  34,H  61)    179.89  0.000009   -0.02    179.87   
   376. D(C  22,C  35,C  34,C  33)     -0.40  0.000002   -0.00     -0.40   
   377. D(H  62,C  35,C  22,S  23)     -0.69 -0.000003    0.01     -0.68   
   378. D(H  62,C  35,C  22,C  21)    179.82  0.000010   -0.02    179.80   
   379. D(C  34,C  35,C  22,S  23)    179.28 -0.000014    0.03    179.31   
   380. D(C  34,C  35,C  22,C  21)     -0.21 -0.000001   -0.00     -0.21   
   381. D(H  63,C  36,C  24,C  25)    179.84 -0.000007    0.01    179.85   
   382. D(H  63,C  36,C  24,S  23)     -0.49  0.000004   -0.01     -0.50   
   383. D(C  37,C  36,C  24,C  25)     -0.25 -0.000000    0.00     -0.24   
   384. D(C  37,C  36,C  24,S  23)    179.42  0.000011   -0.02    179.40   
   385. D(H  64,C  37,C  36,H  63)     -0.14 -0.000001    0.00     -0.14   
   386. D(H  64,C  37,C  36,C  24)    179.95 -0.000009    0.02    179.96   
   387. D(C  38,C  37,C  36,H  63)    179.64  0.000015   -0.03    179.61   
   388. D(C  38,C  37,C  36,C  24)     -0.28  0.000008   -0.02     -0.29   
   389. D(H  65,C  38,C  37,H  64)      0.18  0.000003   -0.00      0.17   
   390. D(H  65,C  38,C  37,C  36)   -179.60 -0.000014    0.03   -179.57   
   391. D(C  39,C  38,C  37,H  64)   -179.90  0.000008   -0.02   -179.92   
   392. D(C  39,C  38,C  37,C  36)      0.32 -0.000009    0.02      0.34   
   393. D(H  66,C  39,C  38,H  65)      0.06  0.000001   -0.00      0.06   
   394. D(H  66,C  39,C  38,C  37)   -179.86 -0.000004    0.01   -179.85   
   395. D(C  25,C  39,C  38,H  65)   -179.92  0.000007   -0.01   -179.93   
   396. D(C  25,C  39,C  38,C  37)      0.16  0.000002   -0.00      0.16   
   397. D(H  66,C  39,C  25,C  24)    179.35  0.000011   -0.02    179.33   
   398. D(H  66,C  39,C  25,N  20)     -0.60  0.000012   -0.03     -0.63   
   399. D(C  38,C  39,C  25,C  24)     -0.66  0.000005   -0.01     -0.68   
   400. D(C  38,C  39,C  25,N  20)    179.38  0.000006   -0.01    179.37   
   401. D(H  67,C  40,C  30,C  31)   -178.71 -0.000003    0.01   -178.70   
   402. D(H  67,C  40,C  30,S  29)      5.92  0.000007   -0.03      5.89   
   403. D(C  41,C  40,C  30,C  31)      2.72  0.000021   -0.04      2.68   
   404. D(C  41,C  40,C  30,S  29)   -172.65  0.000032   -0.08   -172.73   
   405. D(H  68,C  41,C  40,H  67)     -0.04  0.000001   -0.01     -0.05   
   406. D(H  68,C  41,C  40,C  30)    178.51 -0.000024    0.05    178.55   
   407. D(C  42,C  41,C  40,H  67)   -179.73  0.000018   -0.04   -179.77   
   408. D(C  42,C  41,C  40,C  30)     -1.18 -0.000007    0.01     -1.17   
   409. D(H  69,C  42,C  41,H  68)     -0.21  0.000000   -0.00     -0.21   
   410. D(H  69,C  42,C  41,C  40)    179.47 -0.000017    0.04    179.51   
   411. D(C  43,C  42,C  41,H  68)    179.47  0.000005   -0.01    179.46   
   412. D(C  43,C  42,C  41,C  40)     -0.85 -0.000012    0.03     -0.82   
   413. D(H  70,C  43,C  42,H  69)     -0.24 -0.000011    0.02     -0.21   
   414. D(H  70,C  43,C  42,C  41)   -179.92 -0.000015    0.03   -179.88   
   415. D(C  31,C  43,C  42,H  69)   -178.96  0.000020   -0.04   -178.99   
   416. D(C  31,C  43,C  42,C  41)      1.36  0.000015   -0.03      1.34   
   417. D(H  70,C  43,C  31,C  30)   -178.56  0.000031   -0.07   -178.63   
   418. D(H  70,C  43,C  31,N  26)      0.39 -0.000010    0.03      0.42   
   419. D(C  42,C  43,C  31,C  30)      0.15  0.000001   -0.01      0.14   
   420. D(C  42,C  43,C  31,N  26)    179.10 -0.000041    0.09    179.19   
   421. D(H  71,C  44,C  27,C  28)    177.85  0.000028   -0.06    177.79   
   422. D(H  71,C  44,C  27,N  26)     -0.96 -0.000070    0.16     -0.80   
   423. D(C  45,C  44,C  27,C  28)     -0.84 -0.000010    0.01     -0.83   
   424. D(C  45,C  44,C  27,N  26)   -179.66 -0.000107    0.24   -179.42   
   425. D(H  72,C  45,C  44,H  71)      0.44 -0.000025    0.05      0.49   
   426. D(H  72,C  45,C  44,C  27)    179.14  0.000013   -0.02    179.12   
   427. D(C  46,C  45,C  44,H  71)   -179.84 -0.000027    0.06   -179.78   
   428. D(C  46,C  45,C  44,C  27)     -1.14  0.000012   -0.02     -1.15   
   429. D(H  73,C  46,C  45,H  72)      0.36 -0.000008    0.01      0.37   
   430. D(H  73,C  46,C  45,C  44)   -179.36 -0.000006    0.01   -179.36   
   431. D(C  47,C  46,C  45,H  72)   -179.11 -0.000002    0.01   -179.10   
   432. D(C  47,C  46,C  45,C  44)      1.17 -0.000000    0.00      1.17   
   433. D(H  74,C  47,C  46,H  73)     -0.18  0.000012   -0.03     -0.21   
   434. D(H  74,C  47,C  46,C  45)    179.29  0.000006   -0.02    179.27   
   435. D(C  28,C  47,C  46,H  73)   -178.68 -0.000007    0.01   -178.67   
   436. D(C  28,C  47,C  46,C  45)      0.78 -0.000013    0.02      0.80   
   437. D(H  74,C  47,C  28,S  29)     -6.26  0.000046   -0.12     -6.38   
   438. D(H  74,C  47,C  28,C  27)    178.67 -0.000003    0.02    178.69   
   439. D(C  46,C  47,C  28,S  29)    172.27  0.000065   -0.15    172.11   
   440. D(C  46,C  47,C  28,C  27)     -2.80  0.000017   -0.02     -2.82   
    ----------------------------------------------------------------------------

         *************************************************************
         *                GEOMETRY OPTIMIZATION CYCLE   2            *
         *************************************************************
---------------------------------
CARTESIAN COORDINATES (ANGSTROEM)
---------------------------------
  C     -5.214352    0.000093   -0.062250
  C     -5.919908    0.291541    1.093100
  C     -7.298987    0.318312    1.072493
  C     -7.991451    0.042717   -0.102790
  C     -7.275854   -0.253456   -1.257087
  C     -5.894820   -0.267151   -1.236984
  S     -9.746478    0.087900   -0.045058
  N     -3.793544   -0.009486   -0.041993
  C     -2.996511   -1.123729   -0.056253
  C     -1.642590   -0.724766   -0.010057
  C     -1.638553    0.714398    0.018042
  C     -2.982619    1.114109   -0.000485
  C     -0.647561   -1.686915    0.009350
  C     -1.024485   -3.012409   -0.034963
  C     -2.358460   -3.406368   -0.096060
  C     -3.363004   -2.462172   -0.101553
  C     -3.346525    2.451405    0.004762
  C     -2.331690    3.382953    0.019652
  C     -0.986560    3.004886    0.027208
  C     -0.633874    1.671810    0.027063
  N      0.000806   -4.032084   -0.008812
  C      0.313306   -4.591609    1.216111
  C      1.291002   -5.593946    1.359333
  S      2.219780   -6.205358    0.054557
  C      1.615107   -5.340274   -1.296241
  C      0.592559   -4.377226   -1.209271
  N      0.002126    4.028860   -0.005335
  C      0.696630    4.339396    1.182112
  C      1.472294    5.497868    1.253604
  S      1.454020    6.659916   -0.063787
  C      1.275166    5.551440   -1.413776
  C      0.521848    4.386189   -1.268013
  C     -0.357728   -4.159516    2.374106
  C     -0.076813   -4.711658    3.593154
  C      0.887041   -5.715754    3.722633
  C      1.563749   -6.145680    2.615200
  C      2.196351   -5.649441   -2.530130
  C      1.775561   -5.023594   -3.670461
  C      0.752825   -4.073689   -3.596486
  C      0.172598   -3.756969   -2.399451
  C      1.808212    5.894996   -2.643245
  C      1.559619    5.120803   -3.762582
  C      0.789595    3.982327   -3.632931
  C      0.286722    3.609754   -2.397864
  C      0.613135    3.535575    2.313775
  C      1.294484    3.866360    3.473109
  C      2.092024    4.991974    3.521893
  C      2.181746    5.799413    2.402236
  H     -5.384178    0.504240    2.008430
  H     -7.843852    0.554028    1.976854
  H     -7.795741   -0.464766   -2.181327
  H     -5.339939   -0.479927   -2.140938
  H     -9.959155   -0.161902   -1.341892
  H      0.398697   -1.414127    0.055887
  H     -2.602968   -4.459442   -0.130470
  H     -4.401871   -2.756363   -0.140444
  H     -4.383800    2.753341   -0.010218
  H     -2.562010    4.439278    0.016922
  H      0.411673    1.393503    0.019222
  H     -1.102137   -3.385386    2.295702
  H     -0.609936   -4.362305    4.466015
  H      1.100131   -6.146772    4.690242
  H      2.318041   -6.917138    2.696421
  H      2.982293   -6.392105   -2.568060
  H      2.228421   -5.265767   -4.621077
  H      0.411051   -3.580626   -4.495485
  H     -0.615751   -3.024254   -2.362924
  H      2.405802    6.793603   -2.720775
  H      1.961431    5.410580   -4.723130
  H      0.576672    3.367299   -4.496814
  H     -0.310653    2.715287   -2.320982
  H     -0.006062    2.653018    2.303109
  H      1.198146    3.228714    4.341491
  H      2.633807    5.248445    4.421228
  H      2.790945    6.693336    2.419843

----------------------------
CARTESIAN COORDINATES (A.U.)
----------------------------
  NO LB      ZA    FRAG     MASS         X           Y           Z
   0 C     6.0000    0    12.011   -9.853698    0.000176   -0.117636
   1 C     6.0000    0    12.011  -11.187004    0.550932    2.065660
   2 C     6.0000    0    12.011  -13.793087    0.601523    2.026718
   3 C     6.0000    0    12.011  -15.101654    0.080724   -0.194245
   4 C     6.0000    0    12.011  -13.749372   -0.478962   -2.375550
   5 C     6.0000    0    12.011  -11.139596   -0.504841   -2.337561
   6 S    16.0000    0    32.060  -18.418175    0.166108   -0.085147
   7 N     7.0000    0    14.007   -7.168759   -0.017926   -0.079355
   8 C     6.0000    0    12.011   -5.662585   -2.123539   -0.106303
   9 C     6.0000    0    12.011   -3.104046   -1.369609   -0.019004
  10 C     6.0000    0    12.011   -3.096416    1.350016    0.034094
  11 C     6.0000    0    12.011   -5.636334    2.105361   -0.000916
  12 C     6.0000    0    12.011   -1.223713   -3.187807    0.017669
  13 C     6.0000    0    12.011   -1.935996   -5.692628   -0.066071
  14 C     6.0000    0    12.011   -4.456843   -6.437103   -0.181527
  15 C     6.0000    0    12.011   -6.355157   -4.652830   -0.191908
  16 C     6.0000    0    12.011   -6.324016    4.632484    0.008998
  17 C     6.0000    0    12.011   -4.406255    6.392855    0.037136
  18 C     6.0000    0    12.011   -1.864328    5.678412    0.051415
  19 C     6.0000    0    12.011   -1.197848    3.159262    0.051141
  20 N     7.0000    0    14.007    0.001523   -7.619535   -0.016653
  21 C     6.0000    0    12.011    0.592062   -8.676884    2.298116
  22 C     6.0000    0    12.011    2.439640  -10.571026    2.568768
  23 S    16.0000    0    32.060    4.194776  -11.726427    0.103098
  24 C     6.0000    0    12.011    3.052109  -10.091654   -2.449541
  25 C     6.0000    0    12.011    1.119773   -8.271758   -2.285192
  26 N     7.0000    0    14.007    0.004018    7.613443   -0.010083
  27 C     6.0000    0    12.011    1.316441    8.200270    2.233867
  28 C     6.0000    0    12.011    2.782232   10.389464    2.368968
  29 S    16.0000    0    32.060    2.747699   12.585417   -0.120539
  30 C     6.0000    0    12.011    2.409715   10.490701   -2.671649
  31 C     6.0000    0    12.011    0.986150    8.288695   -2.396198
  32 C     6.0000    0    12.011   -0.676008   -7.860347    4.486410
  33 C     6.0000    0    12.011   -0.145156   -8.903743    6.790077
  34 C     6.0000    0    12.011    1.676264  -10.801209    7.034756
  35 C     6.0000    0    12.011    2.955058  -11.613652    4.942012
  36 C     6.0000    0    12.011    4.150502  -10.675896   -4.781253
  37 C     6.0000    0    12.011    3.355324   -9.493218   -6.936165
  38 C     6.0000    0    12.011    1.422633   -7.698157   -6.796374
  39 C     6.0000    0    12.011    0.326163   -7.099643   -4.534306
  40 C     6.0000    0    12.011    3.417025   11.139929   -4.995008
  41 C     6.0000    0    12.011    2.947253    9.676916   -7.110250
  42 C     6.0000    0    12.011    1.492119    7.525507   -6.865245
  43 C     6.0000    0    12.011    0.541826    6.821446   -4.531306
  44 C     6.0000    0    12.011    1.158657    6.681269    4.372402
  45 C     6.0000    0    12.011    2.446221    7.306361    6.563224
  46 C     6.0000    0    12.011    3.953353    9.433464    6.655414
  47 C     6.0000    0    12.011    4.122903   10.959302    4.539569
  48 H     1.0000    0     1.008  -10.174622    0.952875    3.795383
  49 H     1.0000    0     1.008  -14.822733    1.046961    3.735713
  50 H     1.0000    0     1.008  -14.731815   -0.878280   -4.122111
  51 H     1.0000    0     1.008  -10.091023   -0.906931   -4.045786
  52 H     1.0000    0     1.008  -18.820075   -0.305950   -2.535808
  53 H     1.0000    0     1.008    0.753429   -2.672313    0.105611
  54 H     1.0000    0     1.008   -4.918897   -8.427124   -0.246553
  55 H     1.0000    0     1.008   -8.318331   -5.208770   -0.265401
  56 H     1.0000    0     1.008   -8.284182    5.203060   -0.019309
  57 H     1.0000    0     1.008   -4.841498    8.389020    0.031978
  58 H     1.0000    0     1.008    0.777950    2.633339    0.036325
  59 H     1.0000    0     1.008   -2.082738   -6.397452    4.338248
  60 H     1.0000    0     1.008   -1.152613   -8.243561    8.439546
  61 H     1.0000    0     1.008    2.078946  -11.615715    8.863273
  62 H     1.0000    0     1.008    4.380462  -13.071496    5.095497
  63 H     1.0000    0     1.008    5.635717  -12.079328   -4.852931
  64 H     1.0000    0     1.008    4.211106   -9.950857   -8.732570
  65 H     1.0000    0     1.008    0.776773   -6.766402   -8.495235
  66 H     1.0000    0     1.008   -1.163600   -5.715011   -4.465280
  67 H     1.0000    0     1.008    4.546307   12.838049   -5.141520
  68 H     1.0000    0     1.008    3.706568   10.224514   -8.925422
  69 H     1.0000    0     1.008    1.089753    6.363272   -8.497746
  70 H     1.0000    0     1.008   -0.587049    5.131148   -4.386020
  71 H     1.0000    0     1.008   -0.011456    5.013478    4.352246
  72 H     1.0000    0     1.008    2.264167    6.101384    8.204228
  73 H     1.0000    0     1.008    4.977173    9.918124    8.354910
  74 H     1.0000    0     1.008    5.274122   12.648571    4.572841

--------------------------------
INTERNAL COORDINATES (ANGSTROEM)
--------------------------------
 C      0   0   0     0.000000000000     0.00000000     0.00000000
 C      1   0   0     1.384768848852     0.00000000     0.00000000
 C      2   1   0     1.379493472896   120.06483066     0.00000000
 C      3   2   1     1.391671413985   120.41105857     0.53460007
 C      4   3   2     1.390035545859   119.16516565   359.68995873
 C      5   4   3     1.381248009218   120.31487344   359.69173978
 S      4   3   2     1.756557638876   117.66450149   179.65273227
 N      1   2   3     1.420984932668   119.93205664   179.17490368
 C      8   1   2     1.370036873624   125.94599397   105.15020282
 C      9   8   1     1.412234306308   109.12551137   180.74959334
 C     10   9   8     1.439443317010   106.60532963   359.32657959
 C      8   1   2     1.386285842687   125.44013944   285.34573594
 C     10   9   8     1.384265646992   119.55331999   178.85744328
 C     13  10   9     1.378756753298   118.11550850     0.81856321
 C     14  13  10     1.392273342382   122.36919938   359.91490807
 C     15  14  13     1.378639547592   120.29949807   359.38104826
 C     12   8   1     1.385934732213   128.94563562   358.67323218
 C     17  12   8     1.377640902251   117.32768708   181.44595744
 C     18  17  12     1.397271340606   121.75285482     0.09475639
 C     19  18  17     1.378941726214   120.51715723   359.65312075
 N     14  13  10     1.446251209862   118.90915209   180.30616739
 C     21  14  13     1.382447454521   117.49240673    95.59156327
 C     22  21  14     1.407508982485   122.37151492   179.80267602
 S     23  22  21     1.714320476591   123.56408477     1.36618636
 C     24  23  22     1.714251176304   103.21776468   358.71636311
 C     21  14  13     1.382170819866   117.63702954   275.42431328
 N     19  18  17     1.423756396089   118.28023781   177.80938421
 C     27  19  18     1.410247908184   118.75750484   104.33341504
 C     28  27  19     1.396001681402   119.96596874   192.59386487
 S     29  28  27     1.756760664657   120.31401778     6.54329604
 C     30  29  28     1.755898119550    99.20835520   325.30308231
 C     31  30  29     1.395186388751   120.12718201    34.27486120
 C     22  21  14     1.406393551738   119.82518012   359.83749099
 C     33  22  21     1.367425243714   120.79455945   179.13663522
 C     34  33  22     1.397850965724   120.94865695     0.23786130
 C     35  34  33     1.367178805255   119.48173670     0.39446255
 C     25  24  23     1.398539110873   115.91611549   180.49195860
 C     37  25  24     1.367150870342   120.44949170   179.39635798
 C     38  37  25     1.397777507570   119.48239044   359.70693513
 C     39  38  37     1.367431024334   120.94398803     0.34045294
 C     31  30  29     1.383388016740   119.16093685   209.70117541
 C     41  31  30     1.383506476295   120.71947207   187.27167106
 C     42  41  31     1.380534452042   119.05914031   358.82800961
 C     43  42  41     1.384587996514   120.54777018   359.17788647
 C     28  27  19     1.390597654967   121.89566084    11.15796184
 C     45  28  27     1.384813760124   120.90896762   180.58319265
 C     46  45  28     1.380382963137   120.57306549   358.84651949
 C     29  28  27     1.383332598583   120.55583453   181.40864518
 H      2   1   3     1.081700644232   119.67274357   180.41187930
 H      3   2   1     1.081808058463   119.68629819   180.45969899
 H      5   4   3     1.081274068758   120.25993431   180.34952789
 H      6   5   4     1.081803640693   120.17423969   181.13494179
 H      7   4   3     1.337688585016    97.01812210   177.31472468
 H     13  10   9     1.082236480334   121.35396184   180.69708049
 H     15  14  13     1.081634332117   119.56922100   179.91727537
 H     16  15  14     1.080419291960   120.94949316   180.51125962
 H     17  12   8     1.080429714606   121.44514946     0.96715687
 H     18  17  12     1.081146696568   120.24566638   179.54730556
 H     20  19  18     1.081982014132   119.72366321   179.16214484
 H     33  22  21     1.076833612666   119.39037198   359.22991385
 H     34  33  22     1.080812113367   119.21699973   180.17690089
 H     35  34  33     1.080486931570   120.36316975   180.11800968
 H     36  35  34     1.081988793985   120.56166585   179.58534189
 H     37  25  24     1.081985560138   118.98354551   359.49540049
 H     38  37  25     1.080463293240   120.14866004   179.96357103
 H     39  38  37     1.080795995175   119.82712928   180.43112369
 H     40  39  38     1.076893522144   119.86180835   180.15188176
 H     41  31  30     1.081951248523   118.86630493     5.89111789
 H     42  41  31     1.080775094312   120.14688294   178.55252055
 H     43  42  41     1.081613742142   120.24600226   179.51184666
 H     44  43  42     1.078350198974   119.20897349   180.11823690
 H     45  28  27     1.078158733997   119.97374971   359.19679073
 H     46  45  28     1.081647335228   119.17482529   179.11618421
 H     47  46  45     1.080790700405   120.83287904   180.64429710
 H     48  29  28     1.081911095837   118.84222845   178.68938543

---------------------------
INTERNAL COORDINATES (A.U.)
---------------------------
 C      0   0   0     0.000000000000     0.00000000     0.00000000
 C      1   0   0     2.616833883116     0.00000000     0.00000000
 C      2   1   0     2.606864867305   120.06483066     0.00000000
 C      3   2   1     2.629877840839   120.41105857     0.53460007
 C      4   3   2     2.626786498090   119.16516565   359.68995873
 C      5   4   3     2.610180460445   120.31487344   359.69173978
 S      4   3   2     3.319412875922   117.66450149   179.65273227
 N      1   2   3     2.685272363172   119.93205664   179.17490368
 C      8   1   2     2.588994484523   125.94599397   105.15020282
 C      9   8   1     2.668736075851   109.12551137   180.74959334
 C     10   9   8     2.720153654452   106.60532963   359.32657959
 C      8   1   2     2.619700586011   125.44013944   285.34573594
 C     10   9   8     2.615882969411   119.55331999   178.85744328
 C     13  10   9     2.605472669028   118.11550850     0.81856321
 C     14  13  10     2.631015320662   122.36919938   359.91490807
 C     15  14  13     2.605251182342   120.29949807   359.38104826
 C     12   8   1     2.619037083373   128.94563562   358.67323218
 C     17  12   8     2.603364016142   117.32768708   181.44595744
 C     18  17  12     2.640460168522   121.75285482     0.09475639
 C     19  18  17     2.605822217181   120.51715723   359.65312075
 N     14  13  10     2.733018707492   118.90915209   180.30616739
 C     21  14  13     2.612447083582   117.49240673    95.59156327
 C     22  21  14     2.659806507930   122.37151492   179.80267602
 S     23  22  21     3.239596206531   123.56408477     1.36618636
 C     24  23  22     3.239465247968   103.21776468   358.71636311
 C     21  14  13     2.611924319844   117.63702954   275.42431328
 N     19  18  17     2.690509670028   118.28023781   177.80938421
 C     27  19  18     2.664982327403   118.75750484   104.33341504
 C     28  27  19     2.638060860344   119.96596874   192.59386487
 S     29  28  27     3.319796539048   120.31401778     6.54329604
 C     30  29  28     3.318166565018    99.20835520   325.30308231
 C     31  30  29     2.636520180514   120.12718201    34.27486120
 C     22  21  14     2.657698649297   119.82518012   359.83749099
 C     33  22  21     2.584059219230   120.79455945   179.13663522
 C     34  33  22     2.641555501255   120.94865695     0.23786130
 C     35  34  33     2.583593518033   119.48173670     0.39446255
 C     25  24  23     2.642855907127   115.91611549   180.49195860
 C     37  25  24     2.583540728698   120.44949170   179.39635798
 C     38  37  25     2.641416685461   119.48239044   359.70693513
 C     39  38  37     2.584070143018   120.94398803     0.34045294
 C     31  30  29     2.614224488587   119.16093685   209.70117541
 C     41  31  30     2.614448344705   120.71947207   187.27167106
 C     42  41  31     2.608832032803   119.05914031   358.82800961
 C     43  42  41     2.616492121726   120.54777018   359.17788647
 C     28  27  19     2.627848730360   121.89566084    11.15796184
 C     45  28  27     2.616918753120   120.90896762   180.58319265
 C     46  45  28     2.608545760260   120.57306549   358.84651949
 C     29  28  27     2.614119763447   120.55583453   181.40864518
 H      2   1   3     2.044117976486   119.67274357   180.41187930
 H      3   2   1     2.044320959965   119.68629819   180.45969899
 H      5   4   3     2.043311865663   120.25993431   180.34952789
 H      6   5   4     2.044312611589   120.17423969   181.13494179
 H      7   4   3     2.527865078152    97.01812210   177.31472468
 H     13  10   9     2.045130559971   121.35396184   180.69708049
 H     15  14  13     2.043992664749   119.56922100   179.91727537
 H     16  15  14     2.041696571610   120.94949316   180.51125962
 H     17  12   8     2.041716267556   121.44514946     0.96715687
 H     18  17  12     2.043071167108   120.24566638   179.54730556
 H     20  19  18     2.044649688537   119.72366321   179.16214484
 H     33  22  21     2.034920619739   119.39037198   359.22991385
 H     34  33  22     2.042438896488   119.21699973   180.17690089
 H     35  34  33     2.041824391948   120.36316975   180.11800968
 H     36  35  34     2.044662500603   120.56166585   179.58534189
 H     37  25  24     2.044656389518   118.98354551   359.49540049
 H     38  37  25     2.041779721978   120.14866004   179.96357103
 H     39  38  37     2.042408437520   119.82712928   180.43112369
 H     40  39  38     2.035033832246   119.86180835   180.15188176
 H     41  31  30     2.044591549963   118.86630493     5.89111789
 H     42  41  31     2.042368940614   120.14688294   178.55252055
 H     43  42  41     2.043953755333   120.24600226   179.51184666
 H     44  43  42     2.037786552520   119.20897349   180.11823690
 H     45  28  27     2.037424736150   119.97374971   359.19679073
 H     46  45  28     2.044017237067   119.17482529   179.11618421
 H     47  46  45     2.042398431855   120.83287904   180.64429710
 H     48  29  28     2.044515672382   118.84222845   178.68938543



           ************************************************************
           *        Program running with 36 parallel MPI-processes    *
           *              working on a shared directory               *
           ************************************************************
------------------------------------------------------------------------------
                   ___                                                        
                  /   \      - P O W E R E D   B Y -                         
                 /     \                                                     
                 |  |  |   _    _      __       _____    __    __             
                 |  |  |  | |  | |    /  \     |  _  \  |  |  /  |          
                  \  \/   | |  | |   /    \    | | | |  |  | /  /          
                 / \  \   | |__| |  /  /\  \   | |_| |  |  |/  /          
                |  |  |   |  __  | /  /__\  \  |    /   |      \           
                |  |  |   | |  | | |   __   |  |    \   |  |\   \          
                \     /   | |  | | |  |  |  |  | |\  \  |  | \   \       
                 \___/    |_|  |_| |__|  |__|  |_| \__\ |__|  \__/        
                                                                              
                      - O R C A' S   B I G   F R I E N D -                    
                                      &                                       
                       - I N T E G R A L  F E E D E R -                       
                                                                              
 v1 FN, 2020, v2 2021                                                         
------------------------------------------------------------------------------


Reading SHARK input file Combo6_Cf1tc_-0.43404_0.43404_ck0.SHARKINP.tmp ... ok
----------------------
SHARK INTEGRAL PACKAGE
----------------------

Number of atoms                             ...     75
Number of basis functions                   ...   1668
Number of shells                            ...    642
Maximum angular momentum                    ...      3
Integral batch strategy                     ... SHARK/LIBINT Hybrid
RI-J (if used) integral strategy            ... SPLIT-RIJ (Revised 2003 algorithm where possible)
Printlevel                                  ...      1
Contraction scheme used                     ... SEGMENTED contraction
Coulomb Range Separation                    ... NOT USED
Exchange Range Separation                   ... Long Range
   Mu parameter                             ...  0.330000
   Scaling (regular/separated)              ...  0.190000  0.460000
Finite Nucleus Model                        ... NOT USED
Auxiliary Coulomb fitting basis             ... AVAILABLE
   # of basis functions in Aux-J            ...   2655
   # of shells in Aux-J                     ...    861
   Maximum angular momentum in Aux-J        ...      4
Auxiliary J/K fitting basis                 ... NOT available
Auxiliary Correlation fitting basis         ... NOT available
Auxiliary 'external' fitting basis          ... NOT available
Integral threshold                          ...     2.500000e-11
Primitive cut-off                           ...     2.500000e-12
Primitive pair pre-selection threshold      ...     2.500000e-12

Calculating pre-screening integrals         ... done (  0.1 sec) Dimension = 642
Organizing shell pair data                  ... done (  1.0 sec)
Shell pair information
Total number of shell pairs                 ...    206403
Shell pairs after pre-screening             ...     97019
Total number of primitive shell pairs       ...    654975
Primitive shell pairs kept                  ...    187735
          la=0 lb=0:  23330 shell pairs
          la=1 lb=0:  28748 shell pairs
          la=1 lb=1:   8815 shell pairs
          la=2 lb=0:  13535 shell pairs
          la=2 lb=1:   8366 shell pairs
          la=2 lb=2:   1940 shell pairs
          la=3 lb=0:   6177 shell pairs
          la=3 lb=1:   3930 shell pairs
          la=3 lb=2:   1755 shell pairs
          la=3 lb=3:    423 shell pairs

Reading point charge file                   ... ok (4 point charges)
Calculating one electron integrals          ... done (  0.2 sec)
Calculating RI/J V-Matrix + Cholesky decomp.... done (  0.7 sec)
Calculating Nuclear repulsion               ... (+Point charges) done (  0.0 sec) ENN=   5969.845052677682 Eh

SHARK setup successfully completed in   3.0 seconds

Maximum memory used throughout the entire GTOINT-calculation: 161.0 MB
ENUC WAS=  0.000000000
ENUC IS =  0.000000000
n1225:rank32.orca_scf_mpi: Failed to modify UD QP to INIT on mlx5_0: Operation not permitted
n1225:rank34.orca_scf_mpi: Failed to modify UD QP to INIT on mlx5_0: Operation not permitted
n1225:rank33.orca_scf_mpi: Failed to modify UD QP to INIT on mlx5_0: Operation not permitted
n1225:rank35.orca_scf_mpi: Failed to modify UD QP to INIT on mlx5_0: Operation not permitted
n1225:rank34.orca_scf_mpi: Failed to modify UD QP to INIT on mlx5_0: Operation not permitted
n1225:rank32.orca_scf_mpi: Failed to modify UD QP to INIT on mlx5_0: Operation not permitted
n1225:rank33.orca_scf_mpi: Failed to modify UD QP to INIT on mlx5_0: Operation not permitted
n1225:rank34.orca_scf_mpi: Failed to modify UD QP to INIT on mlx5_0: Operation not permitted
n1225:rank35.orca_scf_mpi: Failed to modify UD QP to INIT on mlx5_0: Operation not permitted
n1225:rank32.orca_scf_mpi: Failed to modify UD QP to INIT on mlx5_0: Operation not permitted
n1225:rank35.orca_scf_mpi: Failed to modify UD QP to INIT on mlx5_0: Operation not permitted
n1225:rank33.orca_scf_mpi: Failed to modify UD QP to INIT on mlx5_0: Operation not permitted
n1220:rank22.orca_scf_mpi: Failed to modify UD QP to INIT on mlx5_0: Operation not permitted
n1220:rank1.orca_scf_mpi: Failed to modify UD QP to INIT on mlx5_0: Operation not permitted
n1220:rank1.orca_scf_mpi: Failed to modify UD QP to INIT on mlx5_0: Operation not permitted
n1220:rank22.orca_scf_mpi: Failed to modify UD QP to INIT on mlx5_0: Operation not permitted
n1220:rank1.orca_scf_mpi: Failed to modify UD QP to INIT on mlx5_0: Operation not permitted
n1220:rank22.orca_scf_mpi: Failed to modify UD QP to INIT on mlx5_0: Operation not permitted
n1225:rank32.orca_scf_mpi: Failed to modify UD QP to INIT on mlx5_0: Operation not permitted
n1225:rank34.orca_scf_mpi: Failed to modify UD QP to INIT on mlx5_0: Operation not permitted
n1225:rank35.orca_scf_mpi: Failed to modify UD QP to INIT on mlx5_0: Operation not permitted
n1225:rank33.orca_scf_mpi: Failed to modify UD QP to INIT on mlx5_0: Operation not permitted
n1220:rank24.orca_scf_mpi: Failed to modify UD QP to INIT on mlx5_0: Operation not permitted
n1220:rank24.orca_scf_mpi: Failed to modify UD QP to INIT on mlx5_0: Operation not permitted
n1220:rank24.orca_scf_mpi: Failed to modify UD QP to INIT on mlx5_0: Operation not permitted
n1220:rank22.orca_scf_mpi: Failed to modify UD QP to INIT on mlx5_0: Operation not permitted
n1220:rank1.orca_scf_mpi: Failed to modify UD QP to INIT on mlx5_0: Operation not permitted
n1220:rank24.orca_scf_mpi: Failed to modify UD QP to INIT on mlx5_0: Operation not permitted
n1220:rank25.orca_scf_mpi: Failed to modify UD QP to INIT on mlx5_0: Operation not permitted
n1220:rank25.orca_scf_mpi: Failed to modify UD QP to INIT on mlx5_0: Operation not permitted
n1220:rank25.orca_scf_mpi: Failed to modify UD QP to INIT on mlx5_0: Operation not permitted
n1220:rank10.orca_scf_mpi: Failed to modify UD QP to INIT on mlx5_0: Operation not permitted
n1220:rank0.orca_scf_mpi: Failed to modify UD QP to INIT on mlx5_0: Operation not permitted
n1220:rank15.orca_scf_mpi: Failed to modify UD QP to INIT on mlx5_0: Operation not permitted
n1220:rank25.orca_scf_mpi: Failed to modify UD QP to INIT on mlx5_0: Operation not permitted
n1220:rank0.orca_scf_mpi: Failed to modify UD QP to INIT on mlx5_0: Operation not permitted
n1220:rank10.orca_scf_mpi: Failed to modify UD QP to INIT on mlx5_0: Operation not permitted
n1220:rank15.orca_scf_mpi: Failed to modify UD QP to INIT on mlx5_0: Operation not permitted
n1220:rank5.orca_scf_mpi: Failed to modify UD QP to INIT on mlx5_0: Operation not permitted
n1220:rank15.orca_scf_mpi: Failed to modify UD QP to INIT on mlx5_0: Operation not permitted
n1220:rank0.orca_scf_mpi: Failed to modify UD QP to INIT on mlx5_0: Operation not permitted
n1220:rank10.orca_scf_mpi: Failed to modify UD QP to INIT on mlx5_0: Operation not permitted
n1220:rank5.orca_scf_mpi: Failed to modify UD QP to INIT on mlx5_0: Operation not permitted
n1220:rank8.orca_scf_mpi: Failed to modify UD QP to INIT on mlx5_0: Operation not permitted
n1220:rank5.orca_scf_mpi: Failed to modify UD QP to INIT on mlx5_0: Operation not permitted
n1220:rank8.orca_scf_mpi: Failed to modify UD QP to INIT on mlx5_0: Operation not permitted
n1220:rank23.orca_scf_mpi: Failed to modify UD QP to INIT on mlx5_0: Operation not permitted
n1220:rank0.orca_scf_mpi: Failed to modify UD QP to INIT on mlx5_0: Operation not permitted
n1220:rank28.orca_scf_mpi: Failed to modify UD QP to INIT on mlx5_0: Operation not permitted
n1220:rank8.orca_scf_mpi: Failed to modify UD QP to INIT on mlx5_0: Operation not permitted
n1220:rank23.orca_scf_mpi: Failed to modify UD QP to INIT on mlx5_0: Operation not permitted
n1220:rank15.orca_scf_mpi: Failed to modify UD QP to INIT on mlx5_0: Operation not permitted
n1220:rank20.orca_scf_mpi: Failed to modify UD QP to INIT on mlx5_0: Operation not permitted
n1220:rank10.orca_scf_mpi: Failed to modify UD QP to INIT on mlx5_0: Operation not permitted
n1220:rank26.orca_scf_mpi: Failed to modify UD QP to INIT on mlx5_0: Operation not permitted
n1220:rank23.orca_scf_mpi: Failed to modify UD QP to INIT on mlx5_0: Operation not permitted
n1220:rank21.orca_scf_mpi: Failed to modify UD QP to INIT on mlx5_0: Operation not permitted
n1220:rank3.orca_scf_mpi: Failed to modify UD QP to INIT on mlx5_0: Operation not permitted
n1220:rank28.orca_scf_mpi: Failed to modify UD QP to INIT on mlx5_0: Operation not permitted
n1220:rank6.orca_scf_mpi: Failed to modify UD QP to INIT on mlx5_0: Operation not permitted
n1220:rank20.orca_scf_mpi: Failed to modify UD QP to INIT on mlx5_0: Operation not permitted
n1220:rank28.orca_scf_mpi: Failed to modify UD QP to INIT on mlx5_0: Operation not permitted
n1220:rank21.orca_scf_mpi: Failed to modify UD QP to INIT on mlx5_0: Operation not permitted
n1220:rank6.orca_scf_mpi: Failed to modify UD QP to INIT on mlx5_0: Operation not permitted
n1220:rank3.orca_scf_mpi: Failed to modify UD QP to INIT on mlx5_0: Operation not permitted
n1220:rank20.orca_scf_mpi: Failed to modify UD QP to INIT on mlx5_0: Operation not permitted
n1220:rank26.orca_scf_mpi: Failed to modify UD QP to INIT on mlx5_0: Operation not permitted
n1220:rank5.orca_scf_mpi: Failed to modify UD QP to INIT on mlx5_0: Operation not permitted
n1220:rank6.orca_scf_mpi: Failed to modify UD QP to INIT on mlx5_0: Operation not permitted
n1220:rank21.orca_scf_mpi: Failed to modify UD QP to INIT on mlx5_0: Operation not permitted
n1220:rank3.orca_scf_mpi: Failed to modify UD QP to INIT on mlx5_0: Operation not permitted
n1220:rank26.orca_scf_mpi: Failed to modify UD QP to INIT on mlx5_0: Operation not permitted
n1220:rank8.orca_scf_mpi: Failed to modify UD QP to INIT on mlx5_0: Operation not permitted
n1220:rank23.orca_scf_mpi: Failed to modify UD QP to INIT on mlx5_0: Operation not permitted
n1220:rank29.orca_scf_mpi: Failed to modify UD QP to INIT on mlx5_0: Operation not permitted
n1220:rank28.orca_scf_mpi: Failed to modify UD QP to INIT on mlx5_0: Operation not permitted
n1220:rank13.orca_scf_mpi: Failed to modify UD QP to INIT on mlx5_0: Operation not permitted
n1220:rank20.orca_scf_mpi: Failed to modify UD QP to INIT on mlx5_0: Operation not permitted
n1220:rank29.orca_scf_mpi: Failed to modify UD QP to INIT on mlx5_0: Operation not permitted
n1220:rank13.orca_scf_mpi: Failed to modify UD QP to INIT on mlx5_0: Operation not permitted
n1220:rank3.orca_scf_mpi: Failed to modify UD QP to INIT on mlx5_0: Operation not permitted
n1220:rank29.orca_scf_mpi: Failed to modify UD QP to INIT on mlx5_0: Operation not permitted
n1220:rank13.orca_scf_mpi: Failed to modify UD QP to INIT on mlx5_0: Operation not permitted
n1220:rank26.orca_scf_mpi: Failed to modify UD QP to INIT on mlx5_0: Operation not permitted
n1220:rank6.orca_scf_mpi: Failed to modify UD QP to INIT on mlx5_0: Operation not permitted
n1220:rank21.orca_scf_mpi: Failed to modify UD QP to INIT on mlx5_0: Operation not permitted
n1220:rank17.orca_scf_mpi: Failed to modify UD QP to INIT on mlx5_0: Operation not permitted
n1220:rank12.orca_scf_mpi: Failed to modify UD QP to INIT on mlx5_0: Operation not permitted
n1220:rank9.orca_scf_mpi: Failed to modify UD QP to INIT on mlx5_0: Operation not permitted
n1220:rank12.orca_scf_mpi: Failed to modify UD QP to INIT on mlx5_0: Operation not permitted
n1220:rank9.orca_scf_mpi: Failed to modify UD QP to INIT on mlx5_0: Operation not permitted
n1220:rank14.orca_scf_mpi: Failed to modify UD QP to INIT on mlx5_0: Operation not permitted
n1220:rank17.orca_scf_mpi: Failed to modify UD QP to INIT on mlx5_0: Operation not permitted
n1220:rank12.orca_scf_mpi: Failed to modify UD QP to INIT on mlx5_0: Operation not permitted
n1220:rank9.orca_scf_mpi: Failed to modify UD QP to INIT on mlx5_0: Operation not permitted
n1220:rank17.orca_scf_mpi: Failed to modify UD QP to INIT on mlx5_0: Operation not permitted
n1220:rank14.orca_scf_mpi: Failed to modify UD QP to INIT on mlx5_0: Operation not permitted
n1220:rank14.orca_scf_mpi: Failed to modify UD QP to INIT on mlx5_0: Operation not permitted
n1220:rank16.orca_scf_mpi: Failed to modify UD QP to INIT on mlx5_0: Operation not permitted
n1220:rank11.orca_scf_mpi: Failed to modify UD QP to INIT on mlx5_0: Operation not permitted
n1220:rank31.orca_scf_mpi: Failed to modify UD QP to INIT on mlx5_0: Operation not permitted
n1220:rank30.orca_scf_mpi: Failed to modify UD QP to INIT on mlx5_0: Operation not permitted
n1220:rank4.orca_scf_mpi: Failed to modify UD QP to INIT on mlx5_0: Operation not permitted
n1220:rank18.orca_scf_mpi: Failed to modify UD QP to INIT on mlx5_0: Operation not permitted
n1220:rank27.orca_scf_mpi: Failed to modify UD QP to INIT on mlx5_0: Operation not permitted
n1220:rank19.orca_scf_mpi: Failed to modify UD QP to INIT on mlx5_0: Operation not permitted
n1220:rank2.orca_scf_mpi: Failed to modify UD QP to INIT on mlx5_0: Operation not permitted
n1220:rank7.orca_scf_mpi: Failed to modify UD QP to INIT on mlx5_0: Operation not permitted
n1220:rank11.orca_scf_mpi: Failed to modify UD QP to INIT on mlx5_0: Operation not permitted
n1220:rank16.orca_scf_mpi: Failed to modify UD QP to INIT on mlx5_0: Operation not permitted
n1220:rank31.orca_scf_mpi: Failed to modify UD QP to INIT on mlx5_0: Operation not permitted
n1220:rank30.orca_scf_mpi: Failed to modify UD QP to INIT on mlx5_0: Operation not permitted
n1220:rank4.orca_scf_mpi: Failed to modify UD QP to INIT on mlx5_0: Operation not permitted
n1220:rank18.orca_scf_mpi: Failed to modify UD QP to INIT on mlx5_0: Operation not permitted
n1220:rank27.orca_scf_mpi: Failed to modify UD QP to INIT on mlx5_0: Operation not permitted
n1220:rank19.orca_scf_mpi: Failed to modify UD QP to INIT on mlx5_0: Operation not permitted
n1220:rank29.orca_scf_mpi: Failed to modify UD QP to INIT on mlx5_0: Operation not permitted
n1220:rank2.orca_scf_mpi: Failed to modify UD QP to INIT on mlx5_0: Operation not permitted
n1220:rank7.orca_scf_mpi: Failed to modify UD QP to INIT on mlx5_0: Operation not permitted
n1220:rank11.orca_scf_mpi: Failed to modify UD QP to INIT on mlx5_0: Operation not permitted
n1220:rank30.orca_scf_mpi: Failed to modify UD QP to INIT on mlx5_0: Operation not permitted
n1220:rank31.orca_scf_mpi: Failed to modify UD QP to INIT on mlx5_0: Operation not permitted
n1220:rank16.orca_scf_mpi: Failed to modify UD QP to INIT on mlx5_0: Operation not permitted
n1220:rank13.orca_scf_mpi: Failed to modify UD QP to INIT on mlx5_0: Operation not permitted
n1220:rank18.orca_scf_mpi: Failed to modify UD QP to INIT on mlx5_0: Operation not permitted
n1220:rank4.orca_scf_mpi: Failed to modify UD QP to INIT on mlx5_0: Operation not permitted
n1220:rank27.orca_scf_mpi: Failed to modify UD QP to INIT on mlx5_0: Operation not permitted
n1220:rank19.orca_scf_mpi: Failed to modify UD QP to INIT on mlx5_0: Operation not permitted
n1220:rank7.orca_scf_mpi: Failed to modify UD QP to INIT on mlx5_0: Operation not permitted
n1220:rank2.orca_scf_mpi: Failed to modify UD QP to INIT on mlx5_0: Operation not permitted
n1220:rank17.orca_scf_mpi: Failed to modify UD QP to INIT on mlx5_0: Operation not permitted
n1220:rank12.orca_scf_mpi: Failed to modify UD QP to INIT on mlx5_0: Operation not permitted
n1220:rank9.orca_scf_mpi: Failed to modify UD QP to INIT on mlx5_0: Operation not permitted
n1220:rank14.orca_scf_mpi: Failed to modify UD QP to INIT on mlx5_0: Operation not permitted
n1220:rank16.orca_scf_mpi: Failed to modify UD QP to INIT on mlx5_0: Operation not permitted
n1220:rank11.orca_scf_mpi: Failed to modify UD QP to INIT on mlx5_0: Operation not permitted
n1220:rank30.orca_scf_mpi: Failed to modify UD QP to INIT on mlx5_0: Operation not permitted
n1220:rank31.orca_scf_mpi: Failed to modify UD QP to INIT on mlx5_0: Operation not permitted
n1220:rank2.orca_scf_mpi: Failed to modify UD QP to INIT on mlx5_0: Operation not permitted
n1220:rank7.orca_scf_mpi: Failed to modify UD QP to INIT on mlx5_0: Operation not permitted
n1220:rank27.orca_scf_mpi: Failed to modify UD QP to INIT on mlx5_0: Operation not permitted
n1220:rank19.orca_scf_mpi: Failed to modify UD QP to INIT on mlx5_0: Operation not permitted
n1220:rank4.orca_scf_mpi: Failed to modify UD QP to INIT on mlx5_0: Operation not permitted
n1220:rank18.orca_scf_mpi: Failed to modify UD QP to INIT on mlx5_0: Operation not permitted


           ************************************************************
           *        Program running with 36 parallel MPI-processes    *
           *              working on a shared directory               *
           ************************************************************

Diagonalization of the overlap matrix:
Smallest eigenvalue                        ... 3.571e-06
Time for diagonalization                   ...    0.553 sec
Threshold for overlap eigenvalues          ... 1.000e-08
Number of eigenvalues below threshold      ... 0
Time for construction of square roots      ...    0.436 sec
Total time needed                          ...    1.004 sec

-------------------
DFT GRID GENERATION
-------------------

General Integration Accuracy     IntAcc      ... 4.388
Radial Grid Type                 RadialGrid  ... OptM3 with GC (2021)
Angular Grid (max. ang.)         AngularGrid ... 4 (Lebedev-302)
Angular grid pruning method      GridPruning ... 4 (adaptive)
Weight generation scheme         WeightScheme... Becke
Basis function cutoff            BFCut       ... 1.0000e-11
Integration weight cutoff        WCut        ... 1.0000e-14
Angular grids for H and He will be reduced by one unit
Partially contracted basis set               ... off
Rotationally invariant grid construction     ... off

Total number of grid points                  ...   374482
Total number of batches                      ...     5889
Average number of points per batch           ...       63
Average number of grid points per atom       ...     4993
Time for grid setup =    2.150 sec

--------------------
COSX GRID GENERATION
--------------------

GRIDX 1
-------
General Integration Accuracy     IntAcc      ... 3.816
Radial Grid Type                 RadialGrid  ... OptM3 with GC (2021)
Angular Grid (max. ang.)         AngularGrid ... 1 (Lebedev-50)
Angular grid pruning method      GridPruning ... 4 (adaptive)
Weight generation scheme         WeightScheme... Becke
Basis function cutoff            BFCut       ... 1.0000e-11
Integration weight cutoff        WCut        ... 1.0000e-14
Angular grids for H and He will be reduced by one unit
Partially contracted basis set               ... on
Rotationally invariant grid construction     ... off

Total number of grid points                  ...    47150
Total number of batches                      ...      765
Average number of points per batch           ...       61
Average number of grid points per atom       ...      629
UseSFitting                                  ... on

GRIDX 2
-------
General Integration Accuracy     IntAcc      ... 4.020
Radial Grid Type                 RadialGrid  ... OptM3 with GC (2021)
Angular Grid (max. ang.)         AngularGrid ... 2 (Lebedev-110)
Angular grid pruning method      GridPruning ... 4 (adaptive)
Weight generation scheme         WeightScheme... Becke
Basis function cutoff            BFCut       ... 1.0000e-11
Integration weight cutoff        WCut        ... 1.0000e-14
Angular grids for H and He will be reduced by one unit
Partially contracted basis set               ... on
Rotationally invariant grid construction     ... off

Total number of grid points                  ...   103008
Total number of batches                      ...     1647
Average number of points per batch           ...       62
Average number of grid points per atom       ...     1373
UseSFitting                                  ... on

GRIDX 3
-------
General Integration Accuracy     IntAcc      ... 4.338
Radial Grid Type                 RadialGrid  ... OptM3 with GC (2021)
Angular Grid (max. ang.)         AngularGrid ... 3 (Lebedev-194)
Angular grid pruning method      GridPruning ... 4 (adaptive)
Weight generation scheme         WeightScheme... Becke
Basis function cutoff            BFCut       ... 1.0000e-11
Integration weight cutoff        WCut        ... 1.0000e-14
Angular grids for H and He will be reduced by one unit
Partially contracted basis set               ... on
Rotationally invariant grid construction     ... off

Total number of grid points                  ...   226620
Total number of batches                      ...     3579
Average number of points per batch           ...       63
Average number of grid points per atom       ...     3022
UseSFitting                                  ... on

Time for X-Grid setup             =    5.666 sec

--------------
SCF ITERATIONS
--------------
ITER       Energy         Delta-E        Max-DP      RMS-DP      [F,P]     Damp
               ***  Starting incremental Fock matrix formation  ***
  0  -2975.0602803285   0.000000000000 0.00325378  0.00002720  0.0045880 0.7000
  1  -2975.0609629463  -0.000682617821 0.00275921  0.00002306  0.0037325 0.7000
                               ***Turning on DIIS***
  2  -2975.0615219150  -0.000558968733 0.00675631  0.00005665  0.0029333 0.0000
  3  -2975.0630782254  -0.001556310360 0.00109925  0.00000754  0.0007860 0.0000
               *** Restarting incremental Fock matrix formation ***
                                   *** Resetting DIIS ***
  4  -2975.0631674608  -0.000089235393 0.00046782  0.00000317  0.0001713 0.0000
  5  -2975.0631715128  -0.000004052020 0.00016975  0.00000087  0.0001375 0.0000
  6  -2975.0631722148  -0.000000702038 0.00011076  0.00000090  0.0000893 0.0000
  7  -2975.0631725742  -0.000000359367 0.00012605  0.00000069  0.0000111 0.0000
  8  -2975.0631725802  -0.000000005957 0.00011810  0.00000059  0.0000064 0.0000
  9  -2975.0631726054  -0.000000025285 0.00017486  0.00000071  0.0000037 0.0000
 10  -2975.0631726114  -0.000000005938 0.00023173  0.00000082  0.0000014 0.0000
                            ***DIIS convergence achieved***

               *****************************************************
               *                     SUCCESS                       *
               *           SCF CONVERGED AFTER  11 CYCLES          *
               *****************************************************

Old exchange energy                            =    -88.482999008 Eh
New exchange energy                            =    -88.482987940 Eh
Exchange energy change after final integration =      0.000011068 Eh
Total energy after final integration           =  -2975.063161552 Eh
Final COS-X integration done in                =    46.292 sec
Total Energy       :        -2975.06316155 Eh          -80955.58433 eV
  Last Energy change         ...   -9.1341e-09  Tolerance :   1.0000e-08
  Last MAX-Density change    ...    0.0000e+00  Tolerance :   1.0000e-07
             **** THE GBW FILE WAS UPDATED (Combo6_Cf1tc_-0.43404_0.43404_ck0.gbw) ****
             **** DENSITY Combo6_Cf1tc_-0.43404_0.43404_ck0.scfp WAS UPDATED ****
             **** ENERGY FILE WAS UPDATED (Combo6_Cf1tc_-0.43404_0.43404_ck0.en.tmp) ****
----------------------
UHF SPIN CONTAMINATION
----------------------

Warning: in a DFT calculation there is little theoretical justification to 
         calculate <S**2> as in Hartree-Fock theory. We will do it anyways
         but you should keep in mind that the values have only limited relevance

Expectation value of <S**2>     :     0.767712
Ideal value S*(S+1) for S=0.5   :     0.750000
Deviation                       :     0.017712

             **** THE GBW FILE WAS UPDATED (Combo6_Cf1tc_-0.43404_0.43404_ck0.gbw) ****
             **** DENSITY Combo6_Cf1tc_-0.43404_0.43404_ck0.scfp WAS UPDATED ****
Total SCF time: 0 days 0 hours 5 min 27 sec 

Maximum memory used throughout the entire SCF-calculation: 648.6 MB


-------------------------------------------------------------------------------
                          DFT DISPERSION CORRECTION                            
                                                                               
                                 DFTD4 V2.5                                    
-------------------------------------------------------------------------------
Starting D4
-------------------------   ----------------
Dispersion correction           -0.123867917
-------------------------   ----------------


-------------------------   --------------------
FINAL SINGLE POINT ENERGY     -2975.187029469006
-------------------------   --------------------

n1225:rank34.orca_scfgrad_mpi: Failed to modify UD QP to INIT on mlx5_0: Operation not permitted
n1225:rank34.orca_scfgrad_mpi: Failed to modify UD QP to INIT on mlx5_0: Operation not permitted
n1225:rank33.orca_scfgrad_mpi: Failed to modify UD QP to INIT on mlx5_0: Operation not permitted
n1225:rank32.orca_scfgrad_mpi: Failed to modify UD QP to INIT on mlx5_0: Operation not permitted
n1225:rank35.orca_scfgrad_mpi: Failed to modify UD QP to INIT on mlx5_0: Operation not permitted
n1225:rank34.orca_scfgrad_mpi: Failed to modify UD QP to INIT on mlx5_0: Operation not permitted
n1225:rank33.orca_scfgrad_mpi: Failed to modify UD QP to INIT on mlx5_0: Operation not permitted
n1225:rank35.orca_scfgrad_mpi: Failed to modify UD QP to INIT on mlx5_0: Operation not permitted
n1225:rank32.orca_scfgrad_mpi: Failed to modify UD QP to INIT on mlx5_0: Operation not permitted
n1225:rank33.orca_scfgrad_mpi: Failed to modify UD QP to INIT on mlx5_0: Operation not permitted
n1225:rank32.orca_scfgrad_mpi: Failed to modify UD QP to INIT on mlx5_0: Operation not permitted
n1225:rank35.orca_scfgrad_mpi: Failed to modify UD QP to INIT on mlx5_0: Operation not permitted
n1225:rank34.orca_scfgrad_mpi: Failed to modify UD QP to INIT on mlx5_0: Operation not permitted
n1225:rank33.orca_scfgrad_mpi: Failed to modify UD QP to INIT on mlx5_0: Operation not permitted
n1225:rank35.orca_scfgrad_mpi: Failed to modify UD QP to INIT on mlx5_0: Operation not permitted
n1225:rank32.orca_scfgrad_mpi: Failed to modify UD QP to INIT on mlx5_0: Operation not permitted
n1220:rank31.orca_scfgrad_mpi: Failed to modify UD QP to INIT on mlx5_0: Operation not permitted
n1220:rank21.orca_scfgrad_mpi: Failed to modify UD QP to INIT on mlx5_0: Operation not permitted
n1220:rank19.orca_scfgrad_mpi: Failed to modify UD QP to INIT on mlx5_0: Operation not permitted
n1220:rank31.orca_scfgrad_mpi: Failed to modify UD QP to INIT on mlx5_0: Operation not permitted
n1220:rank21.orca_scfgrad_mpi: Failed to modify UD QP to INIT on mlx5_0: Operation not permitted
n1220:rank21.orca_scfgrad_mpi: Failed to modify UD QP to INIT on mlx5_0: Operation not permitted
n1220:rank19.orca_scfgrad_mpi: Failed to modify UD QP to INIT on mlx5_0: Operation not permitted
n1220:rank31.orca_scfgrad_mpi: Failed to modify UD QP to INIT on mlx5_0: Operation not permitted
n1220:rank14.orca_scfgrad_mpi: Failed to modify UD QP to INIT on mlx5_0: Operation not permitted
n1220:rank28.orca_scfgrad_mpi: Failed to modify UD QP to INIT on mlx5_0: Operation not permitted
n1220:rank6.orca_scfgrad_mpi: Failed to modify UD QP to INIT on mlx5_0: Operation not permitted
n1220:rank19.orca_scfgrad_mpi: Failed to modify UD QP to INIT on mlx5_0: Operation not permitted
n1220:rank28.orca_scfgrad_mpi: Failed to modify UD QP to INIT on mlx5_0: Operation not permitted
n1220:rank14.orca_scfgrad_mpi: Failed to modify UD QP to INIT on mlx5_0: Operation not permitted
n1220:rank6.orca_scfgrad_mpi: Failed to modify UD QP to INIT on mlx5_0: Operation not permitted
n1220:rank28.orca_scfgrad_mpi: Failed to modify UD QP to INIT on mlx5_0: Operation not permitted
n1220:rank14.orca_scfgrad_mpi: Failed to modify UD QP to INIT on mlx5_0: Operation not permitted
n1220:rank6.orca_scfgrad_mpi: Failed to modify UD QP to INIT on mlx5_0: Operation not permitted
n1220:rank26.orca_scfgrad_mpi: Failed to modify UD QP to INIT on mlx5_0: Operation not permitted
n1220:rank1.orca_scfgrad_mpi: Failed to modify UD QP to INIT on mlx5_0: Operation not permitted
n1220:rank1.orca_scfgrad_mpi: Failed to modify UD QP to INIT on mlx5_0: Operation not permitted
n1220:rank26.orca_scfgrad_mpi: Failed to modify UD QP to INIT on mlx5_0: Operation not permitted
n1220:rank1.orca_scfgrad_mpi: Failed to modify UD QP to INIT on mlx5_0: Operation not permitted
n1220:rank26.orca_scfgrad_mpi: Failed to modify UD QP to INIT on mlx5_0: Operation not permitted
n1220:rank19.orca_scfgrad_mpi: Failed to modify UD QP to INIT on mlx5_0: Operation not permitted
n1220:rank21.orca_scfgrad_mpi: Failed to modify UD QP to INIT on mlx5_0: Operation not permitted
n1220:rank31.orca_scfgrad_mpi: Failed to modify UD QP to INIT on mlx5_0: Operation not permitted
n1220:rank14.orca_scfgrad_mpi: Failed to modify UD QP to INIT on mlx5_0: Operation not permitted
n1220:rank6.orca_scfgrad_mpi: Failed to modify UD QP to INIT on mlx5_0: Operation not permitted
n1220:rank28.orca_scfgrad_mpi: Failed to modify UD QP to INIT on mlx5_0: Operation not permitted
n1220:rank1.orca_scfgrad_mpi: Failed to modify UD QP to INIT on mlx5_0: Operation not permitted
n1220:rank26.orca_scfgrad_mpi: Failed to modify UD QP to INIT on mlx5_0: Operation not permitted
n1220:rank7.orca_scfgrad_mpi: Failed to modify UD QP to INIT on mlx5_0: Operation not permitted
n1220:rank7.orca_scfgrad_mpi: Failed to modify UD QP to INIT on mlx5_0: Operation not permitted
n1220:rank7.orca_scfgrad_mpi: Failed to modify UD QP to INIT on mlx5_0: Operation not permitted
n1220:rank7.orca_scfgrad_mpi: Failed to modify UD QP to INIT on mlx5_0: Operation not permitted
n1220:rank11.orca_scfgrad_mpi: Failed to modify UD QP to INIT on mlx5_0: Operation not permitted
n1220:rank24.orca_scfgrad_mpi: Failed to modify UD QP to INIT on mlx5_0: Operation not permitted
n1220:rank11.orca_scfgrad_mpi: Failed to modify UD QP to INIT on mlx5_0: Operation not permitted
n1220:rank11.orca_scfgrad_mpi: Failed to modify UD QP to INIT on mlx5_0: Operation not permitted
n1220:rank0.orca_scfgrad_mpi: Failed to modify UD QP to INIT on mlx5_0: Operation not permitted
n1220:rank15.orca_scfgrad_mpi: Failed to modify UD QP to INIT on mlx5_0: Operation not permitted
n1220:rank24.orca_scfgrad_mpi: Failed to modify UD QP to INIT on mlx5_0: Operation not permitted
n1220:rank10.orca_scfgrad_mpi: Failed to modify UD QP to INIT on mlx5_0: Operation not permitted
n1220:rank5.orca_scfgrad_mpi: Failed to modify UD QP to INIT on mlx5_0: Operation not permitted
n1220:rank24.orca_scfgrad_mpi: Failed to modify UD QP to INIT on mlx5_0: Operation not permitted
n1220:rank2.orca_scfgrad_mpi: Failed to modify UD QP to INIT on mlx5_0: Operation not permitted
n1220:rank30.orca_scfgrad_mpi: Failed to modify UD QP to INIT on mlx5_0: Operation not permitted
n1220:rank15.orca_scfgrad_mpi: Failed to modify UD QP to INIT on mlx5_0: Operation not permitted
n1220:rank5.orca_scfgrad_mpi: Failed to modify UD QP to INIT on mlx5_0: Operation not permitted
n1220:rank0.orca_scfgrad_mpi: Failed to modify UD QP to INIT on mlx5_0: Operation not permitted
n1220:rank30.orca_scfgrad_mpi: Failed to modify UD QP to INIT on mlx5_0: Operation not permitted
n1220:rank2.orca_scfgrad_mpi: Failed to modify UD QP to INIT on mlx5_0: Operation not permitted
n1220:rank10.orca_scfgrad_mpi: Failed to modify UD QP to INIT on mlx5_0: Operation not permitted
n1220:rank5.orca_scfgrad_mpi: Failed to modify UD QP to INIT on mlx5_0: Operation not permitted
n1220:rank15.orca_scfgrad_mpi: Failed to modify UD QP to INIT on mlx5_0: Operation not permitted
n1220:rank30.orca_scfgrad_mpi: Failed to modify UD QP to INIT on mlx5_0: Operation not permitted
n1220:rank0.orca_scfgrad_mpi: Failed to modify UD QP to INIT on mlx5_0: Operation not permitted
n1220:rank2.orca_scfgrad_mpi: Failed to modify UD QP to INIT on mlx5_0: Operation not permitted
n1220:rank10.orca_scfgrad_mpi: Failed to modify UD QP to INIT on mlx5_0: Operation not permitted
n1220:rank11.orca_scfgrad_mpi: Failed to modify UD QP to INIT on mlx5_0: Operation not permitted
n1220:rank24.orca_scfgrad_mpi: Failed to modify UD QP to INIT on mlx5_0: Operation not permitted
n1220:rank30.orca_scfgrad_mpi: Failed to modify UD QP to INIT on mlx5_0: Operation not permitted
n1220:rank5.orca_scfgrad_mpi: Failed to modify UD QP to INIT on mlx5_0: Operation not permitted
n1220:rank2.orca_scfgrad_mpi: Failed to modify UD QP to INIT on mlx5_0: Operation not permitted
n1220:rank0.orca_scfgrad_mpi: Failed to modify UD QP to INIT on mlx5_0: Operation not permitted
n1220:rank15.orca_scfgrad_mpi: Failed to modify UD QP to INIT on mlx5_0: Operation not permitted
n1220:rank10.orca_scfgrad_mpi: Failed to modify UD QP to INIT on mlx5_0: Operation not permitted
n1220:rank25.orca_scfgrad_mpi: Failed to modify UD QP to INIT on mlx5_0: Operation not permitted
n1220:rank20.orca_scfgrad_mpi: Failed to modify UD QP to INIT on mlx5_0: Operation not permitted
n1220:rank3.orca_scfgrad_mpi: Failed to modify UD QP to INIT on mlx5_0: Operation not permitted
n1220:rank8.orca_scfgrad_mpi: Failed to modify UD QP to INIT on mlx5_0: Operation not permitted
n1220:rank16.orca_scfgrad_mpi: Failed to modify UD QP to INIT on mlx5_0: Operation not permitted
n1220:rank23.orca_scfgrad_mpi: Failed to modify UD QP to INIT on mlx5_0: Operation not permitted
n1220:rank22.orca_scfgrad_mpi: Failed to modify UD QP to INIT on mlx5_0: Operation not permitted
n1220:rank17.orca_scfgrad_mpi: Failed to modify UD QP to INIT on mlx5_0: Operation not permitted
n1220:rank29.orca_scfgrad_mpi: Failed to modify UD QP to INIT on mlx5_0: Operation not permitted
n1220:rank13.orca_scfgrad_mpi: Failed to modify UD QP to INIT on mlx5_0: Operation not permitted
n1220:rank4.orca_scfgrad_mpi: Failed to modify UD QP to INIT on mlx5_0: Operation not permitted
n1220:rank18.orca_scfgrad_mpi: Failed to modify UD QP to INIT on mlx5_0: Operation not permitted
n1220:rank27.orca_scfgrad_mpi: Failed to modify UD QP to INIT on mlx5_0: Operation not permitted
n1220:rank9.orca_scfgrad_mpi: Failed to modify UD QP to INIT on mlx5_0: Operation not permitted
n1220:rank25.orca_scfgrad_mpi: Failed to modify UD QP to INIT on mlx5_0: Operation not permitted
n1220:rank12.orca_scfgrad_mpi: Failed to modify UD QP to INIT on mlx5_0: Operation not permitted
n1220:rank20.orca_scfgrad_mpi: Failed to modify UD QP to INIT on mlx5_0: Operation not permitted
n1220:rank3.orca_scfgrad_mpi: Failed to modify UD QP to INIT on mlx5_0: Operation not permitted
n1220:rank16.orca_scfgrad_mpi: Failed to modify UD QP to INIT on mlx5_0: Operation not permitted
n1220:rank23.orca_scfgrad_mpi: Failed to modify UD QP to INIT on mlx5_0: Operation not permitted
n1220:rank8.orca_scfgrad_mpi: Failed to modify UD QP to INIT on mlx5_0: Operation not permitted
n1220:rank22.orca_scfgrad_mpi: Failed to modify UD QP to INIT on mlx5_0: Operation not permitted
n1220:rank4.orca_scfgrad_mpi: Failed to modify UD QP to INIT on mlx5_0: Operation not permitted
n1220:rank25.orca_scfgrad_mpi: Failed to modify UD QP to INIT on mlx5_0: Operation not permitted
n1220:rank18.orca_scfgrad_mpi: Failed to modify UD QP to INIT on mlx5_0: Operation not permitted
n1220:rank29.orca_scfgrad_mpi: Failed to modify UD QP to INIT on mlx5_0: Operation not permitted
n1220:rank17.orca_scfgrad_mpi: Failed to modify UD QP to INIT on mlx5_0: Operation not permitted
n1220:rank13.orca_scfgrad_mpi: Failed to modify UD QP to INIT on mlx5_0: Operation not permitted
n1220:rank20.orca_scfgrad_mpi: Failed to modify UD QP to INIT on mlx5_0: Operation not permitted
n1220:rank3.orca_scfgrad_mpi: Failed to modify UD QP to INIT on mlx5_0: Operation not permitted
n1220:rank16.orca_scfgrad_mpi: Failed to modify UD QP to INIT on mlx5_0: Operation not permitted
n1220:rank9.orca_scfgrad_mpi: Failed to modify UD QP to INIT on mlx5_0: Operation not permitted
n1220:rank23.orca_scfgrad_mpi: Failed to modify UD QP to INIT on mlx5_0: Operation not permitted
n1220:rank27.orca_scfgrad_mpi: Failed to modify UD QP to INIT on mlx5_0: Operation not permitted
n1220:rank22.orca_scfgrad_mpi: Failed to modify UD QP to INIT on mlx5_0: Operation not permitted
n1220:rank8.orca_scfgrad_mpi: Failed to modify UD QP to INIT on mlx5_0: Operation not permitted
n1220:rank12.orca_scfgrad_mpi: Failed to modify UD QP to INIT on mlx5_0: Operation not permitted
n1220:rank4.orca_scfgrad_mpi: Failed to modify UD QP to INIT on mlx5_0: Operation not permitted
n1220:rank18.orca_scfgrad_mpi: Failed to modify UD QP to INIT on mlx5_0: Operation not permitted
n1220:rank13.orca_scfgrad_mpi: Failed to modify UD QP to INIT on mlx5_0: Operation not permitted
n1220:rank17.orca_scfgrad_mpi: Failed to modify UD QP to INIT on mlx5_0: Operation not permitted
n1220:rank29.orca_scfgrad_mpi: Failed to modify UD QP to INIT on mlx5_0: Operation not permitted
n1220:rank9.orca_scfgrad_mpi: Failed to modify UD QP to INIT on mlx5_0: Operation not permitted
n1220:rank27.orca_scfgrad_mpi: Failed to modify UD QP to INIT on mlx5_0: Operation not permitted
n1220:rank12.orca_scfgrad_mpi: Failed to modify UD QP to INIT on mlx5_0: Operation not permitted
n1220:rank25.orca_scfgrad_mpi: Failed to modify UD QP to INIT on mlx5_0: Operation not permitted
n1220:rank16.orca_scfgrad_mpi: Failed to modify UD QP to INIT on mlx5_0: Operation not permitted
n1220:rank20.orca_scfgrad_mpi: Failed to modify UD QP to INIT on mlx5_0: Operation not permitted
n1220:rank22.orca_scfgrad_mpi: Failed to modify UD QP to INIT on mlx5_0: Operation not permitted
n1220:rank23.orca_scfgrad_mpi: Failed to modify UD QP to INIT on mlx5_0: Operation not permitted
n1220:rank3.orca_scfgrad_mpi: Failed to modify UD QP to INIT on mlx5_0: Operation not permitted
n1220:rank8.orca_scfgrad_mpi: Failed to modify UD QP to INIT on mlx5_0: Operation not permitted
n1220:rank18.orca_scfgrad_mpi: Failed to modify UD QP to INIT on mlx5_0: Operation not permitted
n1220:rank4.orca_scfgrad_mpi: Failed to modify UD QP to INIT on mlx5_0: Operation not permitted
n1220:rank13.orca_scfgrad_mpi: Failed to modify UD QP to INIT on mlx5_0: Operation not permitted
n1220:rank17.orca_scfgrad_mpi: Failed to modify UD QP to INIT on mlx5_0: Operation not permitted
n1220:rank27.orca_scfgrad_mpi: Failed to modify UD QP to INIT on mlx5_0: Operation not permitted
n1220:rank12.orca_scfgrad_mpi: Failed to modify UD QP to INIT on mlx5_0: Operation not permitted
n1220:rank29.orca_scfgrad_mpi: Failed to modify UD QP to INIT on mlx5_0: Operation not permitted
n1220:rank9.orca_scfgrad_mpi: Failed to modify UD QP to INIT on mlx5_0: Operation not permitted


           ************************************************************
           *        Program running with 36 parallel MPI-processes    *
           *              working on a shared directory               *
           ************************************************************
------------------------------------------------------------------------------
                         ORCA SCF GRADIENT CALCULATION
------------------------------------------------------------------------------

 ... reading COSX grid (gridx3)
Gradient of the Kohn-Sham DFT energy:
Kohn-Sham wavefunction type      ... UKS
Hartree-Fock exchange scaling    ...    0.190
Number of operators              ...    2
Number of atoms                  ...   75
Basis set dimensions             ... 1668
Integral neglect threshold       ... 2.5e-11
Integral primitive cutoff        ... 2.5e-12
SHARK Integral package           ... ON

Nuc. rep. gradient       (SHARK) ... done (  0.0 sec)
HCore & Overlap gradient (SHARK) ... done (  1.0 sec)
RI-J gradient            (SHARK) ... done (  3.7 sec)
COSX-gradient                    ... done ( 62.5 sec)
Exchange-correlation gradient    ... done
Point charge gradient            ... done
Dispersion correction            ... Starting D4
Starting D4
Starting D4
Starting D4
Starting D4
Starting D4
Starting D4
Starting D4
Starting D4
Starting D4
Starting D4
Starting D4
Starting D4
Starting D4
Starting D4
Starting D4
Starting D4
Starting D4
Starting D4
Starting D4
Starting D4
Starting D4
Starting D4
Starting D4
Starting D4
Starting D4
Starting D4
Starting D4
Starting D4
Starting D4
Starting D4
Starting D4
Starting D4
Starting D4
Starting D4
Starting D4


------------------- 
Dispersion Gradient 
------------------- 
   1  :   -0.000325889    0.000001426   -0.000005118
   2  :   -0.000292848    0.000064873    0.000377421
   3  :   -0.000332215    0.000043334    0.000259401
   4  :   -0.000301308    0.000003355    0.000000406
   5  :   -0.000329668   -0.000039088   -0.000265800
   6  :   -0.000276221   -0.000063514   -0.000383701
   7  :   -0.000748630    0.000006697   -0.000030543
   8  :   -0.000238703    0.000006539   -0.000000946
   9  :   -0.000058011   -0.000231698   -0.000009339
  10  :    0.000029631   -0.000026511    0.000019099
  11  :    0.000017168    0.000029514    0.000024710
  12  :   -0.000051863    0.000243564    0.000022966
  13  :    0.000193302    0.000134691    0.000022257
  14  :   -0.000179228   -0.000025779   -0.000010945
  15  :   -0.000429613   -0.000315547   -0.000033055
  16  :   -0.000313066   -0.000432618   -0.000028101
  17  :   -0.000277936    0.000473274    0.000016590
  18  :   -0.000477828    0.000338583    0.000024740
  19  :   -0.000221089    0.000023260    0.000027477
  20  :    0.000159032   -0.000108287    0.000025018
  21  :   -0.000005055   -0.000019278   -0.000003932
  22  :    0.000101150   -0.000182977    0.000336715
  23  :    0.000249867   -0.000302815    0.000280419
  24  :    0.000796000   -0.000766747    0.000025255
  25  :    0.000312568   -0.000253707   -0.000267149
  26  :    0.000174827   -0.000127789   -0.000330496
  27  :   -0.000048276    0.000060155    0.000014859
  28  :    0.000156993    0.000137947    0.000343045
  29  :    0.000228199    0.000323035    0.000279905
  30  :    0.000314550    0.001110383    0.000000783
  31  :    0.000193735    0.000337400   -0.000296720
  32  :    0.000117019    0.000158750   -0.000342268
  33  :   -0.000067829   -0.000070756    0.000601165
  34  :   -0.000082865   -0.000033300    0.000576731
  35  :    0.000042416   -0.000135990    0.000438843
  36  :    0.000184076   -0.000251993    0.000331721
  37  :    0.000263750   -0.000188597   -0.000316921
  38  :    0.000147346   -0.000056039   -0.000435289
  39  :    0.000035346    0.000054493   -0.000576723
  40  :    0.000054656    0.000016377   -0.000609321
  41  :    0.000202013    0.000238289   -0.000364858
  42  :    0.000143474    0.000059419   -0.000441295
  43  :    0.000069561   -0.000094265   -0.000563817
  44  :    0.000103097   -0.000071069   -0.000619169
  45  :    0.000158322   -0.000104044    0.000595883
  46  :    0.000132977   -0.000114506    0.000538166
  47  :    0.000202155    0.000042042    0.000414686
  48  :    0.000251566    0.000222723    0.000339737
  49  :   -0.000075368    0.000019683    0.000176258
  50  :   -0.000062435    0.000020076    0.000093971
  51  :   -0.000051170   -0.000019492   -0.000099354
  52  :   -0.000071425   -0.000017393   -0.000177521
  53  :   -0.000085148    0.000002953    0.000003492
  54  :    0.000141993    0.000085010    0.000017995
  55  :   -0.000175018   -0.000115255   -0.000019444
  56  :   -0.000069139   -0.000160218   -0.000004215
  57  :   -0.000056477    0.000165743   -0.000002601
  58  :   -0.000178061    0.000113021    0.000009817
  59  :    0.000126098   -0.000085085    0.000003029
  60  :   -0.000033174   -0.000017556    0.000164446
  61  :   -0.000030223    0.000006385    0.000112238
  62  :    0.000011747   -0.000031375    0.000094951
  63  :    0.000072875   -0.000083024    0.000053447
  64  :    0.000087542   -0.000071317   -0.000048786
  65  :    0.000034910   -0.000012696   -0.000092995
  66  :   -0.000007096    0.000022108   -0.000114211
  67  :   -0.000001745   -0.000001125   -0.000170383
  68  :    0.000067966    0.000089721   -0.000060160
  69  :    0.000032475    0.000014396   -0.000092109
  70  :    0.000002541   -0.000030750   -0.000110267
  71  :    0.000023017   -0.000025833   -0.000172781
  72  :    0.000033762   -0.000034823    0.000170860
  73  :    0.000015390   -0.000034569    0.000105787
  74  :    0.000045871    0.000011141    0.000086776
  75  :    0.000076726    0.000087145    0.000052281

  |G| =    0.035470938

done

------------------
CARTESIAN GRADIENT
------------------

   1   C   :   -0.000007458   -0.000004319    0.000042408
   2   C   :   -0.000002097   -0.000037840   -0.000011385
   3   C   :   -0.000011858    0.000009712   -0.000013242
   4   C   :    0.000001800    0.000009176    0.000013602
   5   C   :    0.000005802    0.000008941   -0.000009933
   6   C   :    0.000020932    0.000009373   -0.000039858
   7   S   :    0.000007739    0.000007292   -0.000002373
   8   N   :    0.000018803   -0.000029859    0.000257079
   9   C   :   -0.000074215    0.000040174   -0.000093966
  10   C   :    0.000068879    0.000033541   -0.000191085
  11   C   :   -0.000080975    0.000017995    0.000157280
  12   C   :    0.000013914    0.000034364   -0.000304312
  13   C   :    0.000032050    0.000027523    0.000125001
  14   C   :   -0.000067684    0.000024182   -0.000035312
  15   C   :    0.000003944   -0.000047724   -0.000007992
  16   C   :    0.000030006   -0.000002385    0.000105262
  17   C   :    0.000016498    0.000005180    0.000057264
  18   C   :   -0.000012315   -0.000072451   -0.000275977
  19   C   :    0.000060433    0.000052436   -0.000112410
  20   C   :    0.000039698   -0.000017051    0.000024930
  21   N   :    0.000002562   -0.000050393   -0.000031240
  22   C   :    0.000055496    0.000064579    0.000050763
  23   C   :    0.000023891    0.000023422    0.000000241
  24   S   :    0.000019386   -0.000010064    0.000009104
  25   C   :   -0.000031683    0.000016452    0.000038032
  26   C   :    0.000028099   -0.000017727   -0.000020688
  27   N   :   -0.000215894    0.000052544    0.000173103
  28   C   :    0.000323480   -0.000233627    0.000003357
  29   C   :    0.000054083    0.000023015   -0.000021475
  30   S   :   -0.000007011    0.000024270    0.000019518
  31   C   :    0.000033311   -0.000007439    0.000031121
  32   C   :   -0.000130514    0.000227637   -0.000088710
  33   C   :   -0.000041488    0.000013362    0.000013601
  34   C   :   -0.000005993   -0.000004153    0.000020628
  35   C   :   -0.000007439    0.000001848   -0.000009955
  36   C   :   -0.000029598    0.000000100    0.000015743
  37   C   :   -0.000015036    0.000010536   -0.000003984
  38   C   :   -0.000023086   -0.000000277    0.000019273
  39   C   :    0.000014355   -0.000005964   -0.000020468
  40   C   :    0.000000618    0.000011268    0.000029332
  41   C   :    0.000007864    0.000025514    0.000008138
  42   C   :   -0.000000280   -0.000036174    0.000015656
  43   C   :    0.000019734   -0.000001147    0.000013208
  44   C   :   -0.000059399   -0.000050818    0.000089939
  45   C   :    0.000021960    0.000030152    0.000063732
  46   C   :   -0.000003333    0.000051647   -0.000005600
  47   C   :    0.000002321   -0.000018297    0.000001660
  48   C   :   -0.000050629   -0.000028275    0.000088975
  49   H   :   -0.000003930    0.000013077    0.000001760
  50   H   :   -0.000000696    0.000017033   -0.000003422
  51   H   :    0.000005995    0.000018528   -0.000003664
  52   H   :    0.000009763    0.000012775    0.000004854
  53   H   :    0.000004660    0.000017035   -0.000003143
  54   H   :    0.000007395   -0.000017333   -0.000017312
  55   H   :    0.000004514    0.000006773   -0.000001905
  56   H   :   -0.000010304    0.000032732   -0.000024665
  57   H   :    0.000010598    0.000030464    0.000007271
  58   H   :    0.000011400    0.000015629    0.000040852
  59   H   :   -0.000024177   -0.000042004   -0.000107810
  60   H   :   -0.000009709   -0.000007432   -0.000001056
  61   H   :   -0.000011342    0.000004697   -0.000000343
  62   H   :   -0.000008213    0.000002230    0.000006443
  63   H   :   -0.000006568    0.000000023    0.000006460
  64   H   :   -0.000001154    0.000001248    0.000004045
  65   H   :    0.000001502    0.000000671    0.000007727
  66   H   :    0.000001258    0.000009247    0.000008682
  67   H   :    0.000005027    0.000019613    0.000017651
  68   H   :    0.000017046    0.000003929    0.000017397
  69   H   :    0.000012172    0.000000469    0.000013048
  70   H   :    0.000008855    0.000004702    0.000019364
  71   H   :    0.000004827   -0.000066698    0.000045275
  72   H   :    0.000044627    0.000132381    0.000154623
  73   H   :   -0.000004348    0.000004224    0.000014661
  74   H   :    0.000010104    0.000006829    0.000007356
  75   H   :   -0.000016780    0.000002611    0.000006109

Difference to translation invariance:
           :    0.0001121939    0.0004037028    0.0004082436

Difference to rotation invariance:
           :    0.0007570330   -0.0018165721   -0.0035282752

Norm of the cartesian gradient     ...    0.0009287861
RMS gradient                       ...    0.0000619191
MAX gradient                       ...    0.0003234799

-------
TIMINGS
-------

Total SCF gradient time            ...       91.825 sec

One electron gradient       ....       0.961 sec  (  1.0%)
RI-J Coulomb gradient       ....       3.735 sec  (  4.1%)
COSX gradient               ....      62.534 sec  ( 68.1%)
XC gradient                 ....       9.697 sec  ( 10.6%)
Point charge gradient       ....       1.622 sec  (  1.8%)

Maximum memory used throughout the entire SCFGRAD-calculation: 413.3 MB
------------------------------------------------------------------------------
                         ORCA GEOMETRY RELAXATION STEP
------------------------------------------------------------------------------

Reading the OPT-File                    .... done
Getting information on internals        .... done
Copying old internal coords+grads       .... done
Making the new internal coordinates     .... (new redundants).... done
Validating the new internal coordinates .... (new redundants).... done
Calculating the B-matrix                .... done
Calculating the G,G- and P matrices     .... done
Transforming gradient to internals      .... done
Projecting the internal gradient        .... done
Number of atoms                         ....  75
Number of internal coordinates          .... 440
Current Energy                          .... -2975.187029469 Eh
Current gradient norm                   ....     0.000928786 Eh/bohr
Maximum allowed component of the step   ....  0.300
Current trust radius                    ....  0.300
Updating the Hessian (BFGS)             .... done
Forming the augmented Hessian           .... done
Diagonalizing the augmented Hessian     .... done
Last element of RFO vector              ....  0.999802210
Lowest eigenvalues of augmented Hessian:
 -0.000010411  0.004311991  0.012555721  0.013632348  0.016838683
Length of the computed step             ....  0.019892161
The final length of the internal step   ....  0.019892161
Converting the step to cartesian space:
 Initial RMS(Int)=    0.0009483216
Transforming coordinates:
 Iter   0:  RMS(Cart)=    0.0128016662 RMS(Int)=    0.2994924799
 Iter   1:  RMS(Cart)=    0.0000343310 RMS(Int)=    0.0000079563
 Iter   2:  RMS(Cart)=    0.0000001950 RMS(Int)=    0.0000000264
 Iter   3:  RMS(Cart)=    0.0000000013 RMS(Int)=    0.0000000003
done
Storing new coordinates                 .... done

                                .--------------------.
          ----------------------|Geometry convergence|-------------------------
          Item                value                   Tolerance       Converged
          ---------------------------------------------------------------------
          Energy change      -0.0000119521            0.0000050000      NO
          RMS gradient        0.0000666617            0.0001000000      YES
          MAX gradient        0.0006997823            0.0003000000      NO
          RMS step            0.0009483216            0.0020000000      YES
          MAX step            0.0081740597            0.0040000000      NO
          ........................................................
          Max(Bonds)      0.0004      Max(Angles)    0.11
          Max(Dihed)        0.47      Max(Improp)    0.00
          ---------------------------------------------------------------------

The optimization has not yet converged - more geometry cycles are needed


    ---------------------------------------------------------------------------
                         Redundant Internal Coordinates
                            (Angstroem and degrees)

        Definition                    Value    dE/dq     Step     New-Value
    ----------------------------------------------------------------------------
     1. B(C   1,C   0)                1.3848 -0.000015  0.0000    1.3848   
     2. B(C   2,C   1)                1.3795  0.000004 -0.0000    1.3795   
     3. B(C   3,C   2)                1.3917 -0.000011 -0.0000    1.3917   
     4. B(C   4,C   3)                1.3900  0.000011 -0.0000    1.3900   
     5. B(C   5,C   4)                1.3812 -0.000004  0.0000    1.3813   
     6. B(C   5,C   0)                1.3836  0.000011 -0.0000    1.3836   
     7. B(S   6,C   3)                1.7566 -0.000008  0.0000    1.7566   
     8. B(N   7,C   0)                1.4210 -0.000010  0.0000    1.4210   
     9. B(C   8,N   7)                1.3700 -0.000064  0.0001    1.3701   
    10. B(C   9,C   8)                1.4122  0.000029 -0.0000    1.4122   
    11. B(C  10,C   9)                1.4394  0.000010  0.0000    1.4395   
    12. B(C  11,C  10)                1.4024 -0.000009  0.0000    1.4024   
    13. B(C  11,N   7)                1.3863  0.000027 -0.0001    1.3862   
    14. B(C  12,C   9)                1.3843  0.000022 -0.0000    1.3842   
    15. B(C  13,C  12)                1.3788  0.000033 -0.0000    1.3787   
    16. B(C  14,C  13)                1.3923 -0.000017  0.0000    1.3923   
    17. B(C  15,C   8)                1.3885 -0.000003 -0.0000    1.3885   
    18. B(C  15,C  14)                1.3786 -0.000003  0.0000    1.3786   
    19. B(C  16,C  11)                1.3859 -0.000015 -0.0000    1.3859   
    20. B(C  17,C  16)                1.3776 -0.000027  0.0000    1.3776   
    21. B(C  18,C  17)                1.3973 -0.000006 -0.0000    1.3973   
    22. B(C  19,C  18)                1.3789  0.000069 -0.0000    1.3789   
    23. B(C  19,C  10)                1.3878  0.000025  0.0000    1.3878   
    24. B(N  20,C  13)                1.4463  0.000008  0.0000    1.4463   
    25. B(C  21,N  20)                1.3824  0.000004  0.0000    1.3825   
    26. B(C  22,C  21)                1.4075 -0.000001  0.0000    1.4075   
    27. B(S  23,C  22)                1.7143  0.000022 -0.0000    1.7143   
    28. B(C  24,S  23)                1.7143  0.000023 -0.0000    1.7142   
    29. B(C  25,C  24)                1.4073 -0.000038  0.0001    1.4074   
    30. B(C  25,N  20)                1.3822 -0.000034  0.0000    1.3822   
    31. B(N  26,C  18)                1.4238  0.000011  0.0000    1.4238   
    32. B(C  27,N  26)                1.4102  0.000383 -0.0004    1.4098   
    33. B(C  28,C  27)                1.3960  0.000130 -0.0002    1.3958   
    34. B(S  29,C  28)                1.7568  0.000030 -0.0001    1.7567   
    35. B(C  30,S  29)                1.7559 -0.000020  0.0001    1.7560   
    36. B(C  31,C  30)                1.3952 -0.000089  0.0001    1.3953   
    37. B(C  31,N  26)                1.4114 -0.000145  0.0001    1.4116   
    38. B(C  32,C  21)                1.4064  0.000017 -0.0000    1.4064   
    39. B(C  33,C  32)                1.3674  0.000001 -0.0000    1.3674   
    40. B(C  34,C  33)                1.3979  0.000003 -0.0000    1.3978   
    41. B(C  35,C  34)                1.3672 -0.000001 -0.0000    1.3672   
    42. B(C  35,C  22)                1.3986 -0.000000 -0.0000    1.3986   
    43. B(C  36,C  24)                1.3985  0.000009 -0.0000    1.3985   
    44. B(C  37,C  36)                1.3672  0.000005 -0.0000    1.3671   
    45. B(C  38,C  37)                1.3978 -0.000013  0.0000    1.3978   
    46. B(C  39,C  38)                1.3674  0.000005 -0.0000    1.3674   
    47. B(C  39,C  25)                1.4063 -0.000017  0.0000    1.4063   
    48. B(C  40,C  30)                1.3834 -0.000001  0.0000    1.3834   
    49. B(C  41,C  40)                1.3835  0.000056 -0.0000    1.3835   
    50. B(C  42,C  41)                1.3805  0.000019 -0.0000    1.3805   
    51. B(C  43,C  42)                1.3846 -0.000029  0.0000    1.3846   
    52. B(C  43,C  31)                1.3909 -0.000062  0.0001    1.3910   
    53. B(C  44,C  27)                1.3906  0.000126 -0.0001    1.3905   
    54. B(C  45,C  44)                1.3848 -0.000004 -0.0000    1.3848   
    55. B(C  46,C  45)                1.3804 -0.000096  0.0001    1.3805   
    56. B(C  47,C  46)                1.3833 -0.000092  0.0001    1.3834   
    57. B(C  47,C  28)                1.3833  0.000013 -0.0000    1.3833   
    58. B(H  48,C   1)                1.0817  0.000000  0.0000    1.0817   
    59. B(H  49,C   2)                1.0818  0.000001  0.0000    1.0818   
    60. B(H  50,C   4)                1.0813 -0.000002 -0.0000    1.0813   
    61. B(H  51,C   5)                1.0818 -0.000001 -0.0000    1.0818   
    62. B(H  52,S   6)                1.3377 -0.000003  0.0000    1.3377   
    63. B(H  53,C  12)                1.0822  0.000000  0.0000    1.0822   
    64. B(H  54,C  14)                1.0816 -0.000001 -0.0000    1.0816   
    65. B(H  55,C  15)                1.0804  0.000004  0.0000    1.0804   
    66. B(H  56,C  16)                1.0804 -0.000001 -0.0000    1.0804   
    67. B(H  57,C  17)                1.0811  0.000007 -0.0000    1.0811   
    68. B(H  58,C  19)                1.0820 -0.000013  0.0000    1.0820   
    69. B(H  59,C  32)                1.0768 -0.000004  0.0000    1.0768   
    70. B(H  60,C  33)                1.0808 -0.000002  0.0000    1.0808   
    71. B(H  61,C  34)                1.0805  0.000000  0.0000    1.0805   
    72. B(H  62,C  35)                1.0820  0.000002 -0.0000    1.0820   
    73. B(H  63,C  36)                1.0820  0.000001 -0.0000    1.0820   
    74. B(H  64,C  37)                1.0805  0.000000 -0.0000    1.0805   
    75. B(H  65,C  38)                1.0808  0.000001  0.0000    1.0808   
    76. B(H  66,C  39)                1.0769  0.000008 -0.0000    1.0769   
    77. B(H  67,C  40)                1.0820  0.000004 -0.0000    1.0819   
    78. B(H  68,C  41)                1.0808 -0.000003  0.0000    1.0808   
    79. B(H  69,C  42)                1.0816 -0.000009  0.0000    1.0816   
    80. B(H  70,C  43)                1.0784  0.000063 -0.0001    1.0783   
    81. B(H  71,C  44)                1.0782 -0.000132  0.0002    1.0783   
    82. B(H  72,C  45)                1.0816  0.000004 -0.0000    1.0816   
    83. B(H  73,C  46)                1.0808  0.000003 -0.0000    1.0808   
    84. B(H  74,C  47)                1.0819 -0.000011  0.0000    1.0819   
    85. A(C   5,C   0,N   7)          120.17 -0.000088    0.02    120.19   
    86. A(C   1,C   0,N   7)          119.93  0.000077   -0.02    119.91   
    87. A(C   1,C   0,C   5)          119.90  0.000012   -0.00    119.89   
    88. A(C   0,C   1,H  48)          119.67  0.000008   -0.00    119.67   
    89. A(C   2,C   1,H  48)          120.26 -0.000001   -0.00    120.26   
    90. A(C   0,C   1,C   2)          120.06 -0.000007    0.00    120.07   
    91. A(C   3,C   2,H  49)          119.90 -0.000001    0.00    119.90   
    92. A(C   1,C   2,C   3)          120.41  0.000002   -0.00    120.41   
    93. A(C   1,C   2,H  49)          119.69 -0.000001    0.00    119.69   
    94. A(C   4,C   3,S   6)          123.17  0.000003    0.00    123.17   
    95. A(C   2,C   3,C   4)          119.17  0.000006   -0.00    119.16   
    96. A(C   2,C   3,S   6)          117.66 -0.000008    0.00    117.66   
    97. A(C   3,C   4,H  50)          120.26  0.000005   -0.00    120.26   
    98. A(C   5,C   4,H  50)          119.42  0.000001   -0.00    119.42   
    99. A(C   3,C   4,C   5)          120.31 -0.000006    0.00    120.32   
   100. A(C   0,C   5,H  51)          119.68 -0.000005    0.00    119.68   
   101. A(C   4,C   5,H  51)          120.17  0.000011   -0.00    120.17   
   102. A(C   0,C   5,C   4)          120.14 -0.000007   -0.00    120.14   
   103. A(C   3,S   6,H  52)           97.02 -0.000003    0.00     97.02   
   104. A(C   0,N   7,C  11)          125.44  0.000053   -0.01    125.43   
   105. A(C   0,N   7,C   8)          125.95 -0.000064    0.02    125.96   
   106. A(C   8,N   7,C  11)          108.61  0.000011   -0.00    108.61   
   107. A(N   7,C   8,C   9)          109.13  0.000014   -0.00    109.12   
   108. A(N   7,C   8,C  15)          129.11 -0.000031    0.01    129.11   
   109. A(C   9,C   8,C  15)          121.77  0.000018   -0.00    121.76   
   110. A(C   8,C   9,C  10)          106.61 -0.000021    0.00    106.61   
   111. A(C  10,C   9,C  12)          133.84  0.000047   -0.01    133.83   
   112. A(C   8,C   9,C  12)          119.55 -0.000027    0.00    119.56   
   113. A(C   9,C  10,C  11)          106.38  0.000010   -0.00    106.38   
   114. A(C   9,C  10,C  19)          133.78 -0.000040    0.01    133.79   
   115. A(C  11,C  10,C  19)          119.82  0.000030   -0.01    119.81   
   116. A(C  10,C  11,C  16)          121.78 -0.000020    0.01    121.78   
   117. A(N   7,C  11,C  16)          128.95  0.000034   -0.01    128.93   
   118. A(N   7,C  11,C  10)          109.27 -0.000014    0.00    109.27   
   119. A(C  13,C  12,H  53)          120.53 -0.000015    0.00    120.53   
   120. A(C   9,C  12,H  53)          121.35  0.000032   -0.01    121.35   
   121. A(C   9,C  12,C  13)          118.12 -0.000018    0.00    118.12   
   122. A(C  14,C  13,N  20)          118.72 -0.000028    0.00    118.72   
   123. A(C  12,C  13,C  14)          122.37  0.000044   -0.01    122.36   
   124. A(C  12,C  13,N  20)          118.91 -0.000017    0.01    118.92   
   125. A(C  15,C  14,H  54)          120.13  0.000024   -0.01    120.12   
   126. A(C  13,C  14,H  54)          119.57  0.000012   -0.00    119.57   
   127. A(C  13,C  14,C  15)          120.30 -0.000036    0.01    120.31   
   128. A(C   8,C  15,C  14)          117.89  0.000019   -0.00    117.88   
   129. A(C   8,C  15,H  55)          121.16 -0.000036    0.01    121.17   
   130. A(C  14,C  15,H  55)          120.95  0.000017   -0.00    120.95   
   131. A(C  17,C  16,H  56)          121.23 -0.000024    0.00    121.23   
   132. A(C  11,C  16,C  17)          117.33  0.000001    0.00    117.33   
   133. A(C  11,C  16,H  56)          121.45  0.000024   -0.01    121.44   
   134. A(C  18,C  17,H  57)          118.00 -0.000037    0.01    118.01   
   135. A(C  16,C  17,H  57)          120.25 -0.000019    0.00    120.25   
   136. A(C  16,C  17,C  18)          121.75  0.000057   -0.01    121.74   
   137. A(C  19,C  18,N  26)          121.18  0.000111   -0.00    121.17   
   138. A(C  17,C  18,N  26)          118.28 -0.000058    0.00    118.28   
   139. A(C  17,C  18,C  19)          120.52 -0.000055    0.01    120.53   
   140. A(C  10,C  19,H  58)          121.47 -0.000047    0.01    121.48   
   141. A(C  18,C  19,H  58)          119.72  0.000059   -0.01    119.71   
   142. A(C  10,C  19,C  18)          118.80 -0.000012   -0.00    118.80   
   143. A(C  21,N  20,C  25)          124.87  0.000024   -0.01    124.87   
   144. A(C  13,N  20,C  25)          117.64  0.000004   -0.00    117.63   
   145. A(C  13,N  20,C  21)          117.49 -0.000028    0.01    117.50   
   146. A(C  22,C  21,C  32)          117.80  0.000023   -0.00    117.80   
   147. A(N  20,C  21,C  22)          122.37 -0.000018    0.00    122.37   
   148. A(N  20,C  21,C  32)          119.83 -0.000004    0.00    119.83   
   149. A(S  23,C  22,C  35)          115.92  0.000019   -0.00    115.91   
   150. A(C  21,C  22,C  35)          120.52 -0.000020    0.00    120.52   
   151. A(C  21,C  22,S  23)          123.56  0.000001    0.00    123.56   
   152. A(C  22,S  23,C  24)          103.22 -0.000013    0.00    103.22   
   153. A(C  25,C  24,C  36)          120.52 -0.000032    0.01    120.52   
   154. A(S  23,C  24,C  36)          115.92  0.000024   -0.00    115.91   
   155. A(S  23,C  24,C  25)          123.57  0.000008   -0.00    123.57   
   156. A(N  20,C  25,C  24)          122.39 -0.000002    0.00    122.39   
   157. A(C  24,C  25,C  39)          117.81  0.000037   -0.01    117.80   
   158. A(N  20,C  25,C  39)          119.81 -0.000035    0.00    119.81   
   159. A(C  27,N  26,C  31)          121.08 -0.000035    0.01    121.09   
   160. A(C  18,N  26,C  31)          117.27 -0.000670    0.11    117.39   
   161. A(C  18,N  26,C  27)          118.76  0.000700   -0.09    118.66   
   162. A(N  26,C  27,C  28)          119.97 -0.000181    0.02    119.99   
   163. A(C  28,C  27,C  44)          118.12 -0.000181    0.02    118.15   
   164. A(N  26,C  27,C  44)          121.90  0.000361   -0.04    121.85   
   165. A(C  27,C  28,S  29)          120.31  0.000088   -0.01    120.30   
   166. A(S  29,C  28,C  47)          118.93 -0.000127    0.02    118.95   
   167. A(C  27,C  28,C  47)          120.56  0.000039   -0.00    120.55   
   168. A(C  28,S  29,C  30)           99.21  0.000009    0.01     99.22   
   169. A(S  29,C  30,C  31)          120.13 -0.000049    0.01    120.14   
   170. A(C  31,C  30,C  40)          120.55 -0.000059    0.01    120.56   
   171. A(S  29,C  30,C  40)          119.16  0.000106   -0.02    119.14   
   172. A(N  26,C  31,C  30)          120.25  0.000159   -0.02    120.22   
   173. A(C  30,C  31,C  43)          118.20  0.000138   -0.02    118.19   
   174. A(N  26,C  31,C  43)          121.54 -0.000297    0.04    121.58   
   175. A(C  21,C  32,C  33)          120.79 -0.000012    0.00    120.80   
   176. A(C  33,C  32,H  59)          119.82  0.000010   -0.00    119.81   
   177. A(C  21,C  32,H  59)          119.39  0.000002    0.00    119.39   
   178. A(C  34,C  33,H  60)          119.83  0.000010   -0.00    119.83   
   179. A(C  32,C  33,H  60)          119.22 -0.000002    0.00    119.22   
   180. A(C  32,C  33,C  34)          120.95 -0.000008    0.00    120.95   
   181. A(C  33,C  34,H  61)          120.36 -0.000006    0.00    120.36   
   182. A(C  33,C  34,C  35)          119.48  0.000012   -0.00    119.48   
   183. A(C  35,C  34,H  61)          120.15 -0.000007    0.00    120.16   
   184. A(C  34,C  35,H  62)          120.56 -0.000002    0.00    120.56   
   185. A(C  22,C  35,H  62)          118.99 -0.000004    0.00    118.99   
   186. A(C  22,C  35,C  34)          120.45  0.000005   -0.00    120.45   
   187. A(C  37,C  36,H  63)          120.57 -0.000008    0.00    120.57   
   188. A(C  24,C  36,H  63)          118.98  0.000000    0.00    118.98   
   189. A(C  24,C  36,C  37)          120.45  0.000008   -0.00    120.45   
   190. A(C  38,C  37,H  64)          120.37 -0.000004    0.00    120.37   
   191. A(C  36,C  37,H  64)          120.15 -0.000006    0.00    120.15   
   192. A(C  36,C  37,C  38)          119.48  0.000010   -0.00    119.48   
   193. A(C  39,C  38,H  65)          119.23  0.000004   -0.00    119.23   
   194. A(C  37,C  38,H  65)          119.83  0.000015   -0.00    119.82   
   195. A(C  37,C  38,C  39)          120.94 -0.000019    0.00    120.95   
   196. A(C  38,C  39,H  66)          119.86  0.000012   -0.00    119.86   
   197. A(C  25,C  39,H  66)          119.34 -0.000009    0.00    119.34   
   198. A(C  25,C  39,C  38)          120.80 -0.000004    0.00    120.80   
   199. A(C  41,C  40,H  67)          120.40  0.000022   -0.00    120.40   
   200. A(C  30,C  40,H  67)          118.87  0.000011   -0.00    118.87   
   201. A(C  30,C  40,C  41)          120.72 -0.000033    0.00    120.72   
   202. A(C  42,C  41,H  68)          120.79 -0.000017    0.00    120.80   
   203. A(C  40,C  41,H  68)          120.15 -0.000014    0.00    120.15   
   204. A(C  40,C  41,C  42)          119.06  0.000032   -0.00    119.05   
   205. A(C  41,C  42,H  69)          120.25  0.000016   -0.00    120.24   
   206. A(C  41,C  42,C  43)          120.55 -0.000017    0.00    120.55   
   207. A(C  43,C  42,H  69)          119.21  0.000001    0.00    119.21   
   208. A(C  31,C  43,C  42)          120.86 -0.000060    0.01    120.87   
   209. A(C  42,C  43,H  70)          119.21  0.000057   -0.01    119.20   
   210. A(C  31,C  43,H  70)          119.92  0.000004   -0.00    119.92   
   211. A(C  27,C  44,C  45)          120.91  0.000071   -0.01    120.90   
   212. A(C  45,C  44,H  71)          119.10 -0.000165    0.03    119.13   
   213. A(C  27,C  44,H  71)          119.97  0.000093   -0.02    119.96   
   214. A(C  44,C  45,C  46)          120.57  0.000043   -0.00    120.57   
   215. A(C  46,C  45,H  72)          120.25 -0.000024    0.00    120.25   
   216. A(C  44,C  45,H  72)          119.17 -0.000020    0.00    119.18   
   217. A(C  45,C  46,C  47)          119.00 -0.000038    0.01    119.01   
   218. A(C  47,C  46,H  73)          120.16  0.000009   -0.00    120.16   
   219. A(C  45,C  46,H  73)          120.83  0.000028   -0.01    120.83   
   220. A(C  28,C  47,C  46)          120.77  0.000066   -0.01    120.76   
   221. A(C  46,C  47,H  74)          120.37 -0.000022    0.00    120.37   
   222. A(C  28,C  47,H  74)          118.84 -0.000043    0.01    118.85   
   223. D(H  48,C   1,C   0,C   5)   -179.73  0.000003   -0.01   -179.73   
   224. D(C   2,C   1,C   0,C   5)     -0.14 -0.000004    0.00     -0.14   
   225. D(C   2,C   1,C   0,N   7)    179.17 -0.000008   -0.01    179.17   
   226. D(H  48,C   1,C   0,N   7)     -0.41 -0.000001   -0.02     -0.43   
   227. D(C   3,C   2,C   1,H  48)   -179.88 -0.000005    0.01   -179.87   
   228. D(C   3,C   2,C   1,C   0)      0.53  0.000002    0.00      0.53   
   229. D(H  49,C   2,C   1,C   0)   -179.54  0.000006   -0.01   -179.55   
   230. D(H  49,C   2,C   1,H  48)      0.05 -0.000001   -0.00      0.04   
   231. D(S   6,C   3,C   2,C   1)    179.65  0.000002   -0.00    179.65   
   232. D(S   6,C   3,C   2,H  49)     -0.27 -0.000002    0.01     -0.26   
   233. D(C   4,C   3,C   2,C   1)     -0.31 -0.000001    0.00     -0.31   
   234. D(C   4,C   3,C   2,H  49)    179.77 -0.000005    0.01    179.78   
   235. D(C   5,C   4,C   3,S   6)    179.73 -0.000002   -0.00    179.73   
   236. D(H  50,C   4,C   3,C   2)   -179.65  0.000005   -0.01   -179.66   
   237. D(C   5,C   4,C   3,C   2)     -0.31  0.000002   -0.01     -0.32   
   238. D(H  50,C   4,C   3,S   6)      0.39  0.000002   -0.01      0.38   
   239. D(C   4,C   5,C   0,C   1)     -0.48  0.000005   -0.01     -0.48   
   240. D(H  51,C   5,C   4,H  50)      0.48  0.000000    0.00      0.48   
   241. D(C   0,C   5,C   4,H  50)   -179.95 -0.000007    0.01   -179.94   
   242. D(C   4,C   5,C   0,N   7)   -179.79  0.000008    0.00   -179.79   
   243. D(H  51,C   5,C   0,C   1)    179.09 -0.000002    0.01    179.10   
   244. D(H  51,C   5,C   0,N   7)     -0.22  0.000000    0.02     -0.20   
   245. D(C   0,C   5,C   4,C   3)      0.70 -0.000004    0.01      0.71   
   246. D(H  51,C   5,C   4,C   3)   -178.87  0.000003   -0.00   -178.87   
   247. D(H  52,S   6,C   3,C   2)    177.31 -0.000007    0.08    177.39   
   248. D(H  52,S   6,C   3,C   4)     -2.72 -0.000004    0.07     -2.65   
   249. D(C  11,N   7,C   0,C   5)    104.66 -0.000054    0.16    104.82   
   250. D(C  11,N   7,C   0,C   1)    -74.65 -0.000051    0.17    -74.48   
   251. D(C   8,N   7,C   0,C   5)    -75.54 -0.000009    0.05    -75.48   
   252. D(C   8,N   7,C   0,C   1)    105.15 -0.000006    0.06    105.21   
   253. D(C   9,C   8,N   7,C   0)   -179.25 -0.000023    0.10   -179.15   
   254. D(C   9,C   8,N   7,C  11)      0.58  0.000016    0.01      0.59   
   255. D(C  15,C   8,N   7,C  11)   -179.68 -0.000006    0.06   -179.62   
   256. D(C  15,C   8,N   7,C   0)      0.48 -0.000045    0.16      0.64   
   257. D(C  12,C   9,C   8,C  15)     -0.90 -0.000002    0.02     -0.88   
   258. D(C  12,C   9,C   8,N   7)    178.86 -0.000022    0.07    178.93   
   259. D(C  10,C   9,C   8,N   7)     -0.67  0.000021   -0.05     -0.72   
   260. D(C  10,C   9,C   8,C  15)    179.57  0.000042   -0.10    179.47   
   261. D(C  19,C  10,C   9,C  12)      2.74  0.000017   -0.09      2.65   
   262. D(C  19,C  10,C   9,C   8)   -177.82 -0.000035    0.05   -177.77   
   263. D(C  11,C  10,C   9,C  12)   -178.93  0.000003   -0.07   -179.00   
   264. D(C  11,C  10,C   9,C   8)      0.50 -0.000050    0.07      0.57   
   265. D(C  16,C  11,C  10,C   9)   -179.34  0.000018    0.02   -179.31   
   266. D(C  16,C  11,C  10,C  19)     -0.73  0.000005    0.04     -0.69   
   267. D(N   7,C  11,C  10,C  19)    178.44  0.000047   -0.05    178.39   
   268. D(C  16,C  11,N   7,C   8)    178.84 -0.000003   -0.06    178.78   
   269. D(C  10,C  11,N   7,C   0)    179.58 -0.000010   -0.06    179.52   
   270. D(C  16,C  11,N   7,C   0)     -1.33  0.000036   -0.15     -1.48   
   271. D(C  10,C  11,N   7,C   8)     -0.25 -0.000049    0.04     -0.22   
   272. D(N   7,C  11,C  10,C   9)     -0.16  0.000061   -0.06     -0.23   
   273. D(H  53,C  12,C   9,C  10)      0.07 -0.000050    0.11      0.19   
   274. D(C  13,C  12,C   9,C  10)   -179.80 -0.000048    0.15   -179.65   
   275. D(C  13,C  12,C   9,C   8)      0.82  0.000010   -0.01      0.81   
   276. D(H  53,C  12,C   9,C   8)   -179.30  0.000008   -0.04   -179.35   
   277. D(N  20,C  13,C  12,H  53)      0.43  0.000009   -0.04      0.39   
   278. D(N  20,C  13,C  12,C   9)   -179.69  0.000008   -0.07   -179.77   
   279. D(C  14,C  13,C  12,H  53)   -179.96 -0.000009    0.03   -179.93   
   280. D(C  14,C  13,C  12,C   9)     -0.09 -0.000010   -0.01     -0.09   
   281. D(H  54,C  14,C  13,N  20)     -0.47 -0.000014    0.06     -0.41   
   282. D(H  54,C  14,C  13,C  12)    179.92  0.000004   -0.01    179.91   
   283. D(C  15,C  14,C  13,N  20)    178.99 -0.000016    0.07    179.06   
   284. D(C  15,C  14,C  13,C  12)     -0.62  0.000001    0.00     -0.62   
   285. D(C  14,C  15,C   8,N   7)   -179.50  0.000018   -0.08   -179.59   
   286. D(H  55,C  15,C  14,H  54)     -0.03 -0.000007    0.01     -0.01   
   287. D(C   8,C  15,C  14,H  54)   -180.00  0.000005    0.02   -179.98   
   288. D(C   8,C  15,C  14,C  13)      0.54  0.000007    0.01      0.55   
   289. D(H  55,C  15,C   8,C   9)   -179.77  0.000005   -0.02   -179.78   
   290. D(H  55,C  15,C  14,C  13)   -179.49 -0.000005    0.01   -179.48   
   291. D(H  55,C  15,C   8,N   7)      0.53  0.000029   -0.08      0.45   
   292. D(C  14,C  15,C   8,C   9)      0.20 -0.000007   -0.02      0.18   
   293. D(H  56,C  16,C  11,C  10)    179.96  0.000008   -0.03    179.93   
   294. D(H  56,C  16,C  11,N   7)      0.97 -0.000043    0.08      1.05   
   295. D(C  17,C  16,C  11,C  10)      0.44 -0.000005    0.02      0.46   
   296. D(C  17,C  16,C  11,N   7)   -178.55 -0.000056    0.13   -178.43   
   297. D(H  57,C  17,C  16,H  56)      0.02  0.000004    0.00      0.03   
   298. D(H  57,C  17,C  16,C  11)    179.55  0.000018   -0.04    179.50   
   299. D(C  18,C  17,C  16,H  56)   -179.43 -0.000047    0.06   -179.36   
   300. D(C  18,C  17,C  16,C  11)      0.09 -0.000034    0.02      0.11   
   301. D(N  26,C  18,C  17,H  57)     -1.65 -0.000066    0.16     -1.49   
   302. D(N  26,C  18,C  17,C  16)    177.81 -0.000015    0.10    177.91   
   303. D(C  19,C  18,C  17,H  57)   -179.81  0.000023   -0.06   -179.87   
   304. D(C  19,C  18,C  17,C  16)     -0.35  0.000074   -0.11     -0.46   
   305. D(H  58,C  19,C  18,N  26)      1.06 -0.000003   -0.05      1.01   
   306. D(H  58,C  19,C  18,C  17)    179.16 -0.000098    0.18    179.34   
   307. D(C  10,C  19,C  18,N  26)   -178.04  0.000022   -0.05   -178.10   
   308. D(C  10,C  19,C  18,C  17)      0.06 -0.000072    0.17      0.23   
   309. D(H  58,C  19,C  10,C  11)   -178.63  0.000059   -0.14   -178.77   
   310. D(H  58,C  19,C  10,C   9)     -0.48  0.000043   -0.12     -0.60   
   311. D(C  18,C  19,C  10,C  11)      0.46  0.000034   -0.13      0.33   
   312. D(C  18,C  19,C  10,C   9)    178.61  0.000018   -0.11    178.50   
   313. D(C  25,N  20,C  13,C  14)     95.80 -0.000028    0.13     95.93   
   314. D(C  25,N  20,C  13,C  12)    -84.58 -0.000045    0.20    -84.38   
   315. D(C  21,N  20,C  13,C  14)    -84.03 -0.000020    0.13    -83.91   
   316. D(C  21,N  20,C  13,C  12)     95.59 -0.000037    0.19     95.78   
   317. D(C  32,C  21,N  20,C  25)   -179.98  0.000027   -0.06   -180.04   
   318. D(C  32,C  21,N  20,C  13)     -0.16  0.000019   -0.05     -0.22   
   319. D(C  22,C  21,N  20,C  25)     -0.02  0.000005   -0.02     -0.03   
   320. D(C  22,C  21,N  20,C  13)    179.80 -0.000004   -0.01    179.79   
   321. D(C  35,C  22,C  21,C  32)      0.82 -0.000004    0.00      0.82   
   322. D(C  35,C  22,C  21,N  20)   -179.15  0.000018   -0.04   -179.18   
   323. D(S  23,C  22,C  21,C  32)   -178.67 -0.000028    0.05   -178.62   
   324. D(S  23,C  22,C  21,N  20)      1.37 -0.000006    0.01      1.37   
   325. D(C  24,S  23,C  22,C  35)    179.21 -0.000026    0.07    179.28   
   326. D(C  24,S  23,C  22,C  21)     -1.28 -0.000004    0.03     -1.25   
   327. D(C  36,C  24,S  23,C  22)   -179.51  0.000022   -0.08   -179.58   
   328. D(C  25,C  24,S  23,C  22)      0.12  0.000015   -0.07      0.05   
   329. D(C  39,C  25,C  24,C  36)      0.72 -0.000013    0.04      0.76   
   330. D(C  39,C  25,C  24,S  23)   -178.89 -0.000006    0.04   -178.86   
   331. D(N  20,C  25,C  24,C  36)   -179.33 -0.000026    0.08   -179.25   
   332. D(N  20,C  25,C  24,S  23)      1.06 -0.000019    0.08      1.14   
   333. D(C  39,C  25,N  20,C  21)    178.71 -0.000005    0.01    178.73   
   334. D(C  24,C  25,N  20,C  21)     -1.24  0.000008   -0.03     -1.27   
   335. D(C  24,C  25,N  20,C  13)    178.94  0.000017   -0.03    178.91   
   336. D(C  39,C  25,N  20,C  13)     -1.11  0.000004    0.01     -1.10   
   337. D(C  31,N  26,C  18,C  19)     83.45 -0.000041   -0.14     83.31   
   338. D(C  31,N  26,C  18,C  17)    -94.69  0.000051   -0.36    -95.06   
   339. D(C  27,N  26,C  18,C  19)    -77.52 -0.000017   -0.25    -77.77   
   340. D(C  27,N  26,C  18,C  17)    104.33  0.000076   -0.47    103.87   
   341. D(C  44,C  27,N  26,C  31)   -149.07 -0.000064    0.10   -148.97   
   342. D(C  44,C  27,N  26,C  18)     11.16 -0.000207    0.23     11.38   
   343. D(C  28,C  27,N  26,C  31)     32.37 -0.000000   -0.01     32.35   
   344. D(C  28,C  27,N  26,C  18)   -167.41 -0.000143    0.11   -167.29   
   345. D(C  47,C  28,C  27,C  44)      2.79  0.000006   -0.05      2.74   
   346. D(C  47,C  28,C  27,N  26)   -178.59 -0.000048    0.06   -178.54   
   347. D(S  29,C  28,C  27,C  44)   -172.07  0.000013   -0.09   -172.17   
   348. D(S  29,C  28,C  27,N  26)      6.54 -0.000041    0.01      6.56   
   349. D(C  30,S  29,C  28,C  27)    -34.70  0.000008    0.01    -34.68   
   350. D(C  30,S  29,C  28,C  47)    150.36  0.000007   -0.03    150.33   
   351. D(C  40,C  30,S  29,C  28)   -150.30  0.000015   -0.05   -150.35   
   352. D(C  31,C  30,S  29,C  28)     34.27  0.000037   -0.04     34.24   
   353. D(C  43,C  31,C  30,C  40)     -2.13  0.000004   -0.03     -2.16   
   354. D(C  43,C  31,C  30,S  29)    173.23 -0.000011   -0.04    173.19   
   355. D(N  26,C  31,C  30,C  40)    178.81 -0.000022    0.05    178.86   
   356. D(N  26,C  31,C  30,S  29)     -5.83 -0.000036    0.04     -5.79   
   357. D(C  43,C  31,N  26,C  27)    148.16 -0.000029    0.08    148.24   
   358. D(C  43,C  31,N  26,C  18)    -12.35 -0.000147   -0.01    -12.36   
   359. D(C  30,C  31,N  26,C  27)    -32.81  0.000002   -0.01    -32.82   
   360. D(C  30,C  31,N  26,C  18)    166.68 -0.000116   -0.09    166.59   
   361. D(H  59,C  32,C  21,C  22)    179.26  0.000014   -0.03    179.24   
   362. D(H  59,C  32,C  21,N  20)     -0.77 -0.000007    0.01     -0.76   
   363. D(C  33,C  32,C  21,C  22)     -0.83  0.000005   -0.01     -0.84   
   364. D(C  33,C  32,C  21,N  20)    179.14 -0.000016    0.03    179.17   
   365. D(H  60,C  33,C  32,H  59)      0.08 -0.000006    0.01      0.10   
   366. D(H  60,C  33,C  32,C  21)   -179.82  0.000003   -0.00   -179.83   
   367. D(C  34,C  33,C  32,H  59)   -179.86 -0.000011    0.02   -179.84   
   368. D(C  34,C  33,C  32,C  21)      0.24 -0.000002    0.00      0.24   
   369. D(H  61,C  34,C  33,H  60)      0.18 -0.000002    0.00      0.18   
   370. D(H  61,C  34,C  33,C  32)   -179.88  0.000003   -0.00   -179.88   
   371. D(C  35,C  34,C  33,H  60)   -179.54 -0.000008    0.01   -179.53   
   372. D(C  35,C  34,C  33,C  32)      0.39 -0.000003    0.01      0.40   
   373. D(H  62,C  35,C  34,H  61)     -0.14  0.000003   -0.00     -0.14   
   374. D(H  62,C  35,C  34,C  33)    179.59  0.000010   -0.01    179.57   
   375. D(C  22,C  35,C  34,H  61)    179.87 -0.000002   -0.00    179.87   
   376. D(C  22,C  35,C  34,C  33)     -0.40  0.000004   -0.01     -0.41   
   377. D(H  62,C  35,C  22,S  23)     -0.68  0.000016   -0.03     -0.71   
   378. D(H  62,C  35,C  22,C  21)    179.80 -0.000006    0.01    179.81   
   379. D(C  34,C  35,C  22,S  23)    179.31  0.000021   -0.03    179.28   
   380. D(C  34,C  35,C  22,C  21)     -0.21 -0.000000    0.00     -0.21   
   381. D(H  63,C  36,C  24,C  25)    179.85  0.000007   -0.01    179.84   
   382. D(H  63,C  36,C  24,S  23)     -0.50  0.000001   -0.01     -0.51   
   383. D(C  37,C  36,C  24,C  25)     -0.24  0.000003   -0.01     -0.26   
   384. D(C  37,C  36,C  24,S  23)    179.40 -0.000004   -0.01    179.39   
   385. D(H  64,C  37,C  36,H  63)     -0.14 -0.000001    0.00     -0.13   
   386. D(H  64,C  37,C  36,C  24)    179.96  0.000003   -0.00    179.96   
   387. D(C  38,C  37,C  36,H  63)    179.61  0.000004   -0.02    179.59   
   388. D(C  38,C  37,C  36,C  24)     -0.29  0.000009   -0.02     -0.32   
   389. D(H  65,C  38,C  37,H  64)      0.17 -0.000001    0.00      0.17   
   390. D(H  65,C  38,C  37,C  36)   -179.57 -0.000006    0.02   -179.55   
   391. D(C  39,C  38,C  37,H  64)   -179.92 -0.000004    0.00   -179.91   
   392. D(C  39,C  38,C  37,C  36)      0.34 -0.000009    0.03      0.37   
   393. D(H  66,C  39,C  38,H  65)      0.06  0.000000   -0.00      0.06   
   394. D(H  66,C  39,C  38,C  37)   -179.85  0.000003   -0.01   -179.86   
   395. D(C  25,C  39,C  38,H  65)   -179.93 -0.000005    0.01   -179.93   
   396. D(C  25,C  39,C  38,C  37)      0.16 -0.000002    0.00      0.16   
   397. D(H  66,C  39,C  25,C  24)    179.33  0.000008   -0.03    179.30   
   398. D(H  66,C  39,C  25,N  20)     -0.63  0.000020   -0.06     -0.69   
   399. D(C  38,C  39,C  25,C  24)     -0.68  0.000013   -0.04     -0.71   
   400. D(C  38,C  39,C  25,N  20)    179.37  0.000026   -0.08    179.29   
   401. D(H  67,C  40,C  30,C  31)   -178.70 -0.000004   -0.00   -178.70   
   402. D(H  67,C  40,C  30,S  29)      5.89  0.000017    0.01      5.90   
   403. D(C  41,C  40,C  30,C  31)      2.68 -0.000014    0.02      2.69   
   404. D(C  41,C  40,C  30,S  29)   -172.73  0.000008    0.03   -172.70   
   405. D(H  68,C  41,C  40,H  67)     -0.05  0.000001    0.01     -0.04   
   406. D(H  68,C  41,C  40,C  30)    178.55  0.000010   -0.01    178.54   
   407. D(C  42,C  41,C  40,H  67)   -179.77 -0.000000    0.02   -179.75   
   408. D(C  42,C  41,C  40,C  30)     -1.17  0.000009   -0.00     -1.17   
   409. D(H  69,C  42,C  41,H  68)     -0.21  0.000005   -0.01     -0.22   
   410. D(H  69,C  42,C  41,C  40)    179.51  0.000006   -0.02    179.50   
   411. D(C  43,C  42,C  41,H  68)    179.46 -0.000001    0.01    179.46   
   412. D(C  43,C  42,C  41,C  40)     -0.82  0.000000   -0.00     -0.83   
   413. D(H  70,C  43,C  42,H  69)     -0.21  0.000021   -0.04     -0.25   
   414. D(H  70,C  43,C  42,C  41)   -179.88  0.000027   -0.05   -179.93   
   415. D(C  31,C  43,C  42,H  69)   -178.99 -0.000013    0.00   -178.99   
   416. D(C  31,C  43,C  42,C  41)      1.34 -0.000007   -0.01      1.33   
   417. D(H  70,C  43,C  31,C  30)   -178.63 -0.000030    0.07   -178.56   
   418. D(H  70,C  43,C  31,N  26)      0.42  0.000000   -0.02      0.40   
   419. D(C  42,C  43,C  31,C  30)      0.14  0.000005    0.02      0.17   
   420. D(C  42,C  43,C  31,N  26)    179.19  0.000036   -0.06    179.13   
   421. D(H  71,C  44,C  27,C  28)    177.79 -0.000062    0.13    177.92   
   422. D(H  71,C  44,C  27,N  26)     -0.80  0.000002    0.02     -0.78   
   423. D(C  45,C  44,C  27,C  28)     -0.83 -0.000012    0.07     -0.76   
   424. D(C  45,C  44,C  27,N  26)   -179.42  0.000052   -0.04   -179.46   
   425. D(H  72,C  45,C  44,H  71)      0.49  0.000036   -0.06      0.43   
   426. D(H  72,C  45,C  44,C  27)    179.12 -0.000010   -0.00    179.12   
   427. D(C  46,C  45,C  44,H  71)   -179.78  0.000048   -0.08   -179.86   
   428. D(C  46,C  45,C  44,C  27)     -1.15  0.000002   -0.03     -1.18   
   429. D(H  73,C  46,C  45,H  72)      0.37  0.000010   -0.01      0.36   
   430. D(H  73,C  46,C  45,C  44)   -179.36 -0.000002    0.01   -179.34   
   431. D(C  47,C  46,C  45,H  72)   -179.10  0.000025   -0.06   -179.16   
   432. D(C  47,C  46,C  45,C  44)      1.17  0.000013   -0.04      1.13   
   433. D(H  74,C  47,C  46,H  73)     -0.21 -0.000001    0.01     -0.20   
   434. D(H  74,C  47,C  46,C  45)    179.27 -0.000016    0.06    179.33   
   435. D(C  28,C  47,C  46,H  73)   -178.67 -0.000002    0.00   -178.67   
   436. D(C  28,C  47,C  46,C  45)      0.80 -0.000017    0.06      0.86   
   437. D(H  74,C  47,C  28,S  29)     -6.38  0.000006    0.02     -6.35   
   438. D(H  74,C  47,C  28,C  27)    178.69  0.000002   -0.02    178.67   
   439. D(C  46,C  47,C  28,S  29)    172.11  0.000008    0.03    172.14   
   440. D(C  46,C  47,C  28,C  27)     -2.82  0.000004   -0.01     -2.84   
    ----------------------------------------------------------------------------

         *************************************************************
         *                GEOMETRY OPTIMIZATION CYCLE   3            *
         *************************************************************
---------------------------------
CARTESIAN COORDINATES (ANGSTROEM)
---------------------------------
  C     -5.214424    0.000723   -0.057213
  C     -5.917654    0.295899    1.098624
  C     -7.296733    0.323746    1.080506
  C     -7.991588    0.045510   -0.092734
  C     -7.278347   -0.254488   -1.247498
  C     -5.897276   -0.269161   -1.229938
  S     -9.746481    0.092236   -0.031875
  N     -3.793574   -0.009643   -0.039109
  C     -2.996849   -1.124221   -0.052640
  C     -1.642840   -0.725597   -0.006809
  C     -1.638309    0.713630    0.019112
  C     -2.982306    1.113652    0.001351
  C     -0.647972   -1.687905    0.011753
  C     -1.025067   -3.013309   -0.032890
  C     -2.359199   -3.406900   -0.093376
  C     -3.363633   -2.462582   -0.097976
  C     -3.346003    2.451011    0.004483
  C     -2.331030    3.382464    0.016042
  C     -0.986015    3.004022    0.022037
  C     -0.633510    1.670935    0.026010
  N      0.000081   -4.033203   -0.009270
  C      0.311867   -4.596709    1.214015
  C      1.289194   -5.599805    1.354550
  S      2.218503   -6.207284    0.048355
  C      1.615553   -5.337043   -1.299851
  C      0.592593   -4.374572   -1.210486
  N      0.002935    4.027730   -0.011671
  C      0.690430    4.343236    1.178031
  C      1.464352    5.502630    1.250139
  S      1.451765    6.660329   -0.071056
  C      1.280996    5.547455   -1.418557
  C      0.528718    4.381370   -1.273034
  C     -0.358908   -4.167523    2.373221
  C     -0.078259   -4.723171    3.590735
  C      0.885146   -5.728042    3.717479
  C      1.561761   -6.155099    2.608884
  C      2.198754   -5.641189   -2.534052
  C      1.779362   -5.011083   -3.672548
  C      0.755774   -4.062236   -3.596391
  C      0.173701   -3.750342   -2.398990
  C      1.819268    5.888574   -2.646428
  C      1.576901    5.111296   -3.764936
  C      0.807765    3.972170   -3.635910
  C      0.299731    3.602017   -2.402205
  C      0.602946    3.541516    2.310727
  C      1.277908    3.876144    3.472673
  C      2.073267    5.003334    3.522733
  C      2.167879    5.807970    2.401377
  H     -5.380058    0.510570    2.012401
  H     -7.839733    0.562221    1.985267
  H     -7.800119   -0.468118   -2.170140
  H     -5.344268   -0.484976   -2.134319
  H     -9.961812   -0.162676   -1.327281
  H      0.398349   -1.415177    0.057298
  H     -2.603948   -4.459904   -0.128174
  H     -4.402542   -2.756706   -0.136308
  H     -4.383269    2.752971   -0.010321
  H     -2.561172    4.438810    0.010864
  H      0.412072    1.392651    0.019831
  H     -1.102748   -3.392623    2.297046
  H     -0.611156   -4.375930    4.464581
  H      1.098055   -6.161801    4.683904
  H      2.315851   -6.926970    2.687997
  H      2.985085   -6.383349   -2.573689
  H      2.233698   -5.249346   -4.623448
  H      0.414864   -3.566096   -4.494024
  H     -0.615170   -3.018286   -2.360862
  H      2.415802    6.787912   -2.723539
  H      1.982657    5.399251   -4.724380
  H      0.599411    3.354826   -4.499267
  H     -0.297440    2.707452   -2.326125
  H     -0.013810    2.657068    2.298056
  H      1.178677    3.240136    4.341920
  H      2.610277    5.262682    4.424097
  H      2.776265    6.702456    2.419627

----------------------------
CARTESIAN COORDINATES (A.U.)
----------------------------
  NO LB      ZA    FRAG     MASS         X           Y           Z
   0 C     6.0000    0    12.011   -9.853833    0.001367   -0.108118
   1 C     6.0000    0    12.011  -11.182745    0.559169    2.076099
   2 C     6.0000    0    12.011  -13.788827    0.611791    2.041861
   3 C     6.0000    0    12.011  -15.101912    0.086002   -0.175241
   4 C     6.0000    0    12.011  -13.754083   -0.480912   -2.357430
   5 C     6.0000    0    12.011  -11.144237   -0.508641   -2.324246
   6 S    16.0000    0    32.060  -18.418180    0.174300   -0.060235
   7 N     7.0000    0    14.007   -7.168816   -0.018224   -0.073906
   8 C     6.0000    0    12.011   -5.663224   -2.124469   -0.099475
   9 C     6.0000    0    12.011   -3.104519   -1.371179   -0.012867
  10 C     6.0000    0    12.011   -3.095955    1.348565    0.036117
  11 C     6.0000    0    12.011   -5.635742    2.104498    0.002553
  12 C     6.0000    0    12.011   -1.224489   -3.189679    0.022211
  13 C     6.0000    0    12.011   -1.937095   -5.694329   -0.062152
  14 C     6.0000    0    12.011   -4.458241   -6.438109   -0.176455
  15 C     6.0000    0    12.011   -6.356346   -4.653605   -0.185149
  16 C     6.0000    0    12.011   -6.323029    4.631739    0.008472
  17 C     6.0000    0    12.011   -4.405008    6.391930    0.030315
  18 C     6.0000    0    12.011   -1.863298    5.676779    0.041643
  19 C     6.0000    0    12.011   -1.197161    3.157609    0.049151
  20 N     7.0000    0    14.007    0.000154   -7.621648   -0.017518
  21 C     6.0000    0    12.011    0.589342   -8.686522    2.294155
  22 C     6.0000    0    12.011    2.436224  -10.582098    2.559728
  23 S    16.0000    0    32.060    4.192363  -11.730067    0.091378
  24 C     6.0000    0    12.011    3.052953  -10.085550   -2.456363
  25 C     6.0000    0    12.011    1.119838   -8.266742   -2.287487
  26 N     7.0000    0    14.007    0.005546    7.611307   -0.022055
  27 C     6.0000    0    12.011    1.304724    8.207526    2.226155
  28 C     6.0000    0    12.011    2.767224   10.398464    2.362420
  29 S    16.0000    0    32.060    2.743438   12.586198   -0.134276
  30 C     6.0000    0    12.011    2.420732   10.483170   -2.680684
  31 C     6.0000    0    12.011    0.999132    8.279589   -2.405686
  32 C     6.0000    0    12.011   -0.678238   -7.875478    4.484737
  33 C     6.0000    0    12.011   -0.147887   -8.925499    6.785505
  34 C     6.0000    0    12.011    1.672684  -10.824431    7.025018
  35 C     6.0000    0    12.011    2.951301  -11.631452    4.930077
  36 C     6.0000    0    12.011    4.155043  -10.660303   -4.788665
  37 C     6.0000    0    12.011    3.362507   -9.469574   -6.940110
  38 C     6.0000    0    12.011    1.428206   -7.676514   -6.796194
  39 C     6.0000    0    12.011    0.328248   -7.087120   -4.533434
  40 C     6.0000    0    12.011    3.437918   11.127791   -5.001023
  41 C     6.0000    0    12.011    2.979912    9.658950   -7.114698
  42 C     6.0000    0    12.011    1.526454    7.506313   -6.870875
  43 C     6.0000    0    12.011    0.566410    6.806825   -4.539509
  44 C     6.0000    0    12.011    1.139402    6.692496    4.366641
  45 C     6.0000    0    12.011    2.414896    7.324851    6.562401
  46 C     6.0000    0    12.011    3.917907    9.454930    6.657001
  47 C     6.0000    0    12.011    4.096698   10.975474    4.537946
  48 H     1.0000    0     1.008  -10.166837    0.964838    3.802886
  49 H     1.0000    0     1.008  -14.814949    1.062444    3.751611
  50 H     1.0000    0     1.008  -14.740088   -0.884615   -4.100971
  51 H     1.0000    0     1.008  -10.099203   -0.916472   -4.033278
  52 H     1.0000    0     1.008  -18.825096   -0.307413   -2.508197
  53 H     1.0000    0     1.008    0.752771   -2.674297    0.108278
  54 H     1.0000    0     1.008   -4.920748   -8.427998   -0.242213
  55 H     1.0000    0     1.008   -8.319598   -5.209420   -0.257586
  56 H     1.0000    0     1.008   -8.283178    5.202361   -0.019505
  57 H     1.0000    0     1.008   -4.839914    8.388134    0.020530
  58 H     1.0000    0     1.008    0.778704    2.631728    0.037476
  59 H     1.0000    0     1.008   -2.083892   -6.411127    4.340787
  60 H     1.0000    0     1.008   -1.154917   -8.269310    8.436836
  61 H     1.0000    0     1.008    2.075024  -11.644117    8.851295
  62 H     1.0000    0     1.008    4.376324  -13.090076    5.079578
  63 H     1.0000    0     1.008    5.640994  -12.062781   -4.863568
  64 H     1.0000    0     1.008    4.221077   -9.919827   -8.737050
  65 H     1.0000    0     1.008    0.783980   -6.738945   -8.492475
  66 H     1.0000    0     1.008   -1.162503   -5.703735   -4.461383
  67 H     1.0000    0     1.008    4.565203   12.827295   -5.146742
  68 H     1.0000    0     1.008    3.746678   10.203105   -8.927783
  69 H     1.0000    0     1.008    1.132723    6.339703   -8.502382
  70 H     1.0000    0     1.008   -0.562081    5.116343   -4.395740
  71 H     1.0000    0     1.008   -0.026098    5.021130    4.342696
  72 H     1.0000    0     1.008    2.227376    6.122970    8.205041
  73 H     1.0000    0     1.008    4.932708    9.945028    8.360331
  74 H     1.0000    0     1.008    5.246381   12.665807    4.572432

--------------------------------
INTERNAL COORDINATES (ANGSTROEM)
--------------------------------
 C      0   0   0     0.000000000000     0.00000000     0.00000000
 C      1   0   0     1.384782184301     0.00000000     0.00000000
 C      2   1   0     1.379479663233   120.06751356     0.00000000
 C      3   2   1     1.391664478338   120.41032498     0.53461288
 C      4   3   2     1.390033263308   119.16414381   359.69443427
 C      5   4   3     1.381260803051   120.31616519   359.68243318
 S      4   3   2     1.756570028951   117.66456198   179.65084762
 N      1   2   3     1.421003157130   119.91357553   179.16545175
 C      8   1   2     1.370122608070   125.96176086   105.21210334
 C      9   8   1     1.412211410751   109.12256631   180.85228696
 C     10   9   8     1.439467261706   106.60817647   359.27798018
 C      8   1   2     1.386212864408   125.42505404   285.51650921
 C     10   9   8     1.384249260016   119.55715164   178.92696322
 C     13  10   9     1.378727463378   118.11809662     0.81272414
 C     14  13  10     1.392293969262   122.36085744   359.90866122
 C     15  14  13     1.378639410719   120.30776197   359.38483542
 C     12   8   1     1.385933875795   128.93366052   358.52100563
 C     17  12   8     1.377645779661   117.32934404   181.57145474
 C     18  17  12     1.397254370442   121.74307426     0.11104079
 C     19  18  17     1.378911651962   120.52671812   359.54007300
 N     14  13  10     1.446260309902   118.91554510   180.23156923
 C     21  14  13     1.382452706328   117.50071935    95.78367887
 C     22  21  14     1.407522949345   122.37392935   179.79013535
 S     23  22  21     1.714289694025   123.56444363     1.37256950
 C     24  23  22     1.714213170052   103.21993675   358.74926245
 C     21  14  13     1.382216566874   117.63397799   275.62061843
 N     19  18  17     1.423775197406   118.28026605   177.91395464
 C     27  19  18     1.409816853095   118.66249718   103.86510053
 C     28  27  19     1.395832975211   119.99044002   192.70812316
 S     29  28  27     1.756696057084   120.30243495     6.55562981
 C     30  29  28     1.755964129527    99.21698923   325.31693598
 C     31  30  29     1.395296653250   120.13602308    34.23595336
 C     22  21  14     1.406377840802   119.82750991   359.78419288
 C     33  22  21     1.367424167684   120.79665226   179.16695447
 C     34  33  22     1.397848313085   120.95023455     0.24177924
 C     35  34  33     1.367175573828   119.47970145     0.39994853
 C     25  24  23     1.398528124952   115.91219506   180.41543398
 C     37  25  24     1.367148960602   120.44740025   179.38869031
 C     38  37  25     1.397799072306   119.48047827   359.68454507
 C     39  38  37     1.367426266752   120.94740597     0.36712865
 C     31  30  29     1.383388980599   119.14368157   209.64855376
 C     41  31  30     1.383460531406   120.72337675   187.30186844
 C     42  41  31     1.380516927766   119.05420739   358.82783670
 C     43  42  41     1.384608485136   120.54979112   359.17378105
 C     28  27  19     1.390470556718   121.85100349    11.38384203
 C     45  28  27     1.384798675528   120.89897886   180.54392878
 C     46  45  28     1.380455892089   120.56806490   358.82081086
 C     29  28  27     1.383305153412   120.55207813   181.46388995
 H      2   1   3     1.081702162141   119.67055969   180.40631990
 H      3   2   1     1.081808937162   119.68670689   180.44989147
 H      5   4   3     1.081273206811   120.25880609   180.33559682
 H      6   5   4     1.081803486880   120.17293496   181.13235636
 H      7   4   3     1.337693229008    97.01896710   177.39210270
 H     13  10   9     1.082239504998   121.34758587   180.65390701
 H     15  14  13     1.081632848946   119.56642108   179.91183623
 H     16  15  14     1.080420930451   120.94568119   180.51641688
 H     17  12   8     1.080425693662   121.43916358     1.04628081
 H     18  17  12     1.081137769409   120.24798761   179.50463329
 H     20  19  18     1.081999751868   119.71369013   179.34106604
 H     33  22  21     1.076834111890   119.39050996   359.24361374
 H     34  33  22     1.080816045336   119.21758022   180.17332023
 H     35  34  33     1.080487602561   120.36424319   180.11515342
 H     36  35  34     1.081986173594   120.56175223   179.57346873
 H     37  25  24     1.081983824912   118.98387718   359.48564044
 H     38  37  25     1.080463125787   120.14979727   179.96357105
 H     39  38  37     1.080796239588   119.82421864   180.45361719
 H     40  39  38     1.076883426773   119.85989575   180.14459729
 H     41  31  30     1.081946891021   118.86530981     5.90329183
 H     42  41  31     1.080780653744   120.14943807   178.54320103
 H     43  42  41     1.081623125538   120.24354573   179.49506782
 H     44  43  42     1.078261855305   119.20038545   180.06877442
 H     45  28  27     1.078330989330   119.95542326   359.21743234
 H     46  45  28     1.081639493489   119.17693151   179.11565672
 H     47  46  45     1.080785623258   120.82759703   180.65853254
 H     48  29  28     1.081929722586   118.84969282   178.67314760

---------------------------
INTERNAL COORDINATES (A.U.)
---------------------------
 C      0   0   0     0.000000000000     0.00000000     0.00000000
 C      1   0   0     2.616859083462     0.00000000     0.00000000
 C      2   1   0     2.606838770824   120.06751356     0.00000000
 C      3   2   1     2.629864734366   120.41032498     0.53461288
 C      4   3   2     2.626782184693   119.16414381   359.69443427
 C      5   4   3     2.610204637286   120.31616519   359.68243318
 S      4   3   2     3.319436289771   117.66456198   179.65084762
 N      1   2   3     2.685306802414   119.91357553   179.16545175
 C      8   1   2     2.589156499147   125.96176086   105.21210334
 C      9   8   1     2.668692809518   109.12256631   180.85228696
 C     10   9   8     2.720198903370   106.60817647   359.27798018
 C      8   1   2     2.619562677050   125.42505404   285.51650921
 C     10   9   8     2.615852002514   119.55715164   178.92696322
 C     13  10   9     2.605417319100   118.11809662     0.81272414
 C     14  13  10     2.631054299816   122.36085744   359.90866122
 C     15  14  13     2.605250923689   120.30776197   359.38483542
 C     12   8   1     2.619035464977   128.93366052   358.52100563
 C     17  12   8     2.603373233112   117.32934404   181.57145474
 C     18  17  12     2.640428099560   121.74307426     0.11104079
 C     19  18  17     2.605765385081   120.52671812   359.54007300
 N     14  13  10     2.733035904075   118.91554510   180.23156923
 C     21  14  13     2.612457008058   117.50071935    95.78367887
 C     22  21  14     2.659832901471   122.37392935   179.79013535
 S     23  22  21     3.239538035912   123.56444363     1.37256950
 C     24  23  22     3.239393426559   103.21993675   358.74926245
 C     21  14  13     2.612010769160   117.63397799   275.62061843
 N     19  18  17     2.690545199368   118.28026605   177.91395464
 C     27  19  18     2.664167751335   118.66249718   103.86510053
 C     28  27  19     2.637742051846   119.99044002   192.70812316
 S     29  28  27     3.319674448429   120.30243495     6.55562981
 C     30  29  28     3.318291305796    99.21698923   325.31693598
 C     31  30  29     2.636728550220   120.13602308    34.23595336
 C     22  21  14     2.657668959931   119.82750991   359.78419288
 C     33  22  21     2.584057185827   120.79665226   179.16695447
 C     34  33  22     2.641550488494   120.95023455     0.24177924
 C     35  34  33     2.583587411522   119.47970145     0.39994853
 C     25  24  23     2.642835146746   115.91219506   180.41543398
 C     37  25  24     2.583537119814   120.44740025   179.38869031
 C     38  37  25     2.641457436907   119.48047827   359.68454507
 C     39  38  37     2.584061152492   120.94740597     0.36712865
 C     31  30  29     2.614226310017   119.14368157   209.64855376
 C     41  31  30     2.614361521446   120.72337675   187.30186844
 C     42  41  31     2.608798916720   119.05420739   358.82783670
 C     43  42  41     2.616530839610   120.54979112   359.17378105
 C     28  27  19     2.627608549477   121.85100349    11.38384203
 C     45  28  27     2.616890247365   120.89897886   180.54392878
 C     46  45  28     2.608683576007   120.56806490   358.82081086
 C     29  28  27     2.614067899590   120.55207813   181.46388995
 H      2   1   3     2.044120844917   119.67055969   180.40631990
 H      3   2   1     2.044322620465   119.68670689   180.44989147
 H      5   4   3     2.043310236820   120.25880609   180.33559682
 H      6   5   4     2.044312320924   120.17293496   181.13235636
 H      7   4   3     2.527873854026    97.01896710   177.39210270
 H     13  10   9     2.045136275757   121.34758587   180.65390701
 H     15  14  13     2.043989861960   119.56642108   179.91183623
 H     16  15  14     2.041699667909   120.94568119   180.51641688
 H     17  12   8     2.041708669073   121.43916358     1.04628081
 H     18  17  12     2.043054297222   120.24798761   179.50463329
 H     20  19  18     2.044683208002   119.71369013   179.34106604
 H     33  22  21     2.034921563137   119.39050996   359.24361374
 H     34  33  22     2.042446326832   119.21758022   180.17332023
 H     35  34  33     2.041825659937   120.36424319   180.11515342
 H     36  35  34     2.044657548782   120.56175223   179.57346873
 H     37  25  24     2.044653110415   118.98387718   359.48564044
 H     38  37  25     2.041779405538   120.14979727   179.96357105
 H     39  38  37     2.042408899394   119.82421864   180.45361719
 H     40  39  38     2.035014754760   119.85989575   180.14459729
 H     41  31  30     2.044583315478   118.86530981     5.90329183
 H     42  41  31     2.042379446416   120.14943807   178.54320103
 H     43  42  41     2.043971487383   120.24354573   179.49506782
 H     44  43  42     2.037619607181   119.20038545   180.06877442
 H     45  28  27     2.037750251554   119.95542326   359.21743234
 H     46  45  28     2.044002418328   119.17693151   179.11565672
 H     47  46  45     2.042388837437   120.82759703   180.65853254
 H     48  29  28     2.044550871837   118.84969282   178.67314760



           ************************************************************
           *        Program running with 36 parallel MPI-processes    *
           *              working on a shared directory               *
           ************************************************************
------------------------------------------------------------------------------
                   ___                                                        
                  /   \      - P O W E R E D   B Y -                         
                 /     \                                                     
                 |  |  |   _    _      __       _____    __    __             
                 |  |  |  | |  | |    /  \     |  _  \  |  |  /  |          
                  \  \/   | |  | |   /    \    | | | |  |  | /  /          
                 / \  \   | |__| |  /  /\  \   | |_| |  |  |/  /          
                |  |  |   |  __  | /  /__\  \  |    /   |      \           
                |  |  |   | |  | | |   __   |  |    \   |  |\   \          
                \     /   | |  | | |  |  |  |  | |\  \  |  | \   \       
                 \___/    |_|  |_| |__|  |__|  |_| \__\ |__|  \__/        
                                                                              
                      - O R C A' S   B I G   F R I E N D -                    
                                      &                                       
                       - I N T E G R A L  F E E D E R -                       
                                                                              
 v1 FN, 2020, v2 2021                                                         
------------------------------------------------------------------------------


Reading SHARK input file Combo6_Cf1tc_-0.43404_0.43404_ck0.SHARKINP.tmp ... ok
----------------------
SHARK INTEGRAL PACKAGE
----------------------

Number of atoms                             ...     75
Number of basis functions                   ...   1668
Number of shells                            ...    642
Maximum angular momentum                    ...      3
Integral batch strategy                     ... SHARK/LIBINT Hybrid
RI-J (if used) integral strategy            ... SPLIT-RIJ (Revised 2003 algorithm where possible)
Printlevel                                  ...      1
Contraction scheme used                     ... SEGMENTED contraction
Coulomb Range Separation                    ... NOT USED
Exchange Range Separation                   ... Long Range
   Mu parameter                             ...  0.330000
   Scaling (regular/separated)              ...  0.190000  0.460000
Finite Nucleus Model                        ... NOT USED
Auxiliary Coulomb fitting basis             ... AVAILABLE
   # of basis functions in Aux-J            ...   2655
   # of shells in Aux-J                     ...    861
   Maximum angular momentum in Aux-J        ...      4
Auxiliary J/K fitting basis                 ... NOT available
Auxiliary Correlation fitting basis         ... NOT available
Auxiliary 'external' fitting basis          ... NOT available
Integral threshold                          ...     2.500000e-11
Primitive cut-off                           ...     2.500000e-12
Primitive pair pre-selection threshold      ...     2.500000e-12

Calculating pre-screening integrals         ... done (  0.1 sec) Dimension = 642
Organizing shell pair data                  ... done (  1.0 sec)
Shell pair information
Total number of shell pairs                 ...    206403
Shell pairs after pre-screening             ...     97011
Total number of primitive shell pairs       ...    654975
Primitive shell pairs kept                  ...    187720
          la=0 lb=0:  23331 shell pairs
          la=1 lb=0:  28747 shell pairs
          la=1 lb=1:   8811 shell pairs
          la=2 lb=0:  13532 shell pairs
          la=2 lb=1:   8366 shell pairs
          la=2 lb=2:   1941 shell pairs
          la=3 lb=0:   6177 shell pairs
          la=3 lb=1:   3928 shell pairs
          la=3 lb=2:   1755 shell pairs
          la=3 lb=3:    423 shell pairs

Reading point charge file                   ... ok (4 point charges)
Calculating one electron integrals          ... done (  0.2 sec)
Calculating RI/J V-Matrix + Cholesky decomp.... done (  0.7 sec)
Calculating Nuclear repulsion               ... (+Point charges) done (  0.0 sec) ENN=   5969.792532192394 Eh

SHARK setup successfully completed in   3.0 seconds

Maximum memory used throughout the entire GTOINT-calculation: 161.0 MB
ENUC WAS=  0.000000000
ENUC IS =  0.000000000
n1225:rank32.orca_scf_mpi: Failed to modify UD QP to INIT on mlx5_0: Operation not permitted
n1225:rank33.orca_scf_mpi: Failed to modify UD QP to INIT on mlx5_0: Operation not permitted
n1225:rank35.orca_scf_mpi: Failed to modify UD QP to INIT on mlx5_0: Operation not permitted
n1225:rank34.orca_scf_mpi: Failed to modify UD QP to INIT on mlx5_0: Operation not permitted
n1225:rank32.orca_scf_mpi: Failed to modify UD QP to INIT on mlx5_0: Operation not permitted
n1225:rank33.orca_scf_mpi: Failed to modify UD QP to INIT on mlx5_0: Operation not permitted
n1225:rank35.orca_scf_mpi: Failed to modify UD QP to INIT on mlx5_0: Operation not permitted
n1225:rank32.orca_scf_mpi: Failed to modify UD QP to INIT on mlx5_0: Operation not permitted
n1225:rank34.orca_scf_mpi: Failed to modify UD QP to INIT on mlx5_0: Operation not permitted
n1225:rank33.orca_scf_mpi: Failed to modify UD QP to INIT on mlx5_0: Operation not permitted
n1225:rank35.orca_scf_mpi: Failed to modify UD QP to INIT on mlx5_0: Operation not permitted
n1225:rank34.orca_scf_mpi: Failed to modify UD QP to INIT on mlx5_0: Operation not permitted
n1220:rank8.orca_scf_mpi: Failed to modify UD QP to INIT on mlx5_0: Operation not permitted
n1220:rank8.orca_scf_mpi: Failed to modify UD QP to INIT on mlx5_0: Operation not permitted
n1220:rank8.orca_scf_mpi: Failed to modify UD QP to INIT on mlx5_0: Operation not permitted
n1225:rank32.orca_scf_mpi: Failed to modify UD QP to INIT on mlx5_0: Operation not permitted
n1225:rank33.orca_scf_mpi: Failed to modify UD QP to INIT on mlx5_0: Operation not permitted
n1225:rank35.orca_scf_mpi: Failed to modify UD QP to INIT on mlx5_0: Operation not permitted
n1220:rank17.orca_scf_mpi: Failed to modify UD QP to INIT on mlx5_0: Operation not permitted
n1220:rank11.orca_scf_mpi: Failed to modify UD QP to INIT on mlx5_0: Operation not permitted
n1225:rank34.orca_scf_mpi: Failed to modify UD QP to INIT on mlx5_0: Operation not permitted
n1220:rank18.orca_scf_mpi: Failed to modify UD QP to INIT on mlx5_0: Operation not permitted
n1220:rank11.orca_scf_mpi: Failed to modify UD QP to INIT on mlx5_0: Operation not permitted
n1220:rank17.orca_scf_mpi: Failed to modify UD QP to INIT on mlx5_0: Operation not permitted
n1220:rank4.orca_scf_mpi: Failed to modify UD QP to INIT on mlx5_0: Operation not permitted
n1220:rank11.orca_scf_mpi: Failed to modify UD QP to INIT on mlx5_0: Operation not permitted
n1220:rank17.orca_scf_mpi: Failed to modify UD QP to INIT on mlx5_0: Operation not permitted
n1220:rank9.orca_scf_mpi: Failed to modify UD QP to INIT on mlx5_0: Operation not permitted
n1220:rank18.orca_scf_mpi: Failed to modify UD QP to INIT on mlx5_0: Operation not permitted
n1220:rank28.orca_scf_mpi: Failed to modify UD QP to INIT on mlx5_0: Operation not permitted
n1220:rank4.orca_scf_mpi: Failed to modify UD QP to INIT on mlx5_0: Operation not permitted
n1220:rank9.orca_scf_mpi: Failed to modify UD QP to INIT on mlx5_0: Operation not permitted
n1220:rank18.orca_scf_mpi: Failed to modify UD QP to INIT on mlx5_0: Operation not permitted
n1220:rank4.orca_scf_mpi: Failed to modify UD QP to INIT on mlx5_0: Operation not permitted
n1220:rank28.orca_scf_mpi: Failed to modify UD QP to INIT on mlx5_0: Operation not permitted
n1220:rank9.orca_scf_mpi: Failed to modify UD QP to INIT on mlx5_0: Operation not permitted
n1220:rank23.orca_scf_mpi: Failed to modify UD QP to INIT on mlx5_0: Operation not permitted
n1220:rank29.orca_scf_mpi: Failed to modify UD QP to INIT on mlx5_0: Operation not permitted
n1220:rank28.orca_scf_mpi: Failed to modify UD QP to INIT on mlx5_0: Operation not permitted
n1220:rank23.orca_scf_mpi: Failed to modify UD QP to INIT on mlx5_0: Operation not permitted
n1220:rank29.orca_scf_mpi: Failed to modify UD QP to INIT on mlx5_0: Operation not permitted
n1220:rank23.orca_scf_mpi: Failed to modify UD QP to INIT on mlx5_0: Operation not permitted
n1220:rank29.orca_scf_mpi: Failed to modify UD QP to INIT on mlx5_0: Operation not permitted
n1220:rank8.orca_scf_mpi: Failed to modify UD QP to INIT on mlx5_0: Operation not permitted
n1220:rank4.orca_scf_mpi: Failed to modify UD QP to INIT on mlx5_0: Operation not permitted
n1220:rank11.orca_scf_mpi: Failed to modify UD QP to INIT on mlx5_0: Operation not permitted
n1220:rank17.orca_scf_mpi: Failed to modify UD QP to INIT on mlx5_0: Operation not permitted
n1220:rank9.orca_scf_mpi: Failed to modify UD QP to INIT on mlx5_0: Operation not permitted
n1220:rank18.orca_scf_mpi: Failed to modify UD QP to INIT on mlx5_0: Operation not permitted
n1220:rank28.orca_scf_mpi: Failed to modify UD QP to INIT on mlx5_0: Operation not permitted
n1220:rank23.orca_scf_mpi: Failed to modify UD QP to INIT on mlx5_0: Operation not permitted
n1220:rank29.orca_scf_mpi: Failed to modify UD QP to INIT on mlx5_0: Operation not permitted
n1220:rank0.orca_scf_mpi: Failed to modify UD QP to INIT on mlx5_0: Operation not permitted
n1220:rank0.orca_scf_mpi: Failed to modify UD QP to INIT on mlx5_0: Operation not permitted
n1220:rank0.orca_scf_mpi: Failed to modify UD QP to INIT on mlx5_0: Operation not permitted
n1220:rank10.orca_scf_mpi: Failed to modify UD QP to INIT on mlx5_0: Operation not permitted
n1220:rank5.orca_scf_mpi: Failed to modify UD QP to INIT on mlx5_0: Operation not permitted
n1220:rank15.orca_scf_mpi: Failed to modify UD QP to INIT on mlx5_0: Operation not permitted
n1220:rank19.orca_scf_mpi: Failed to modify UD QP to INIT on mlx5_0: Operation not permitted
n1220:rank16.orca_scf_mpi: Failed to modify UD QP to INIT on mlx5_0: Operation not permitted
n1220:rank25.orca_scf_mpi: Failed to modify UD QP to INIT on mlx5_0: Operation not permitted
n1220:rank19.orca_scf_mpi: Failed to modify UD QP to INIT on mlx5_0: Operation not permitted
n1220:rank10.orca_scf_mpi: Failed to modify UD QP to INIT on mlx5_0: Operation not permitted
n1220:rank5.orca_scf_mpi: Failed to modify UD QP to INIT on mlx5_0: Operation not permitted
n1220:rank15.orca_scf_mpi: Failed to modify UD QP to INIT on mlx5_0: Operation not permitted
n1220:rank16.orca_scf_mpi: Failed to modify UD QP to INIT on mlx5_0: Operation not permitted
n1220:rank25.orca_scf_mpi: Failed to modify UD QP to INIT on mlx5_0: Operation not permitted
n1220:rank19.orca_scf_mpi: Failed to modify UD QP to INIT on mlx5_0: Operation not permitted
n1220:rank16.orca_scf_mpi: Failed to modify UD QP to INIT on mlx5_0: Operation not permitted
n1220:rank15.orca_scf_mpi: Failed to modify UD QP to INIT on mlx5_0: Operation not permitted
n1220:rank25.orca_scf_mpi: Failed to modify UD QP to INIT on mlx5_0: Operation not permitted
n1220:rank5.orca_scf_mpi: Failed to modify UD QP to INIT on mlx5_0: Operation not permitted
n1220:rank10.orca_scf_mpi: Failed to modify UD QP to INIT on mlx5_0: Operation not permitted
n1220:rank24.orca_scf_mpi: Failed to modify UD QP to INIT on mlx5_0: Operation not permitted
n1220:rank24.orca_scf_mpi: Failed to modify UD QP to INIT on mlx5_0: Operation not permitted
n1220:rank24.orca_scf_mpi: Failed to modify UD QP to INIT on mlx5_0: Operation not permitted
n1220:rank0.orca_scf_mpi: Failed to modify UD QP to INIT on mlx5_0: Operation not permitted
n1220:rank20.orca_scf_mpi: Failed to modify UD QP to INIT on mlx5_0: Operation not permitted
n1220:rank19.orca_scf_mpi: Failed to modify UD QP to INIT on mlx5_0: Operation not permitted
n1220:rank20.orca_scf_mpi: Failed to modify UD QP to INIT on mlx5_0: Operation not permitted
n1220:rank16.orca_scf_mpi: Failed to modify UD QP to INIT on mlx5_0: Operation not permitted
n1220:rank20.orca_scf_mpi: Failed to modify UD QP to INIT on mlx5_0: Operation not permitted
n1220:rank7.orca_scf_mpi: Failed to modify UD QP to INIT on mlx5_0: Operation not permitted
n1220:rank3.orca_scf_mpi: Failed to modify UD QP to INIT on mlx5_0: Operation not permitted
n1220:rank2.orca_scf_mpi: Failed to modify UD QP to INIT on mlx5_0: Operation not permitted
n1220:rank26.orca_scf_mpi: Failed to modify UD QP to INIT on mlx5_0: Operation not permitted
n1220:rank30.orca_scf_mpi: Failed to modify UD QP to INIT on mlx5_0: Operation not permitted
n1220:rank25.orca_scf_mpi: Failed to modify UD QP to INIT on mlx5_0: Operation not permitted
n1220:rank27.orca_scf_mpi: Failed to modify UD QP to INIT on mlx5_0: Operation not permitted
n1220:rank5.orca_scf_mpi: Failed to modify UD QP to INIT on mlx5_0: Operation not permitted
n1220:rank21.orca_scf_mpi: Failed to modify UD QP to INIT on mlx5_0: Operation not permitted
n1220:rank15.orca_scf_mpi: Failed to modify UD QP to INIT on mlx5_0: Operation not permitted
n1220:rank3.orca_scf_mpi: Failed to modify UD QP to INIT on mlx5_0: Operation not permitted
n1220:rank26.orca_scf_mpi: Failed to modify UD QP to INIT on mlx5_0: Operation not permitted
n1220:rank7.orca_scf_mpi: Failed to modify UD QP to INIT on mlx5_0: Operation not permitted
n1220:rank2.orca_scf_mpi: Failed to modify UD QP to INIT on mlx5_0: Operation not permitted
n1220:rank30.orca_scf_mpi: Failed to modify UD QP to INIT on mlx5_0: Operation not permitted
n1220:rank10.orca_scf_mpi: Failed to modify UD QP to INIT on mlx5_0: Operation not permitted
n1220:rank27.orca_scf_mpi: Failed to modify UD QP to INIT on mlx5_0: Operation not permitted
n1220:rank14.orca_scf_mpi: Failed to modify UD QP to INIT on mlx5_0: Operation not permitted
n1220:rank13.orca_scf_mpi: Failed to modify UD QP to INIT on mlx5_0: Operation not permitted
n1220:rank21.orca_scf_mpi: Failed to modify UD QP to INIT on mlx5_0: Operation not permitted
n1220:rank6.orca_scf_mpi: Failed to modify UD QP to INIT on mlx5_0: Operation not permitted
n1220:rank1.orca_scf_mpi: Failed to modify UD QP to INIT on mlx5_0: Operation not permitted
n1220:rank31.orca_scf_mpi: Failed to modify UD QP to INIT on mlx5_0: Operation not permitted
n1220:rank12.orca_scf_mpi: Failed to modify UD QP to INIT on mlx5_0: Operation not permitted
n1220:rank22.orca_scf_mpi: Failed to modify UD QP to INIT on mlx5_0: Operation not permitted
n1220:rank3.orca_scf_mpi: Failed to modify UD QP to INIT on mlx5_0: Operation not permitted
n1220:rank26.orca_scf_mpi: Failed to modify UD QP to INIT on mlx5_0: Operation not permitted
n1220:rank7.orca_scf_mpi: Failed to modify UD QP to INIT on mlx5_0: Operation not permitted
n1220:rank2.orca_scf_mpi: Failed to modify UD QP to INIT on mlx5_0: Operation not permitted
n1220:rank30.orca_scf_mpi: Failed to modify UD QP to INIT on mlx5_0: Operation not permitted
n1220:rank27.orca_scf_mpi: Failed to modify UD QP to INIT on mlx5_0: Operation not permitted
n1220:rank24.orca_scf_mpi: Failed to modify UD QP to INIT on mlx5_0: Operation not permitted
n1220:rank14.orca_scf_mpi: Failed to modify UD QP to INIT on mlx5_0: Operation not permitted
n1220:rank21.orca_scf_mpi: Failed to modify UD QP to INIT on mlx5_0: Operation not permitted
n1220:rank13.orca_scf_mpi: Failed to modify UD QP to INIT on mlx5_0: Operation not permitted
n1220:rank6.orca_scf_mpi: Failed to modify UD QP to INIT on mlx5_0: Operation not permitted
n1220:rank1.orca_scf_mpi: Failed to modify UD QP to INIT on mlx5_0: Operation not permitted
n1220:rank22.orca_scf_mpi: Failed to modify UD QP to INIT on mlx5_0: Operation not permitted
n1220:rank31.orca_scf_mpi: Failed to modify UD QP to INIT on mlx5_0: Operation not permitted
n1220:rank12.orca_scf_mpi: Failed to modify UD QP to INIT on mlx5_0: Operation not permitted
n1220:rank14.orca_scf_mpi: Failed to modify UD QP to INIT on mlx5_0: Operation not permitted
n1220:rank13.orca_scf_mpi: Failed to modify UD QP to INIT on mlx5_0: Operation not permitted
n1220:rank6.orca_scf_mpi: Failed to modify UD QP to INIT on mlx5_0: Operation not permitted
n1220:rank1.orca_scf_mpi: Failed to modify UD QP to INIT on mlx5_0: Operation not permitted
n1220:rank22.orca_scf_mpi: Failed to modify UD QP to INIT on mlx5_0: Operation not permitted
n1220:rank31.orca_scf_mpi: Failed to modify UD QP to INIT on mlx5_0: Operation not permitted
n1220:rank12.orca_scf_mpi: Failed to modify UD QP to INIT on mlx5_0: Operation not permitted
n1220:rank20.orca_scf_mpi: Failed to modify UD QP to INIT on mlx5_0: Operation not permitted
n1220:rank3.orca_scf_mpi: Failed to modify UD QP to INIT on mlx5_0: Operation not permitted
n1220:rank26.orca_scf_mpi: Failed to modify UD QP to INIT on mlx5_0: Operation not permitted
n1220:rank27.orca_scf_mpi: Failed to modify UD QP to INIT on mlx5_0: Operation not permitted
n1220:rank2.orca_scf_mpi: Failed to modify UD QP to INIT on mlx5_0: Operation not permitted
n1220:rank7.orca_scf_mpi: Failed to modify UD QP to INIT on mlx5_0: Operation not permitted
n1220:rank30.orca_scf_mpi: Failed to modify UD QP to INIT on mlx5_0: Operation not permitted
n1220:rank21.orca_scf_mpi: Failed to modify UD QP to INIT on mlx5_0: Operation not permitted
n1220:rank6.orca_scf_mpi: Failed to modify UD QP to INIT on mlx5_0: Operation not permitted
n1220:rank13.orca_scf_mpi: Failed to modify UD QP to INIT on mlx5_0: Operation not permitted
n1220:rank14.orca_scf_mpi: Failed to modify UD QP to INIT on mlx5_0: Operation not permitted
n1220:rank1.orca_scf_mpi: Failed to modify UD QP to INIT on mlx5_0: Operation not permitted
n1220:rank22.orca_scf_mpi: Failed to modify UD QP to INIT on mlx5_0: Operation not permitted
n1220:rank12.orca_scf_mpi: Failed to modify UD QP to INIT on mlx5_0: Operation not permitted
n1220:rank31.orca_scf_mpi: Failed to modify UD QP to INIT on mlx5_0: Operation not permitted


           ************************************************************
           *        Program running with 36 parallel MPI-processes    *
           *              working on a shared directory               *
           ************************************************************

Diagonalization of the overlap matrix:
Smallest eigenvalue                        ... 3.575e-06
Time for diagonalization                   ...    0.530 sec
Threshold for overlap eigenvalues          ... 1.000e-08
Number of eigenvalues below threshold      ... 0
Time for construction of square roots      ...    0.420 sec
Total time needed                          ...    0.963 sec

-------------------
DFT GRID GENERATION
-------------------

General Integration Accuracy     IntAcc      ... 4.388
Radial Grid Type                 RadialGrid  ... OptM3 with GC (2021)
Angular Grid (max. ang.)         AngularGrid ... 4 (Lebedev-302)
Angular grid pruning method      GridPruning ... 4 (adaptive)
Weight generation scheme         WeightScheme... Becke
Basis function cutoff            BFCut       ... 1.0000e-11
Integration weight cutoff        WCut        ... 1.0000e-14
Angular grids for H and He will be reduced by one unit
Partially contracted basis set               ... off
Rotationally invariant grid construction     ... off

Total number of grid points                  ...   374462
Total number of batches                      ...     5889
Average number of points per batch           ...       63
Average number of grid points per atom       ...     4993
Time for grid setup =    2.140 sec

--------------------
COSX GRID GENERATION
--------------------

GRIDX 1
-------
General Integration Accuracy     IntAcc      ... 3.816
Radial Grid Type                 RadialGrid  ... OptM3 with GC (2021)
Angular Grid (max. ang.)         AngularGrid ... 1 (Lebedev-50)
Angular grid pruning method      GridPruning ... 4 (adaptive)
Weight generation scheme         WeightScheme... Becke
Basis function cutoff            BFCut       ... 1.0000e-11
Integration weight cutoff        WCut        ... 1.0000e-14
Angular grids for H and He will be reduced by one unit
Partially contracted basis set               ... on
Rotationally invariant grid construction     ... off

Total number of grid points                  ...    47149
Total number of batches                      ...      765
Average number of points per batch           ...       61
Average number of grid points per atom       ...      629
UseSFitting                                  ... on

GRIDX 2
-------
General Integration Accuracy     IntAcc      ... 4.020
Radial Grid Type                 RadialGrid  ... OptM3 with GC (2021)
Angular Grid (max. ang.)         AngularGrid ... 2 (Lebedev-110)
Angular grid pruning method      GridPruning ... 4 (adaptive)
Weight generation scheme         WeightScheme... Becke
Basis function cutoff            BFCut       ... 1.0000e-11
Integration weight cutoff        WCut        ... 1.0000e-14
Angular grids for H and He will be reduced by one unit
Partially contracted basis set               ... on
Rotationally invariant grid construction     ... off

Total number of grid points                  ...   103006
Total number of batches                      ...     1649
Average number of points per batch           ...       62
Average number of grid points per atom       ...     1373
UseSFitting                                  ... on

GRIDX 3
-------
General Integration Accuracy     IntAcc      ... 4.338
Radial Grid Type                 RadialGrid  ... OptM3 with GC (2021)
Angular Grid (max. ang.)         AngularGrid ... 3 (Lebedev-194)
Angular grid pruning method      GridPruning ... 4 (adaptive)
Weight generation scheme         WeightScheme... Becke
Basis function cutoff            BFCut       ... 1.0000e-11
Integration weight cutoff        WCut        ... 1.0000e-14
Angular grids for H and He will be reduced by one unit
Partially contracted basis set               ... on
Rotationally invariant grid construction     ... off

Total number of grid points                  ...   226630
Total number of batches                      ...     3580
Average number of points per batch           ...       63
Average number of grid points per atom       ...     3022
UseSFitting                                  ... on

Time for X-Grid setup             =    5.460 sec

--------------
SCF ITERATIONS
--------------
ITER       Energy         Delta-E        Max-DP      RMS-DP      [F,P]     Damp
               ***  Starting incremental Fock matrix formation  ***
  0  -2975.0629165420   0.000000000000 0.00334980  0.00002185  0.0014888 0.7000
  1  -2975.0629776408  -0.000061098754 0.00284368  0.00001845  0.0010445 0.7000
                               ***Turning on DIIS***
  2  -2975.0630276961  -0.000050055300 0.00703825  0.00004561  0.0008066 0.0000
               *** Restarting incremental Fock matrix formation ***
                                   *** Resetting DIIS ***
  3  -2975.0631693931  -0.000141697019 0.00029804  0.00000222  0.0001840 0.0000
  4  -2975.0631753237  -0.000005930599 0.00027489  0.00000114  0.0000491 0.0000
  5  -2975.0631758972  -0.000000573537 0.00011249  0.00000050  0.0000256 0.0000
  6  -2975.0631759200  -0.000000022780 0.00033949  0.00000090  0.0000114 0.0000
  7  -2975.0631759489  -0.000000028901 0.00013100  0.00000065  0.0000031 0.0000
  8  -2975.0631759287   0.000000020220 0.00012071  0.00000057  0.0000020 0.0000
                            ***DIIS convergence achieved***

               *****************************************************
               *                     SUCCESS                       *
               *           SCF CONVERGED AFTER   9 CYCLES          *
               *****************************************************

Old exchange energy                            =    -88.483022607 Eh
New exchange energy                            =    -88.483011185 Eh
Exchange energy change after final integration =      0.000011422 Eh
Total energy after final integration           =  -2975.063164553 Eh
Final COS-X integration done in                =    46.229 sec
Total Energy       :        -2975.06316455 Eh          -80955.58441 eV
  Last Energy change         ...   -4.6420e-08  Tolerance :   1.0000e-08
  Last MAX-Density change    ...    0.0000e+00  Tolerance :   1.0000e-07
             **** THE GBW FILE WAS UPDATED (Combo6_Cf1tc_-0.43404_0.43404_ck0.gbw) ****
             **** DENSITY Combo6_Cf1tc_-0.43404_0.43404_ck0.scfp WAS UPDATED ****
             **** ENERGY FILE WAS UPDATED (Combo6_Cf1tc_-0.43404_0.43404_ck0.en.tmp) ****
----------------------
UHF SPIN CONTAMINATION
----------------------

Warning: in a DFT calculation there is little theoretical justification to 
         calculate <S**2> as in Hartree-Fock theory. We will do it anyways
         but you should keep in mind that the values have only limited relevance

Expectation value of <S**2>     :     0.767705
Ideal value S*(S+1) for S=0.5   :     0.750000
Deviation                       :     0.017705

             **** THE GBW FILE WAS UPDATED (Combo6_Cf1tc_-0.43404_0.43404_ck0.gbw) ****
             **** DENSITY Combo6_Cf1tc_-0.43404_0.43404_ck0.scfp WAS UPDATED ****
Total SCF time: 0 days 0 hours 4 min 47 sec 

Maximum memory used throughout the entire SCF-calculation: 649.5 MB


-------------------------------------------------------------------------------
                          DFT DISPERSION CORRECTION                            
                                                                               
                                 DFTD4 V2.5                                    
-------------------------------------------------------------------------------
Starting D4
-------------------------   ----------------
Dispersion correction           -0.123866608
-------------------------   ----------------


-------------------------   --------------------
FINAL SINGLE POINT ENERGY     -2975.187031161273
-------------------------   --------------------



           ************************************************************
           *        Program running with 36 parallel MPI-processes    *
           *              working on a shared directory               *
           ************************************************************
------------------------------------------------------------------------------
                         ORCA SCF GRADIENT CALCULATION
------------------------------------------------------------------------------

 ... reading COSX grid (gridx3)
Gradient of the Kohn-Sham DFT energy:
Kohn-Sham wavefunction type      ... UKS
Hartree-Fock exchange scaling    ...    0.190
Number of operators              ...    2
Number of atoms                  ...   75
Basis set dimensions             ... 1668
Integral neglect threshold       ... 2.5e-11
Integral primitive cutoff        ... 2.5e-12
SHARK Integral package           ... ON

Nuc. rep. gradient       (SHARK) ... done (  0.0 sec)
HCore & Overlap gradient (SHARK) ... done (  1.0 sec)
RI-J gradient            (SHARK) ... done (  3.8 sec)
COSX-gradient                    ... done ( 62.6 sec)
Exchange-correlation gradient    ... done
Point charge gradient            ... done
Dispersion correction            ... Starting D4
Starting D4
Starting D4
Starting D4
Starting D4
Starting D4
Starting D4
Starting D4
Starting D4
Starting D4
Starting D4
Starting D4
Starting D4
Starting D4
Starting D4
Starting D4
Starting D4
Starting D4
Starting D4
Starting D4
Starting D4
Starting D4
Starting D4
Starting D4
Starting D4
Starting D4
Starting D4
Starting D4
Starting D4
Starting D4
Starting D4
Starting D4
Starting D4
Starting D4
Starting D4
Starting D4


------------------- 
Dispersion Gradient 
------------------- 
   1  :   -0.000325862    0.000001438   -0.000004849
   2  :   -0.000292177    0.000065708    0.000377507
   3  :   -0.000331855    0.000044007    0.000259855
   4  :   -0.000301309    0.000003498    0.000000887
   5  :   -0.000330116   -0.000039541   -0.000265056
   6  :   -0.000276790   -0.000064317   -0.000383148
   7  :   -0.000748673    0.000007148   -0.000029168
   8  :   -0.000238647    0.000006508   -0.000000976
   9  :   -0.000058106   -0.000231987   -0.000008639
  10  :    0.000029417   -0.000026676    0.000020516
  11  :    0.000017218    0.000029559    0.000024739
  12  :   -0.000051716    0.000243457    0.000022082
  13  :    0.000193088    0.000134545    0.000023723
  14  :   -0.000179396   -0.000025840   -0.000009986
  15  :   -0.000429713   -0.000315437   -0.000032520
  16  :   -0.000313279   -0.000432507   -0.000027691
  17  :   -0.000277653    0.000473256    0.000014342
  18  :   -0.000478032    0.000338555    0.000022450
  19  :   -0.000220856    0.000023058    0.000025627
  20  :    0.000159264   -0.000108233    0.000025109
  21  :   -0.000005289   -0.000019423   -0.000003761
  22  :    0.000100701   -0.000183941    0.000336370
  23  :    0.000249486   -0.000303760    0.000279528
  24  :    0.000795331   -0.000767465    0.000023271
  25  :    0.000312655   -0.000252995   -0.000267828
  26  :    0.000174926   -0.000127093   -0.000330568
  27  :   -0.000047904    0.000059732    0.000013364
  28  :    0.000155711    0.000139381    0.000342582
  29  :    0.000226897    0.000324340    0.000279853
  30  :    0.000313614    0.001110791   -0.000001332
  31  :    0.000194614    0.000336324   -0.000297017
  32  :    0.000118550    0.000157072   -0.000343044
  33  :   -0.000068157   -0.000071846    0.000600854
  34  :   -0.000082909   -0.000034576    0.000576547
  35  :    0.000042266   -0.000137175    0.000438408
  36  :    0.000183860   -0.000253045    0.000331008
  37  :    0.000264128   -0.000187465   -0.000317193
  38  :    0.000147967   -0.000054472   -0.000435394
  39  :    0.000035857    0.000055990   -0.000576617
  40  :    0.000055107    0.000017625   -0.000609238
  41  :    0.000203262    0.000237239   -0.000364424
  42  :    0.000145224    0.000058215   -0.000440491
  43  :    0.000071491   -0.000096156   -0.000562298
  44  :    0.000105272   -0.000073665   -0.000618747
  45  :    0.000157134   -0.000102178    0.000596502
  46  :    0.000131458   -0.000112826    0.000539719
  47  :    0.000200238    0.000043580    0.000415802
  48  :    0.000249846    0.000224217    0.000340471
  49  :   -0.000075123    0.000019977    0.000176258
  50  :   -0.000062286    0.000020338    0.000094034
  51  :   -0.000051365   -0.000019710   -0.000099207
  52  :   -0.000071678   -0.000017703   -0.000177314
  53  :   -0.000085134    0.000003030    0.000003636
  54  :    0.000141922    0.000084927    0.000018585
  55  :   -0.000174990   -0.000115155   -0.000019518
  56  :   -0.000069231   -0.000160133   -0.000004192
  57  :   -0.000056330    0.000165706   -0.000003048
  58  :   -0.000178168    0.000113009    0.000008825
  59  :    0.000126139   -0.000085039    0.000003424
  60  :   -0.000033239   -0.000017688    0.000164446
  61  :   -0.000030214    0.000006164    0.000112209
  62  :    0.000011729   -0.000031655    0.000094872
  63  :    0.000072822   -0.000083213    0.000053211
  64  :    0.000087650   -0.000071096   -0.000048941
  65  :    0.000035053   -0.000012312   -0.000092979
  66  :   -0.000006993    0.000022382   -0.000114222
  67  :   -0.000001650   -0.000000987   -0.000170357
  68  :    0.000068119    0.000089644   -0.000060063
  69  :    0.000032865    0.000014191   -0.000091989
  70  :    0.000002937   -0.000031053   -0.000109951
  71  :    0.000023520   -0.000026552   -0.000172871
  72  :    0.000033723   -0.000034476    0.000170807
  73  :    0.000015081   -0.000034306    0.000106081
  74  :    0.000045415    0.000011452    0.000086997
  75  :    0.000076369    0.000087393    0.000052441

  |G| =    0.035471490

done

------------------
CARTESIAN GRADIENT
------------------

   1   C   :   -0.000019695   -0.000008567   -0.000000351
   2   C   :    0.000010355   -0.000034590   -0.000017231
   3   C   :   -0.000014480    0.000008051   -0.000021504
   4   C   :    0.000009119    0.000029652    0.000024957
   5   C   :    0.000008992    0.000009003   -0.000014019
   6   C   :   -0.000003271    0.000033517   -0.000028203
   7   S   :    0.000005489    0.000008482    0.000001755
   8   N   :    0.000029399    0.000057572    0.000203047
   9   C   :   -0.000011868   -0.000007858   -0.000094887
  10   C   :    0.000039900    0.000002759   -0.000058672
  11   C   :   -0.000040128    0.000019301   -0.000022590
  12   C   :   -0.000008274   -0.000007015   -0.000135031
  13   C   :    0.000005143    0.000004745    0.000106904
  14   C   :   -0.000036989    0.000048392   -0.000008070
  15   C   :    0.000005176   -0.000018001   -0.000015327
  16   C   :    0.000008060   -0.000000525    0.000064790
  17   C   :    0.000011300   -0.000002628    0.000054066
  18   C   :    0.000001453   -0.000028757   -0.000098652
  19   C   :    0.000041784   -0.000009208   -0.000112028
  20   C   :    0.000025176    0.000011768    0.000192026
  21   N   :    0.000033809   -0.000006883   -0.000022902
  22   C   :    0.000012344    0.000042955    0.000031043
  23   C   :    0.000012950   -0.000000918    0.000004234
  24   S   :    0.000010103    0.000011279    0.000009684
  25   C   :   -0.000004752   -0.000014790    0.000014503
  26   C   :   -0.000026769   -0.000045484   -0.000004217
  27   N   :   -0.000137611    0.000070470    0.000440583
  28   C   :    0.000131014   -0.000147090   -0.000053072
  29   C   :    0.000010779   -0.000048838   -0.000026608
  30   S   :    0.000000147   -0.000000182    0.000045910
  31   C   :    0.000030006    0.000057522   -0.000036535
  32   C   :    0.000001706    0.000141348   -0.000083747
  33   C   :   -0.000033161    0.000001718    0.000011886
  34   C   :   -0.000001929    0.000002302    0.000011177
  35   C   :   -0.000003709    0.000002920   -0.000007192
  36   C   :   -0.000003957    0.000014306    0.000016663
  37   C   :    0.000003006    0.000010333    0.000005205
  38   C   :    0.000005139    0.000007715    0.000016938
  39   C   :   -0.000001819    0.000003115   -0.000010333
  40   C   :    0.000004296    0.000020732    0.000010620
  41   C   :    0.000005062    0.000014650   -0.000012234
  42   C   :   -0.000003158   -0.000020825    0.000026578
  43   C   :    0.000024883    0.000014325    0.000012235
  44   C   :   -0.000039665   -0.000084784   -0.000037363
  45   C   :    0.000021578    0.000116693   -0.000084031
  46   C   :   -0.000018958    0.000024402   -0.000013790
  47   C   :   -0.000017517    0.000014055    0.000033921
  48   C   :   -0.000028152   -0.000021604    0.000015741
  49   H   :   -0.000001463    0.000011604    0.000001699
  50   H   :   -0.000001408    0.000013965   -0.000003017
  51   H   :    0.000003394    0.000010415    0.000000234
  52   H   :    0.000009938    0.000004771    0.000007872
  53   H   :    0.000002643    0.000014350   -0.000005155
  54   H   :    0.000007804   -0.000011377   -0.000017743
  55   H   :    0.000003193    0.000009066    0.000000049
  56   H   :   -0.000012330    0.000022632   -0.000009329
  57   H   :    0.000009493    0.000022507   -0.000015922
  58   H   :    0.000007102    0.000012456    0.000014684
  59   H   :   -0.000008863   -0.000031346   -0.000048030
  60   H   :   -0.000004245   -0.000004729    0.000003398
  61   H   :   -0.000011245    0.000002812    0.000003230
  62   H   :   -0.000009053    0.000000031    0.000006843
  63   H   :   -0.000008599    0.000000288    0.000008756
  64   H   :   -0.000002375    0.000001070    0.000003497
  65   H   :   -0.000002800   -0.000004770    0.000007235
  66   H   :    0.000004103    0.000007860    0.000007767
  67   H   :    0.000008787    0.000019658    0.000021105
  68   H   :    0.000012257    0.000001260    0.000012200
  69   H   :    0.000012086    0.000002629    0.000008393
  70   H   :    0.000013105    0.000006813    0.000009099
  71   H   :    0.000047809    0.000029404   -0.000009922
  72   H   :   -0.000023645   -0.000013367    0.000058916
  73   H   :   -0.000005410   -0.000002995    0.000002117
  74   H   :    0.000013362    0.000000320    0.000003338
  75   H   :   -0.000000768    0.000008714    0.000002560

Difference to translation invariance:
           :    0.0001151810    0.0004295772    0.0004097553

Difference to rotation invariance:
           :    0.0005205394   -0.0018156808   -0.0033571885

Norm of the cartesian gradient     ...    0.0007330241
RMS gradient                       ...    0.0000488683
MAX gradient                       ...    0.0004405830

-------
TIMINGS
-------

Total SCF gradient time            ...       91.891 sec

One electron gradient       ....       0.954 sec  (  1.0%)
RI-J Coulomb gradient       ....       3.791 sec  (  4.1%)
COSX gradient               ....      62.555 sec  ( 68.1%)
XC gradient                 ....       9.594 sec  ( 10.4%)
Point charge gradient       ....       1.622 sec  (  1.8%)

Maximum memory used throughout the entire SCFGRAD-calculation: 413.2 MB
------------------------------------------------------------------------------
                         ORCA GEOMETRY RELAXATION STEP
------------------------------------------------------------------------------

Reading the OPT-File                    .... done
Getting information on internals        .... done
Copying old internal coords+grads       .... done
Making the new internal coordinates     .... (new redundants).... done
Validating the new internal coordinates .... (new redundants).... done
Calculating the B-matrix                .... done
Calculating the G,G- and P matrices     .... done
Transforming gradient to internals      .... done
Projecting the internal gradient        .... done
Number of atoms                         ....  75
Number of internal coordinates          .... 440
Current Energy                          .... -2975.187031161 Eh
Current gradient norm                   ....     0.000733024 Eh/bohr
Maximum allowed component of the step   ....  0.300
Current trust radius                    ....  0.300
Updating the Hessian (BFGS)             .... done
Forming the augmented Hessian           .... done
Diagonalizing the augmented Hessian     .... done
Last element of RFO vector              ....  0.999769616
Lowest eigenvalues of augmented Hessian:
 -0.000004660  0.004296329  0.008262657  0.012857221  0.016703489
Length of the computed step             ....  0.021469196
The final length of the internal step   ....  0.021469196
Converting the step to cartesian space:
 Initial RMS(Int)=    0.0010235038
Transforming coordinates:
 Iter   0:  RMS(Cart)=    0.0115964237 RMS(Int)=    0.0010233921
 Iter   1:  RMS(Cart)=    0.0000292773 RMS(Int)=    0.0000067878
 Iter   2:  RMS(Cart)=    0.0000001668 RMS(Int)=    0.0000000226
 Iter   3:  RMS(Cart)=    0.0000000010 RMS(Int)=    0.0000000002
done
Storing new coordinates                 .... done

                                .--------------------.
          ----------------------|Geometry convergence|-------------------------
          Item                value                   Tolerance       Converged
          ---------------------------------------------------------------------
          Energy change      -0.0000016923            0.0000050000      YES
          RMS gradient        0.0000219776            0.0001000000      YES
          MAX gradient        0.0001888539            0.0003000000      YES
          RMS step            0.0010235038            0.0020000000      YES
          MAX step            0.0086799677            0.0040000000      NO
          ........................................................
          Max(Bonds)      0.0002      Max(Angles)    0.07
          Max(Dihed)        0.50      Max(Improp)    0.00
          ---------------------------------------------------------------------

       The energies and gradients are converged
       and the convergence on bond distances, angles, dihedrals and impropers
       is acceptable.
       Convergence will therefore be signaled now


                    ***********************HURRAY********************
                    ***        THE OPTIMIZATION HAS CONVERGED     ***
                    *************************************************


    ---------------------------------------------------------------------------
                         Redundant Internal Coordinates

                          --- Optimized Parameters ---  
                            (Angstroem and degrees)

        Definition                    OldVal   dE/dq     Step     FinalVal
    ----------------------------------------------------------------------------
     1. B(C   1,C   0)                1.3848 -0.000025  0.0000    1.3848   
     2. B(C   2,C   1)                1.3795 -0.000003 -0.0000    1.3795   
     3. B(C   3,C   2)                1.3917 -0.000029  0.0000    1.3917   
     4. B(C   4,C   3)                1.3900  0.000016 -0.0000    1.3900   
     5. B(C   5,C   4)                1.3813  0.000002  0.0000    1.3813   
     6. B(C   5,C   0)                1.3836  0.000010 -0.0000    1.3836   
     7. B(S   6,C   3)                1.7566 -0.000003  0.0000    1.7566   
     8. B(N   7,C   0)                1.4210  0.000011 -0.0000    1.4210   
     9. B(C   8,N   7)                1.3701  0.000002  0.0000    1.3702   
    10. B(C   9,C   8)                1.4122  0.000026 -0.0000    1.4122   
    11. B(C  10,C   9)                1.4395  0.000037 -0.0000    1.4394   
    12. B(C  11,C  10)                1.4024 -0.000004  0.0000    1.4024   
    13. B(C  11,N   7)                1.3862 -0.000046  0.0000    1.3862   
    14. B(C  12,C   9)                1.3842  0.000018 -0.0000    1.3842   
    15. B(C  13,C  12)                1.3787  0.000007 -0.0000    1.3787   
    16. B(C  14,C  13)                1.3923 -0.000004  0.0000    1.3923   
    17. B(C  15,C   8)                1.3885 -0.000005  0.0000    1.3885   
    18. B(C  15,C  14)                1.3786  0.000001 -0.0000    1.3786   
    19. B(C  16,C  11)                1.3859 -0.000024  0.0000    1.3860   
    20. B(C  17,C  16)                1.3776 -0.000039  0.0000    1.3777   
    21. B(C  18,C  17)                1.3973 -0.000022  0.0000    1.3973   
    22. B(C  19,C  18)                1.3789  0.000054 -0.0001    1.3788   
    23. B(C  19,C  10)                1.3878  0.000033 -0.0000    1.3878   
    24. B(N  20,C  13)                1.4463  0.000031 -0.0000    1.4462   
    25. B(C  21,N  20)                1.3825  0.000011 -0.0000    1.3824   
    26. B(C  22,C  21)                1.4075  0.000018 -0.0000    1.4075   
    27. B(S  23,C  22)                1.7143  0.000012 -0.0000    1.7143   
    28. B(C  24,S  23)                1.7142  0.000003 -0.0000    1.7142   
    29. B(C  25,C  24)                1.4074 -0.000004  0.0000    1.4074   
    30. B(C  25,N  20)                1.3822 -0.000011  0.0000    1.3823   
    31. B(N  26,C  18)                1.4238  0.000010  0.0000    1.4238   
    32. B(C  27,N  26)                1.4098 -0.000093 -0.0000    1.4098   
    33. B(C  28,C  27)                1.3958 -0.000021 -0.0000    1.3958   
    34. B(S  29,C  28)                1.7567  0.000001 -0.0000    1.7567   
    35. B(C  30,S  29)                1.7560 -0.000008  0.0000    1.7560   
    36. B(C  31,C  30)                1.3953  0.000024  0.0000    1.3953   
    37. B(C  31,N  26)                1.4116  0.000189 -0.0002    1.4113   
    38. B(C  32,C  21)                1.4064  0.000010 -0.0000    1.4064   
    39. B(C  33,C  32)                1.3674  0.000001 -0.0000    1.3674   
    40. B(C  34,C  33)                1.3978  0.000002 -0.0000    1.3978   
    41. B(C  35,C  34)                1.3672 -0.000008  0.0000    1.3672   
    42. B(C  35,C  22)                1.3986 -0.000002  0.0000    1.3986   
    43. B(C  36,C  24)                1.3985  0.000007 -0.0000    1.3985   
    44. B(C  37,C  36)                1.3671  0.000005 -0.0000    1.3671   
    45. B(C  38,C  37)                1.3978  0.000006  0.0000    1.3978   
    46. B(C  39,C  38)                1.3674  0.000005 -0.0000    1.3674   
    47. B(C  39,C  25)                1.4063 -0.000004  0.0000    1.4063   
    48. B(C  40,C  30)                1.3834  0.000007 -0.0000    1.3834   
    49. B(C  41,C  40)                1.3835 -0.000000 -0.0000    1.3834   
    50. B(C  42,C  41)                1.3805 -0.000017  0.0000    1.3805   
    51. B(C  43,C  42)                1.3846 -0.000006  0.0000    1.3846   
    52. B(C  43,C  31)                1.3910  0.000079 -0.0001    1.3909   
    53. B(C  44,C  27)                1.3905 -0.000084  0.0001    1.3905   
    54. B(C  45,C  44)                1.3848 -0.000024  0.0000    1.3848   
    55. B(C  46,C  45)                1.3805 -0.000026  0.0001    1.3805   
    56. B(C  47,C  46)                1.3834 -0.000025  0.0000    1.3835   
    57. B(C  47,C  28)                1.3833 -0.000019  0.0000    1.3833   
    58. B(H  48,C   1)                1.0817  0.000001 -0.0000    1.0817   
    59. B(H  49,C   2)                1.0818  0.000001 -0.0000    1.0818   
    60. B(H  50,C   4)                1.0813 -0.000002  0.0000    1.0813   
    61. B(H  51,C   5)                1.0818 -0.000002  0.0000    1.0818   
    62. B(H  52,S   6)                1.3377 -0.000000  0.0000    1.3377   
    63. B(H  53,C  12)                1.0822  0.000002 -0.0000    1.0822   
    64. B(H  54,C  14)                1.0816 -0.000003  0.0000    1.0816   
    65. B(H  55,C  15)                1.0804  0.000008 -0.0000    1.0804   
    66. B(H  56,C  16)                1.0804 -0.000002 -0.0000    1.0804   
    67. B(H  57,C  17)                1.0811  0.000005 -0.0000    1.0811   
    68. B(H  58,C  19)                1.0820 -0.000001  0.0000    1.0820   
    69. B(H  59,C  32)                1.0768 -0.000007  0.0000    1.0768   
    70. B(H  60,C  33)                1.0808  0.000000  0.0000    1.0808   
    71. B(H  61,C  34)                1.0805  0.000001 -0.0000    1.0805   
    72. B(H  62,C  35)                1.0820  0.000000 -0.0000    1.0820   
    73. B(H  63,C  36)                1.0820 -0.000000 -0.0000    1.0820   
    74. B(H  64,C  37)                1.0805  0.000000 -0.0000    1.0805   
    75. B(H  65,C  38)                1.0808  0.000000  0.0000    1.0808   
    76. B(H  66,C  39)                1.0769  0.000005 -0.0000    1.0769   
    77. B(H  67,C  40)                1.0819 -0.000001  0.0000    1.0819   
    78. B(H  68,C  41)                1.0808  0.000001 -0.0000    1.0808   
    79. B(H  69,C  42)                1.0816 -0.000003  0.0000    1.0816   
    80. B(H  70,C  43)                1.0783 -0.000044  0.0001    1.0783   
    81. B(H  71,C  44)                1.0783  0.000028 -0.0000    1.0783   
    82. B(H  72,C  45)                1.0816 -0.000001 -0.0000    1.0816   
    83. B(H  73,C  46)                1.0808  0.000000 -0.0000    1.0808   
    84. B(H  74,C  47)                1.0819  0.000003  0.0000    1.0819   
    85. A(C   5,C   0,N   7)          120.19 -0.000002    0.01    120.20   
    86. A(C   1,C   0,N   7)          119.91 -0.000002   -0.01    119.90   
    87. A(C   1,C   0,C   5)          119.89  0.000004   -0.00    119.89   
    88. A(C   0,C   1,H  48)          119.67 -0.000001   -0.00    119.67   
    89. A(C   2,C   1,H  48)          120.26 -0.000005    0.00    120.26   
    90. A(C   0,C   1,C   2)          120.07  0.000005    0.00    120.07   
    91. A(C   3,C   2,H  49)          119.90 -0.000001    0.00    119.90   
    92. A(C   1,C   2,C   3)          120.41  0.000001   -0.00    120.41   
    93. A(C   1,C   2,H  49)          119.69  0.000000    0.00    119.69   
    94. A(C   4,C   3,S   6)          123.17  0.000009   -0.00    123.17   
    95. A(C   2,C   3,C   4)          119.16  0.000003   -0.00    119.16   
    96. A(C   2,C   3,S   6)          117.66 -0.000012    0.00    117.67   
    97. A(C   3,C   4,H  50)          120.26  0.000001   -0.00    120.26   
    98. A(C   5,C   4,H  50)          119.42  0.000004   -0.00    119.42   
    99. A(C   3,C   4,C   5)          120.32 -0.000005    0.00    120.32   
   100. A(C   0,C   5,H  51)          119.68 -0.000005    0.00    119.68   
   101. A(C   4,C   5,H  51)          120.17  0.000013   -0.00    120.17   
   102. A(C   0,C   5,C   4)          120.14 -0.000008    0.00    120.14   
   103. A(C   3,S   6,H  52)           97.02  0.000001    0.00     97.02   
   104. A(C   0,N   7,C  11)          125.43 -0.000020   -0.00    125.42   
   105. A(C   0,N   7,C   8)          125.96  0.000009    0.01    125.97   
   106. A(C   8,N   7,C  11)          108.61  0.000010   -0.00    108.61   
   107. A(N   7,C   8,C   9)          109.12 -0.000001   -0.00    109.12   
   108. A(N   7,C   8,C  15)          129.11 -0.000015    0.01    129.12   
   109. A(C   9,C   8,C  15)          121.76  0.000016   -0.00    121.76   
   110. A(C   8,C   9,C  10)          106.61 -0.000021    0.00    106.61   
   111. A(C  10,C   9,C  12)          133.83  0.000040   -0.01    133.82   
   112. A(C   8,C   9,C  12)          119.56 -0.000019    0.01    119.56   
   113. A(C   9,C  10,C  11)          106.38 -0.000004   -0.00    106.37   
   114. A(C   9,C  10,C  19)          133.79  0.000006    0.01    133.80   
   115. A(C  11,C  10,C  19)          119.81 -0.000002   -0.00    119.81   
   116. A(C  10,C  11,C  16)          121.78  0.000006    0.00    121.79   
   117. A(N   7,C  11,C  16)          128.93 -0.000021   -0.00    128.93   
   118. A(N   7,C  11,C  10)          109.28  0.000015    0.00    109.28   
   119. A(C  13,C  12,H  53)          120.53 -0.000014    0.01    120.54   
   120. A(C   9,C  12,H  53)          121.35  0.000023   -0.01    121.34   
   121. A(C   9,C  12,C  13)          118.12 -0.000009    0.00    118.12   
   122. A(C  14,C  13,N  20)          118.72 -0.000023    0.00    118.73   
   123. A(C  12,C  13,C  14)          122.36  0.000023   -0.01    122.35   
   124. A(C  12,C  13,N  20)          118.92 -0.000001    0.00    118.92   
   125. A(C  15,C  14,H  54)          120.12  0.000010   -0.00    120.12   
   126. A(C  13,C  14,H  54)          119.57  0.000002   -0.00    119.56   
   127. A(C  13,C  14,C  15)          120.31 -0.000012    0.01    120.31   
   128. A(C   8,C  15,C  14)          117.88  0.000000   -0.00    117.88   
   129. A(C   8,C  15,H  55)          121.17 -0.000018    0.01    121.18   
   130. A(C  14,C  15,H  55)          120.95  0.000018   -0.01    120.94   
   131. A(C  17,C  16,H  56)          121.23 -0.000017    0.00    121.23   
   132. A(C  11,C  16,C  17)          117.33  0.000002    0.00    117.33   
   133. A(C  11,C  16,H  56)          121.44  0.000015   -0.01    121.43   
   134. A(C  18,C  17,H  57)          118.01 -0.000019    0.01    118.01   
   135. A(C  16,C  17,H  57)          120.25 -0.000010    0.00    120.25   
   136. A(C  16,C  17,C  18)          121.74  0.000029   -0.01    121.73   
   137. A(C  19,C  18,N  26)          121.17  0.000109   -0.02    121.15   
   138. A(C  17,C  18,N  26)          118.28 -0.000091    0.01    118.29   
   139. A(C  17,C  18,C  19)          120.53 -0.000018    0.01    120.53   
   140. A(C  10,C  19,H  58)          121.48 -0.000030    0.01    121.49   
   141. A(C  18,C  19,H  58)          119.71  0.000047   -0.01    119.70   
   142. A(C  10,C  19,C  18)          118.80 -0.000018    0.00    118.80   
   143. A(C  21,N  20,C  25)          124.87  0.000006   -0.00    124.86   
   144. A(C  13,N  20,C  25)          117.63 -0.000020    0.00    117.64   
   145. A(C  13,N  20,C  21)          117.50  0.000014    0.00    117.50   
   146. A(C  22,C  21,C  32)          117.80  0.000006   -0.00    117.79   
   147. A(N  20,C  21,C  22)          122.37 -0.000019    0.00    122.38   
   148. A(N  20,C  21,C  32)          119.83  0.000013   -0.00    119.83   
   149. A(S  23,C  22,C  35)          115.91  0.000001   -0.00    115.91   
   150. A(C  21,C  22,C  35)          120.52 -0.000008    0.00    120.52   
   151. A(C  21,C  22,S  23)          123.56  0.000007   -0.00    123.56   
   152. A(C  22,S  23,C  24)          103.22 -0.000001    0.00    103.22   
   153. A(C  25,C  24,C  36)          120.52 -0.000015    0.01    120.53   
   154. A(S  23,C  24,C  36)          115.91  0.000022   -0.01    115.91   
   155. A(S  23,C  24,C  25)          123.57 -0.000007    0.00    123.57   
   156. A(N  20,C  25,C  24)          122.39  0.000014   -0.00    122.39   
   157. A(C  24,C  25,C  39)          117.80  0.000019   -0.01    117.79   
   158. A(N  20,C  25,C  39)          119.81 -0.000032    0.01    119.82   
   159. A(C  27,N  26,C  31)          121.09 -0.000027    0.02    121.11   
   160. A(C  18,N  26,C  31)          117.39 -0.000094    0.07    117.45   
   161. A(C  18,N  26,C  27)          118.66  0.000119   -0.05    118.61   
   162. A(N  26,C  27,C  28)          119.99 -0.000017    0.01    120.00   
   163. A(C  28,C  27,C  44)          118.15 -0.000011    0.01    118.16   
   164. A(N  26,C  27,C  44)          121.85  0.000027   -0.02    121.83   
   165. A(C  27,C  28,S  29)          120.30  0.000050   -0.01    120.29   
   166. A(S  29,C  28,C  47)          118.95 -0.000050    0.02    118.97   
   167. A(C  27,C  28,C  47)          120.55 -0.000001    0.00    120.55   
   168. A(C  28,S  29,C  30)           99.22  0.000008    0.01     99.22   
   169. A(S  29,C  30,C  31)          120.14 -0.000047    0.01    120.15   
   170. A(C  31,C  30,C  40)          120.56  0.000006    0.00    120.56   
   171. A(S  29,C  30,C  40)          119.14  0.000041   -0.02    119.13   
   172. A(N  26,C  31,C  30)          120.22  0.000025   -0.01    120.21   
   173. A(C  30,C  31,C  43)          118.19 -0.000015   -0.00    118.18   
   174. A(N  26,C  31,C  43)          121.58 -0.000010    0.02    121.60   
   175. A(C  21,C  32,C  33)          120.80 -0.000007    0.00    120.80   
   176. A(C  33,C  32,H  59)          119.81  0.000005   -0.00    119.81   
   177. A(C  21,C  32,H  59)          119.39  0.000003   -0.00    119.39   
   178. A(C  34,C  33,H  60)          119.83  0.000003   -0.00    119.83   
   179. A(C  32,C  33,H  60)          119.22 -0.000002    0.00    119.22   
   180. A(C  32,C  33,C  34)          120.95 -0.000000    0.00    120.95   
   181. A(C  33,C  34,H  61)          120.36 -0.000003    0.00    120.37   
   182. A(C  33,C  34,C  35)          119.48  0.000008   -0.00    119.48   
   183. A(C  35,C  34,H  61)          120.16 -0.000006    0.00    120.16   
   184. A(C  34,C  35,H  62)          120.56 -0.000002    0.00    120.56   
   185. A(C  22,C  35,H  62)          118.99 -0.000000    0.00    118.99   
   186. A(C  22,C  35,C  34)          120.45  0.000002   -0.00    120.45   
   187. A(C  37,C  36,H  63)          120.57 -0.000006    0.00    120.57   
   188. A(C  24,C  36,H  63)          118.98  0.000005   -0.00    118.98   
   189. A(C  24,C  36,C  37)          120.45  0.000001   -0.00    120.45   
   190. A(C  38,C  37,H  64)          120.37 -0.000003    0.00    120.37   
   191. A(C  36,C  37,H  64)          120.15 -0.000006    0.00    120.15   
   192. A(C  36,C  37,C  38)          119.48  0.000009   -0.00    119.48   
   193. A(C  39,C  38,H  65)          119.23  0.000004   -0.00    119.23   
   194. A(C  37,C  38,H  65)          119.82  0.000008   -0.00    119.82   
   195. A(C  37,C  38,C  39)          120.95 -0.000011    0.00    120.95   
   196. A(C  38,C  39,H  66)          119.86  0.000014   -0.00    119.86   
   197. A(C  25,C  39,H  66)          119.34 -0.000012    0.00    119.35   
   198. A(C  25,C  39,C  38)          120.80 -0.000002    0.00    120.80   
   199. A(C  41,C  40,H  67)          120.40  0.000004   -0.00    120.39   
   200. A(C  30,C  40,H  67)          118.87  0.000003   -0.00    118.86   
   201. A(C  30,C  40,C  41)          120.72 -0.000007    0.00    120.73   
   202. A(C  42,C  41,H  68)          120.80 -0.000011    0.00    120.80   
   203. A(C  40,C  41,H  68)          120.15 -0.000008    0.00    120.15   
   204. A(C  40,C  41,C  42)          119.05  0.000019   -0.00    119.05   
   205. A(C  41,C  42,H  69)          120.24 -0.000008    0.00    120.24   
   206. A(C  41,C  42,C  43)          120.55  0.000011   -0.00    120.55   
   207. A(C  43,C  42,H  69)          119.21 -0.000003    0.00    119.21   
   208. A(C  31,C  43,C  42)          120.87 -0.000014    0.01    120.88   
   209. A(C  42,C  43,H  70)          119.20 -0.000011   -0.00    119.20   
   210. A(C  31,C  43,H  70)          119.92  0.000025   -0.01    119.91   
   211. A(C  27,C  44,C  45)          120.90  0.000019   -0.01    120.89   
   212. A(C  45,C  44,H  71)          119.13 -0.000057    0.02    119.16   
   213. A(C  27,C  44,H  71)          119.96  0.000038   -0.02    119.94   
   214. A(C  44,C  45,C  46)          120.57  0.000012   -0.00    120.56   
   215. A(C  46,C  45,H  72)          120.25  0.000004   -0.00    120.25   
   216. A(C  44,C  45,H  72)          119.18 -0.000016    0.00    119.18   
   217. A(C  45,C  46,C  47)          119.01 -0.000033    0.01    119.02   
   218. A(C  47,C  46,H  73)          120.16  0.000010   -0.00    120.16   
   219. A(C  45,C  46,H  73)          120.83  0.000023   -0.01    120.82   
   220. A(C  28,C  47,C  46)          120.76  0.000015   -0.01    120.75   
   221. A(C  46,C  47,H  74)          120.37  0.000003    0.00    120.37   
   222. A(C  28,C  47,H  74)          118.85 -0.000018    0.01    118.86   
   223. D(H  48,C   1,C   0,C   5)   -179.73  0.000004   -0.01   -179.75   
   224. D(C   2,C   1,C   0,C   5)     -0.14 -0.000005    0.01     -0.13   
   225. D(C   2,C   1,C   0,N   7)    179.17 -0.000017    0.04    179.20   
   226. D(H  48,C   1,C   0,N   7)     -0.43 -0.000008    0.01     -0.41   
   227. D(C   3,C   2,C   1,H  48)   -179.87 -0.000006    0.02   -179.85   
   228. D(C   3,C   2,C   1,C   0)      0.53  0.000003   -0.01      0.53   
   229. D(H  49,C   2,C   1,C   0)   -179.55  0.000006   -0.02   -179.57   
   230. D(H  49,C   2,C   1,H  48)      0.04 -0.000003    0.01      0.05   
   231. D(S   6,C   3,C   2,C   1)    179.65 -0.000000    0.00    179.65   
   232. D(S   6,C   3,C   2,H  49)     -0.26 -0.000003    0.02     -0.25   
   233. D(C   4,C   3,C   2,C   1)     -0.31  0.000002   -0.00     -0.31   
   234. D(C   4,C   3,C   2,H  49)    179.78 -0.000001    0.01    179.79   
   235. D(C   5,C   4,C   3,S   6)    179.73 -0.000001   -0.00    179.73   
   236. D(H  50,C   4,C   3,C   2)   -179.66 -0.000002   -0.00   -179.67   
   237. D(C   5,C   4,C   3,C   2)     -0.32 -0.000003    0.01     -0.31   
   238. D(H  50,C   4,C   3,S   6)      0.38  0.000001   -0.01      0.37   
   239. D(C   4,C   5,C   0,C   1)     -0.48  0.000004   -0.01     -0.49   
   240. D(H  51,C   5,C   4,H  50)      0.48  0.000001   -0.00      0.48   
   241. D(C   0,C   5,C   4,H  50)   -179.94 -0.000001    0.01   -179.93   
   242. D(C   4,C   5,C   0,N   7)   -179.79  0.000016   -0.04   -179.82   
   243. D(H  51,C   5,C   0,C   1)    179.10  0.000001    0.00    179.10   
   244. D(H  51,C   5,C   0,N   7)     -0.20  0.000013   -0.03     -0.23   
   245. D(C   0,C   5,C   4,C   3)      0.71  0.000001    0.00      0.71   
   246. D(H  51,C   5,C   4,C   3)   -178.87  0.000003   -0.01   -178.88   
   247. D(H  52,S   6,C   3,C   2)    177.39 -0.000002    0.08    177.48   
   248. D(H  52,S   6,C   3,C   4)     -2.65 -0.000004    0.09     -2.56   
   249. D(C  11,N   7,C   0,C   5)    104.82 -0.000050    0.25    105.07   
   250. D(C  11,N   7,C   0,C   1)    -74.48 -0.000038    0.22    -74.26   
   251. D(C   8,N   7,C   0,C   5)    -75.48 -0.000015    0.09    -75.39   
   252. D(C   8,N   7,C   0,C   1)    105.21 -0.000003    0.07    105.28   
   253. D(C   9,C   8,N   7,C   0)   -179.15 -0.000008    0.09   -179.06   
   254. D(C   9,C   8,N   7,C  11)      0.59  0.000022   -0.05      0.54   
   255. D(C  15,C   8,N   7,C  11)   -179.62  0.000004    0.03   -179.60   
   256. D(C  15,C   8,N   7,C   0)      0.64 -0.000026    0.16      0.80   
   257. D(C  12,C   9,C   8,C  15)     -0.88  0.000001    0.01     -0.87   
   258. D(C  12,C   9,C   8,N   7)    178.93 -0.000015    0.08    179.01   
   259. D(C  10,C   9,C   8,N   7)     -0.72 -0.000004   -0.01     -0.73   
   260. D(C  10,C   9,C   8,C  15)    179.47  0.000013   -0.07    179.40   
   261. D(C  19,C  10,C   9,C  12)      2.65 -0.000007   -0.02      2.63   
   262. D(C  19,C  10,C   9,C   8)   -177.77 -0.000021    0.08   -177.69   
   263. D(C  11,C  10,C   9,C  12)   -179.00 -0.000001   -0.05   -179.05   
   264. D(C  11,C  10,C   9,C   8)      0.57 -0.000015    0.06      0.63   
   265. D(C  16,C  11,C  10,C   9)   -179.31  0.000012   -0.01   -179.32   
   266. D(C  16,C  11,C  10,C  19)     -0.69  0.000017   -0.02     -0.71   
   267. D(N   7,C  11,C  10,C  19)    178.39  0.000034   -0.10    178.29   
   268. D(C  16,C  11,N   7,C   8)    178.78 -0.000013   -0.00    178.78   
   269. D(C  10,C  11,N   7,C   0)    179.52 -0.000002   -0.05    179.47   
   270. D(C  16,C  11,N   7,C   0)     -1.48  0.000017   -0.14     -1.62   
   271. D(C  10,C  11,N   7,C   8)     -0.22 -0.000032    0.09     -0.13   
   272. D(N   7,C  11,C  10,C   9)     -0.23  0.000029   -0.09     -0.32   
   273. D(H  53,C  12,C   9,C  10)      0.19 -0.000025    0.12      0.30   
   274. D(C  13,C  12,C   9,C  10)   -179.65  0.000001    0.07   -179.58   
   275. D(C  13,C  12,C   9,C   8)      0.81  0.000016   -0.04      0.77   
   276. D(H  53,C  12,C   9,C   8)   -179.35 -0.000010    0.00   -179.34   
   277. D(N  20,C  13,C  12,H  53)      0.39  0.000002   -0.02      0.36   
   278. D(N  20,C  13,C  12,C   9)   -179.77 -0.000023    0.02   -179.75   
   279. D(C  14,C  13,C  12,H  53)   -179.93  0.000006   -0.00   -179.94   
   280. D(C  14,C  13,C  12,C   9)     -0.09 -0.000019    0.04     -0.05   
   281. D(H  54,C  14,C  13,N  20)     -0.41  0.000007    0.01     -0.40   
   282. D(H  54,C  14,C  13,C  12)    179.91  0.000003   -0.01    179.90   
   283. D(C  15,C  14,C  13,N  20)    179.06  0.000009    0.01    179.08   
   284. D(C  15,C  14,C  13,C  12)     -0.62  0.000005   -0.01     -0.62   
   285. D(C  14,C  15,C   8,N   7)   -179.59  0.000004   -0.06   -179.65   
   286. D(H  55,C  15,C  14,H  54)     -0.01  0.000000    0.00     -0.01   
   287. D(C   8,C  15,C  14,H  54)   -179.98  0.000015   -0.02   -180.00   
   288. D(C   8,C  15,C  14,C  13)      0.55  0.000013   -0.02      0.53   
   289. D(H  55,C  15,C   8,C   9)   -179.78 -0.000002   -0.00   -179.79   
   290. D(H  55,C  15,C  14,C  13)   -179.48 -0.000001    0.00   -179.48   
   291. D(H  55,C  15,C   8,N   7)      0.45  0.000019   -0.09      0.36   
   292. D(C  14,C  15,C   8,C   9)      0.18 -0.000016    0.02      0.20   
   293. D(H  56,C  16,C  11,C  10)    179.93 -0.000006    0.00    179.94   
   294. D(H  56,C  16,C  11,N   7)      1.05 -0.000026    0.10      1.15   
   295. D(C  17,C  16,C  11,C  10)      0.46  0.000002    0.01      0.47   
   296. D(C  17,C  16,C  11,N   7)   -178.43 -0.000019    0.11   -178.32   
   297. D(H  57,C  17,C  16,H  56)      0.03  0.000010   -0.02      0.01   
   298. D(H  57,C  17,C  16,C  11)    179.50  0.000003   -0.03    179.48   
   299. D(C  18,C  17,C  16,H  56)   -179.36 -0.000010    0.04   -179.32   
   300. D(C  18,C  17,C  16,C  11)      0.11 -0.000018    0.04      0.15   
   301. D(N  26,C  18,C  17,H  57)     -1.49 -0.000000    0.06     -1.43   
   302. D(N  26,C  18,C  17,C  16)    177.91  0.000020    0.00    177.92   
   303. D(C  19,C  18,C  17,H  57)   -179.87 -0.000005   -0.01   -179.87   
   304. D(C  19,C  18,C  17,C  16)     -0.46  0.000015   -0.07     -0.53   
   305. D(H  58,C  19,C  18,N  26)      1.01 -0.000032    0.06      1.08   
   306. D(H  58,C  19,C  18,C  17)    179.34 -0.000030    0.14    179.48   
   307. D(C  10,C  19,C  18,N  26)   -178.10  0.000003   -0.02   -178.12   
   308. D(C  10,C  19,C  18,C  17)      0.23  0.000004    0.05      0.28   
   309. D(H  58,C  19,C  10,C  11)   -178.77  0.000015   -0.10   -178.86   
   310. D(H  58,C  19,C  10,C   9)     -0.60  0.000021   -0.12     -0.72   
   311. D(C  18,C  19,C  10,C  11)      0.33 -0.000020   -0.01      0.32   
   312. D(C  18,C  19,C  10,C   9)    178.50 -0.000014   -0.03    178.47   
   313. D(C  25,N  20,C  13,C  14)     95.93 -0.000025    0.17     96.10   
   314. D(C  25,N  20,C  13,C  12)    -84.38 -0.000021    0.19    -84.19   
   315. D(C  21,N  20,C  13,C  14)    -83.91 -0.000015    0.14    -83.77   
   316. D(C  21,N  20,C  13,C  12)     95.78 -0.000011    0.16     95.94   
   317. D(C  32,C  21,N  20,C  25)    179.96  0.000025   -0.11    179.85   
   318. D(C  32,C  21,N  20,C  13)     -0.22  0.000015   -0.07     -0.29   
   319. D(C  22,C  21,N  20,C  25)     -0.03  0.000013   -0.06     -0.09   
   320. D(C  22,C  21,N  20,C  13)    179.79  0.000003   -0.02    179.77   
   321. D(C  35,C  22,C  21,C  32)      0.82 -0.000009    0.03      0.85   
   322. D(C  35,C  22,C  21,N  20)   -179.18  0.000003   -0.02   -179.21   
   323. D(S  23,C  22,C  21,C  32)   -178.62 -0.000019    0.06   -178.56   
   324. D(S  23,C  22,C  21,N  20)      1.37 -0.000007    0.01      1.39   
   325. D(C  24,S  23,C  22,C  35)    179.28 -0.000015    0.10    179.38   
   326. D(C  24,S  23,C  22,C  21)     -1.25 -0.000005    0.06     -1.19   
   327. D(C  36,C  24,S  23,C  22)   -179.58  0.000010   -0.09   -179.67   
   328. D(C  25,C  24,S  23,C  22)      0.05  0.000014   -0.11     -0.06   
   329. D(C  39,C  25,C  24,C  36)      0.76 -0.000012    0.06      0.82   
   330. D(C  39,C  25,C  24,S  23)   -178.86 -0.000016    0.08   -178.78   
   331. D(N  20,C  25,C  24,C  36)   -179.25 -0.000007    0.07   -179.18   
   332. D(N  20,C  25,C  24,S  23)      1.14 -0.000011    0.09      1.23   
   333. D(C  39,C  25,N  20,C  21)    178.73  0.000001    0.01    178.74   
   334. D(C  24,C  25,N  20,C  21)     -1.27 -0.000004    0.00     -1.26   
   335. D(C  24,C  25,N  20,C  13)    178.91  0.000006   -0.03    178.88   
   336. D(C  39,C  25,N  20,C  13)     -1.10  0.000011   -0.02     -1.12   
   337. D(C  31,N  26,C  18,C  19)     83.31  0.000040   -0.32     82.98   
   338. D(C  31,N  26,C  18,C  17)    -95.06  0.000038   -0.40    -95.45   
   339. D(C  27,N  26,C  18,C  19)    -77.77  0.000056   -0.43    -78.20   
   340. D(C  27,N  26,C  18,C  17)    103.87  0.000054   -0.50    103.37   
   341. D(C  44,C  27,N  26,C  31)   -148.97 -0.000036    0.11   -148.86   
   342. D(C  44,C  27,N  26,C  18)     11.38 -0.000064    0.23     11.61   
   343. D(C  28,C  27,N  26,C  31)     32.35  0.000002   -0.02     32.34   
   344. D(C  28,C  27,N  26,C  18)   -167.29 -0.000026    0.10   -167.20   
   345. D(C  47,C  28,C  27,C  44)      2.74  0.000002   -0.04      2.70   
   346. D(C  47,C  28,C  27,N  26)   -178.54 -0.000034    0.09   -178.45   
   347. D(S  29,C  28,C  27,C  44)   -172.17  0.000025   -0.13   -172.30   
   348. D(S  29,C  28,C  27,N  26)      6.56 -0.000011   -0.00      6.55   
   349. D(C  30,S  29,C  28,C  27)    -34.68 -0.000028    0.02    -34.66   
   350. D(C  30,S  29,C  28,C  47)    150.33 -0.000007   -0.06    150.27   
   351. D(C  40,C  30,S  29,C  28)   -150.35 -0.000002   -0.06   -150.41   
   352. D(C  31,C  30,S  29,C  28)     34.24 -0.000013   -0.01     34.22   
   353. D(C  43,C  31,C  30,C  40)     -2.16  0.000005   -0.03     -2.19   
   354. D(C  43,C  31,C  30,S  29)    173.19  0.000017   -0.08    173.11   
   355. D(N  26,C  31,C  30,C  40)    178.86 -0.000011    0.04    178.90   
   356. D(N  26,C  31,C  30,S  29)     -5.79  0.000002   -0.01     -5.80   
   357. D(C  43,C  31,N  26,C  27)    148.24 -0.000024    0.10    148.34   
   358. D(C  43,C  31,N  26,C  18)    -12.36 -0.000036    0.01    -12.34   
   359. D(C  30,C  31,N  26,C  27)    -32.82 -0.000009    0.03    -32.79   
   360. D(C  30,C  31,N  26,C  18)    166.59 -0.000021   -0.06    166.53   
   361. D(H  59,C  32,C  21,C  22)    179.24  0.000010   -0.04    179.20   
   362. D(H  59,C  32,C  21,N  20)     -0.76 -0.000001    0.01     -0.75   
   363. D(C  33,C  32,C  21,C  22)     -0.84  0.000006   -0.02     -0.86   
   364. D(C  33,C  32,C  21,N  20)    179.17 -0.000005    0.03    179.20   
   365. D(H  60,C  33,C  32,H  59)      0.10 -0.000001    0.01      0.11   
   366. D(H  60,C  33,C  32,C  21)   -179.83  0.000003   -0.01   -179.84   
   367. D(C  34,C  33,C  32,H  59)   -179.84 -0.000004    0.02   -179.81   
   368. D(C  34,C  33,C  32,C  21)      0.24 -0.000000    0.00      0.24   
   369. D(H  61,C  34,C  33,H  60)      0.18 -0.000000    0.00      0.19   
   370. D(H  61,C  34,C  33,C  32)   -179.88  0.000003   -0.01   -179.89   
   371. D(C  35,C  34,C  33,H  60)   -179.53 -0.000006    0.02   -179.51   
   372. D(C  35,C  34,C  33,C  32)      0.40 -0.000003    0.01      0.41   
   373. D(H  62,C  35,C  34,H  61)     -0.14  0.000003   -0.01     -0.15   
   374. D(H  62,C  35,C  34,C  33)    179.57  0.000008   -0.02    179.55   
   375. D(C  22,C  35,C  34,H  61)    179.87 -0.000006    0.01    179.88   
   376. D(C  22,C  35,C  34,C  33)     -0.41 -0.000000   -0.00     -0.42   
   377. D(H  62,C  35,C  22,S  23)     -0.71  0.000007   -0.03     -0.74   
   378. D(H  62,C  35,C  22,C  21)    179.81 -0.000002    0.01    179.81   
   379. D(C  34,C  35,C  22,S  23)    179.28  0.000015   -0.05    179.23   
   380. D(C  34,C  35,C  22,C  21)     -0.21  0.000006   -0.01     -0.22   
   381. D(H  63,C  36,C  24,C  25)    179.84  0.000005   -0.02    179.82   
   382. D(H  63,C  36,C  24,S  23)     -0.51  0.000009   -0.04     -0.56   
   383. D(C  37,C  36,C  24,C  25)     -0.26  0.000001   -0.01     -0.27   
   384. D(C  37,C  36,C  24,S  23)    179.39  0.000005   -0.03    179.35   
   385. D(H  64,C  37,C  36,H  63)     -0.13  0.000003   -0.01     -0.14   
   386. D(H  64,C  37,C  36,C  24)    179.96  0.000007   -0.02    179.95   
   387. D(C  38,C  37,C  36,H  63)    179.59  0.000004   -0.02    179.56   
   388. D(C  38,C  37,C  36,C  24)     -0.32  0.000008   -0.03     -0.35   
   389. D(H  65,C  38,C  37,H  64)      0.17 -0.000005    0.02      0.19   
   390. D(H  65,C  38,C  37,C  36)   -179.55 -0.000006    0.03   -179.51   
   391. D(C  39,C  38,C  37,H  64)   -179.91 -0.000005    0.01   -179.90   
   392. D(C  39,C  38,C  37,C  36)      0.37 -0.000006    0.03      0.40   
   393. D(H  66,C  39,C  38,H  65)      0.06 -0.000004    0.01      0.07   
   394. D(H  66,C  39,C  38,C  37)   -179.86 -0.000004    0.01   -179.85   
   395. D(C  25,C  39,C  38,H  65)   -179.93 -0.000005    0.01   -179.91   
   396. D(C  25,C  39,C  38,C  37)      0.16 -0.000005    0.02      0.18   
   397. D(H  66,C  39,C  25,C  24)    179.30  0.000013   -0.05    179.25   
   398. D(H  66,C  39,C  25,N  20)     -0.69  0.000008   -0.06     -0.75   
   399. D(C  38,C  39,C  25,C  24)     -0.71  0.000014   -0.06     -0.77   
   400. D(C  38,C  39,C  25,N  20)    179.29  0.000009   -0.07    179.23   
   401. D(H  67,C  40,C  30,C  31)   -178.70  0.000003   -0.01   -178.72   
   402. D(H  67,C  40,C  30,S  29)      5.90 -0.000006    0.04      5.94   
   403. D(C  41,C  40,C  30,C  31)      2.69 -0.000006    0.02      2.72   
   404. D(C  41,C  40,C  30,S  29)   -172.70 -0.000014    0.07   -172.63   
   405. D(H  68,C  41,C  40,H  67)     -0.04 -0.000003    0.02     -0.02   
   406. D(H  68,C  41,C  40,C  30)    178.54  0.000006   -0.02    178.53   
   407. D(C  42,C  41,C  40,H  67)   -179.75 -0.000007    0.03   -179.72   
   408. D(C  42,C  41,C  40,C  30)     -1.17  0.000002   -0.00     -1.17   
   409. D(H  69,C  42,C  41,H  68)     -0.22  0.000001   -0.00     -0.22   
   410. D(H  69,C  42,C  41,C  40)    179.50  0.000005   -0.02    179.47   
   411. D(C  43,C  42,C  41,H  68)    179.46 -0.000002    0.01    179.47   
   412. D(C  43,C  42,C  41,C  40)     -0.83  0.000002   -0.01     -0.84   
   413. D(H  70,C  43,C  42,H  69)     -0.25  0.000008   -0.03     -0.28   
   414. D(H  70,C  43,C  42,C  41)   -179.93  0.000011   -0.04   -179.98   
   415. D(C  31,C  43,C  42,H  69)   -178.99 -0.000007    0.01   -178.98   
   416. D(C  31,C  43,C  42,C  41)      1.33 -0.000004    0.00      1.33   
   417. D(H  70,C  43,C  31,C  30)   -178.56 -0.000015    0.07   -178.50   
   418. D(H  70,C  43,C  31,N  26)      0.40  0.000001   -0.01      0.39   
   419. D(C  42,C  43,C  31,C  30)      0.17  0.000000    0.02      0.19   
   420. D(C  42,C  43,C  31,N  26)    179.13  0.000016   -0.06    179.08   
   421. D(H  71,C  44,C  27,C  28)    177.92 -0.000023    0.11    178.03   
   422. D(H  71,C  44,C  27,N  26)     -0.78  0.000014   -0.02     -0.80   
   423. D(C  45,C  44,C  27,C  28)     -0.76 -0.000003    0.05     -0.70   
   424. D(C  45,C  44,C  27,N  26)   -179.46  0.000034   -0.08   -179.53   
   425. D(H  72,C  45,C  44,H  71)      0.43  0.000017   -0.06      0.37   
   426. D(H  72,C  45,C  44,C  27)    179.12 -0.000002   -0.00    179.11   
   427. D(C  46,C  45,C  44,H  71)   -179.86  0.000019   -0.08   -179.94   
   428. D(C  46,C  45,C  44,C  27)     -1.18  0.000001   -0.02     -1.20   
   429. D(H  73,C  46,C  45,H  72)      0.36  0.000006   -0.02      0.34   
   430. D(H  73,C  46,C  45,C  44)   -179.34  0.000004   -0.00   -179.35   
   431. D(C  47,C  46,C  45,H  72)   -179.16  0.000004   -0.04   -179.21   
   432. D(C  47,C  46,C  45,C  44)      1.13  0.000002   -0.03      1.11   
   433. D(H  74,C  47,C  46,H  73)     -0.20 -0.000009    0.03     -0.17   
   434. D(H  74,C  47,C  46,C  45)    179.33 -0.000007    0.06    179.38   
   435. D(C  28,C  47,C  46,H  73)   -178.67 -0.000005    0.02   -178.65   
   436. D(C  28,C  47,C  46,C  45)      0.86 -0.000003    0.04      0.90   
   437. D(H  74,C  47,C  28,S  29)     -6.35 -0.000014    0.06     -6.29   
   438. D(H  74,C  47,C  28,C  27)    178.67  0.000004   -0.02    178.65   
   439. D(C  46,C  47,C  28,S  29)    172.14 -0.000017    0.08    172.22   
   440. D(C  46,C  47,C  28,C  27)     -2.84  0.000001   -0.00     -2.84   
    ----------------------------------------------------------------------------
                 *******************************************************
                 *** FINAL ENERGY EVALUATION AT THE STATIONARY POINT ***
                 ***               (AFTER    3 CYCLES)               ***
                 *******************************************************
---------------------------------
CARTESIAN COORDINATES (ANGSTROEM)
---------------------------------
  C     -5.214865    0.001601   -0.053188
  C     -5.915926    0.299701    1.103259
  C     -7.295038    0.327309    1.087747
  C     -7.992131    0.046012   -0.083466
  C     -7.281065   -0.256726   -1.238834
  C     -5.899956   -0.271202   -1.223903
  S     -9.746924    0.092686   -0.019403
  N     -3.794000   -0.009280   -0.037370
  C     -2.997578   -1.124123   -0.050935
  C     -1.643490   -0.725857   -0.005735
  C     -1.638450    0.713342    0.019697
  C     -2.982365    1.113757    0.003620
  C     -0.648753   -1.688297    0.011022
  C     -1.026024   -3.013622   -0.033870
  C     -2.360310   -3.406846   -0.093713
  C     -3.364613   -2.462387   -0.097221
  C     -3.345715    2.451235    0.006907
  C     -2.330482    3.382486    0.016739
  C     -0.985591    3.003521    0.020134
  C     -0.633456    1.670404    0.024556
  N     -0.001059   -4.033673   -0.011687
  C      0.309446   -4.600204    1.210515
  C      1.286174   -5.604064    1.349601
  S      2.216586   -6.208671    0.042902
  C      1.616635   -5.333623   -1.303499
  C      0.593176   -4.371735   -1.213029
  N      0.003942    4.026618   -0.015144
  C      0.685650    4.347795    1.176344
  C      1.458366    5.508009    1.247361
  S      1.451060    6.660019   -0.078793
  C      1.286794    5.541397   -1.422397
  C      0.534689    4.375358   -1.275526
  C     -0.361351   -4.172692    2.370303
  C     -0.081590   -4.730860    3.586866
  C      0.880968   -5.736729    3.712087
  C      1.557785   -6.162063    2.602944
  C      2.202620   -5.633487   -2.537414
  C      1.785348   -4.999876   -3.674736
  C      0.760668   -4.052274   -3.597706
  C      0.175860   -3.744573   -2.400562
  C      1.829363    5.878530   -2.649469
  C      1.591266    5.097470   -3.766243
  C      0.821983    3.958551   -3.636094
  C      0.309847    3.592341   -2.402895
  C      0.595389    3.549098    2.311022
  C      1.265795    3.888154    3.474342
  C      2.059523    5.016586    3.523690
  C      2.157602    5.817702    2.400057
  H     -5.376590    0.516441    2.015518
  H     -7.836321    0.567775    1.993008
  H     -7.804581   -0.472778   -2.159926
  H     -5.348718   -0.489320   -2.128816
  H     -9.964717   -0.167446   -1.313361
  H      0.397598   -1.415615    0.056110
  H     -2.605316   -4.459782   -0.128891
  H     -4.403546   -2.756450   -0.134986
  H     -4.382957    2.753339   -0.006543
  H     -2.560340    4.438879    0.011182
  H      0.412130    1.392091    0.018581
  H     -1.104325   -3.396821    2.295405
  H     -0.614393   -4.384724    4.461211
  H      1.093263   -6.172396    4.677787
  H      2.311512   -6.934402    2.680905
  H      2.989477   -6.375051   -2.577736
  H      2.241968   -5.234621   -4.625415
  H      0.421067   -3.553766   -4.494524
  H     -0.613891   -3.013512   -2.361922
  H      2.425469    6.778068   -2.727572
  H      2.000151    5.382472   -4.725239
  H      0.616579    3.338403   -4.498156
  H     -0.287987    2.698215   -2.326020
  H     -0.019289    2.663211    2.298058
  H      1.164526    3.254599    4.345143
  H      2.592917    5.279380    4.426199
  H      2.765509    6.712532    2.417520

----------------------------
CARTESIAN COORDINATES (A.U.)
----------------------------
  NO LB      ZA    FRAG     MASS         X           Y           Z
   0 C     6.0000    0    12.011   -9.854667    0.003025   -0.100510
   1 C     6.0000    0    12.011  -11.179481    0.566353    2.084857
   2 C     6.0000    0    12.011  -13.785623    0.618525    2.055544
   3 C     6.0000    0    12.011  -15.102940    0.086950   -0.157727
   4 C     6.0000    0    12.011  -13.759219   -0.485143   -2.341056
   5 C     6.0000    0    12.011  -11.149301   -0.512498   -2.312841
   6 S    16.0000    0    32.060  -18.419016    0.175151   -0.036667
   7 N     7.0000    0    14.007   -7.169621   -0.017537   -0.070619
   8 C     6.0000    0    12.011   -5.664602   -2.124284   -0.096254
   9 C     6.0000    0    12.011   -3.105745   -1.371671   -0.010837
  10 C     6.0000    0    12.011   -3.096223    1.348022    0.037222
  11 C     6.0000    0    12.011   -5.635853    2.104696    0.006841
  12 C     6.0000    0    12.011   -1.225966   -3.190419    0.020829
  13 C     6.0000    0    12.011   -1.938905   -5.694921   -0.064005
  14 C     6.0000    0    12.011   -4.460339   -6.438007   -0.177092
  15 C     6.0000    0    12.011   -6.358198   -4.653237   -0.183721
  16 C     6.0000    0    12.011   -6.322485    4.632163    0.013053
  17 C     6.0000    0    12.011   -4.403972    6.391973    0.031632
  18 C     6.0000    0    12.011   -1.862497    5.675832    0.038048
  19 C     6.0000    0    12.011   -1.197057    3.156606    0.046405
  20 N     7.0000    0    14.007   -0.002002   -7.622537   -0.022085
  21 C     6.0000    0    12.011    0.584768   -8.693127    2.287541
  22 C     6.0000    0    12.011    2.430517  -10.590147    2.550377
  23 S    16.0000    0    32.060    4.188741  -11.732688    0.081074
  24 C     6.0000    0    12.011    3.054997  -10.079087   -2.463257
  25 C     6.0000    0    12.011    1.120939   -8.261382   -2.292293
  26 N     7.0000    0    14.007    0.007449    7.609205   -0.028617
  27 C     6.0000    0    12.011    1.295690    8.216143    2.222968
  28 C     6.0000    0    12.011    2.755913   10.408629    2.357171
  29 S    16.0000    0    32.060    2.742106   12.585612   -0.148897
  30 C     6.0000    0    12.011    2.431688   10.471723   -2.687941
  31 C     6.0000    0    12.011    1.010416    8.268228   -2.410396
  32 C     6.0000    0    12.011   -0.682854   -7.885245    4.479223
  33 C     6.0000    0    12.011   -0.154183   -8.940029    6.778195
  34 C     6.0000    0    12.011    1.664788  -10.840847    7.014828
  35 C     6.0000    0    12.011    2.943786  -11.644612    4.918852
  36 C     6.0000    0    12.011    4.162349  -10.645747   -4.795018
  37 C     6.0000    0    12.011    3.373818   -9.448396   -6.944245
  38 C     6.0000    0    12.011    1.437454   -7.657687   -6.798679
  39 C     6.0000    0    12.011    0.332327   -7.076218   -4.536405
  40 C     6.0000    0    12.011    3.456996   11.108812   -5.006771
  41 C     6.0000    0    12.011    3.007058    9.632822   -7.117168
  42 C     6.0000    0    12.011    1.553324    7.480578   -6.871223
  43 C     6.0000    0    12.011    0.585526    6.788540   -4.540813
  44 C     6.0000    0    12.011    1.125123    6.706822    4.367199
  45 C     6.0000    0    12.011    2.392005    7.347546    6.565555
  46 C     6.0000    0    12.011    3.891934    9.479973    6.658809
  47 C     6.0000    0    12.011    4.077277   10.993863    4.535449
  48 H     1.0000    0     1.008  -10.160283    0.975933    3.808777
  49 H     1.0000    0     1.008  -14.808501    1.072940    3.766239
  50 H     1.0000    0     1.008  -14.748521   -0.893420   -4.081668
  51 H     1.0000    0     1.008  -10.107612   -0.924681   -4.022879
  52 H     1.0000    0     1.008  -18.830586   -0.316428   -2.481893
  53 H     1.0000    0     1.008    0.751351   -2.675125    0.106032
  54 H     1.0000    0     1.008   -4.923334   -8.427767   -0.243569
  55 H     1.0000    0     1.008   -8.321497   -5.208936   -0.255087
  56 H     1.0000    0     1.008   -8.282589    5.203057   -0.012364
  57 H     1.0000    0     1.008   -4.838341    8.388266    0.021131
  58 H     1.0000    0     1.008    0.778812    2.630671    0.035113
  59 H     1.0000    0     1.008   -2.086872   -6.419061    4.337688
  60 H     1.0000    0     1.008   -1.161034   -8.285928    8.430467
  61 H     1.0000    0     1.008    2.065967  -11.664138    8.839736
  62 H     1.0000    0     1.008    4.368124  -13.104121    5.066176
  63 H     1.0000    0     1.008    5.649293  -12.047101   -4.871215
  64 H     1.0000    0     1.008    4.236706   -9.892001   -8.740769
  65 H     1.0000    0     1.008    0.795701   -6.715645   -8.493419
  66 H     1.0000    0     1.008   -1.160085   -5.694713   -4.463385
  67 H     1.0000    0     1.008    4.583471   12.808692   -5.154363
  68 H     1.0000    0     1.008    3.779737   10.171399   -8.929408
  69 H     1.0000    0     1.008    1.165165    6.308667   -8.500282
  70 H     1.0000    0     1.008   -0.544216    5.098887   -4.395541
  71 H     1.0000    0     1.008   -0.036451    5.032740    4.342701
  72 H     1.0000    0     1.008    2.200635    6.150301    8.211130
  73 H     1.0000    0     1.008    4.899902    9.976583    8.364304
  74 H     1.0000    0     1.008    5.226054   12.684847    4.568451

--------------------------------
INTERNAL COORDINATES (ANGSTROEM)
--------------------------------
 C      0   0   0     0.000000000000     0.00000000     0.00000000
 C      1   0   0     1.384817267433     0.00000000     0.00000000
 C      2   1   0     1.379474725743   120.06834416     0.00000000
 C      3   2   1     1.391691981156   120.40988852     0.52953433
 C      4   3   2     1.390014818279   119.16302923   359.69135786
 C      5   4   3     1.381265519347   120.31759066   359.68749467
 S      4   3   2     1.756581426944   117.66646393   179.65302406
 N      1   2   3     1.420994894732   119.90443330   179.20470231
 C      8   1   2     1.370162505882   125.96759560   105.27751308
 C      9   8   1     1.412166827268   109.12115889   180.93846874
 C     10   9   8     1.439433007999   106.61272783   359.27259983
 C      8   1   2     1.386233978777   125.42021772   285.73940782
 C     10   9   8     1.384222393571   119.56216768   179.00601176
 C     13  10   9     1.378708269148   118.12081117     0.77161229
 C     14  13  10     1.392308771862   122.35252634   359.94984285
 C     15  14  13     1.378637597939   120.31446979   359.37681274
 C     12   8   1     1.385958342774   128.92999043   358.38305378
 C     17  12   8     1.377688285730   117.33110870   181.67856114
 C     18  17  12     1.397267884615   121.73381967     0.14751907
 C     19  18  17     1.378847009088   120.53351802   359.47412826
 N     14  13  10     1.446218399739   118.91937392   180.25157516
 C     21  14  13     1.382442880059   117.50257581    95.94242724
 C     22  21  14     1.407508001135   122.37832413   179.76885472
 S     23  22  21     1.714257309879   123.56339428     1.38720064
 C     24  23  22     1.714190534054   103.22115287   358.80752237
 C     21  14  13     1.382253399375   117.63600300   275.81353318
 N     19  18  17     1.423779116487   118.29423700   177.91787698
 C     27  19  18     1.409795528169   118.60932171   103.36778135
 C     28  27  19     1.395790237593   120.00431076   192.80481278
 S     29  28  27     1.756662917708   120.29145843     6.55408157
 C     30  29  28     1.756010140180    99.22209782   325.34036781
 C     31  30  29     1.395306381405   120.14807655    34.22470197
 C     22  21  14     1.406358133863   119.82675361   359.71217836
 C     33  22  21     1.367422444979   120.79885339   179.19626381
 C     34  33  22     1.397845046081   120.95113799     0.24376407
 C     35  34  33     1.367182558785   119.47736231     0.40977607
 C     25  24  23     1.398514766696   115.90619696   180.32939960
 C     37  25  24     1.367143099839   120.44604243   179.35467287
 C     38  37  25     1.397802891118   119.47773014   359.65202021
 C     39  38  37     1.367418484051   120.95109157     0.39819910
 C     31  30  29     1.383381792608   119.12772604   209.58820069
 C     41  31  30     1.383448509714   120.72648119   187.37194018
 C     42  41  31     1.380532918803   119.04958340   358.82750042
 C     43  42  41     1.384620851343   120.54851949   359.16321135
 C     28  27  19     1.390525226589   121.83024398    11.61282884
 C     45  28  27     1.384816055837   120.89282081   180.46628181
 C     46  45  28     1.380505954660   120.56415694   358.80232285
 C     29  28  27     1.383309993212   120.55240241   181.54979933
 H      2   1   3     1.081701105015   119.66940723   180.38190565
 H      3   2   1     1.081808391035   119.68677070   180.43137865
 H      5   4   3     1.081275907320   120.25820927   180.33430115
 H      6   5   4     1.081807123732   120.16994253   181.12332378
 H      7   4   3     1.337695466379    97.01920413   177.47595871
 H     13  10   9     1.082237948971   121.33981878   180.65792690
 H     15  14  13     1.081637372167   119.56456451   179.90291379
 H     16  15  14     1.080407755024   120.93995508   180.52034172
 H     17  12   8     1.080425571370   121.43242226     1.14956868
 H     18  17  12     1.081125097106   120.25022928   179.47897394
 H     20  19  18     1.082008226669   119.69990950   179.47765972
 H     33  22  21     1.076845360715   119.39021889   359.25420808
 H     34  33  22     1.080817908250   119.21832609   180.16350216
 H     35  34  33     1.080486049274   120.36512328   180.10767376
 H     36  35  34     1.081984448939   120.56214619   179.54972211
 H     37  25  24     1.081983112925   118.98309979   359.44377355
 H     38  37  25     1.080462265210   120.15161177   179.94831593
 H     39  38  37     1.080796322604   119.82132159   180.48638820
 H     40  39  38     1.076869743589   119.85596665   180.15362682
 H     41  31  30     1.081947104974   118.86411583     5.94046283
 H     42  41  31     1.080780254731   120.15154589   178.52581396
 H     43  42  41     1.081630522670   120.24413909   179.47303675
 H     44  43  42     1.078321088718   119.20029528   180.02411007
 H     45  28  27     1.078328371373   119.93845926   359.19902382
 H     46  45  28     1.081637925043   119.18103264   179.11108378
 H     47  46  45     1.080783350780   120.82101113   180.65419534
 H     48  29  28     1.081932113810   118.85712288   178.65280726

---------------------------
INTERNAL COORDINATES (A.U.)
---------------------------
 C      0   0   0     0.000000000000     0.00000000     0.00000000
 C      1   0   0     2.616925380973     0.00000000     0.00000000
 C      2   1   0     2.606829440320   120.06834416     0.00000000
 C      3   2   1     2.629916707159   120.40988852     0.52953433
 C      4   3   2     2.626747328639   119.16302923   359.69135786
 C      5   4   3     2.610213549794   120.31759066   359.68749467
 S      4   3   2     3.319457828857   117.66646393   179.65302406
 N      1   2   3     2.685291188743   119.90443330   179.20470231
 C      8   1   2     2.589231895084   125.96759560   105.27751308
 C      9   8   1     2.668608558945   109.12115889   180.93846874
 C     10   9   8     2.720134173244   106.61272783   359.27259983
 C      8   1   2     2.619602577424   125.42021772   285.73940782
 C     10   9   8     2.615801232290   119.56216768   179.00601176
 C     13  10   9     2.605381047262   118.12081117     0.77161229
 C     14  13  10     2.631082272675   122.35252634   359.94984285
 C     15  14  13     2.605247498031   120.31446979   359.37681274
 C     12   8   1     2.619081700865   128.92999043   358.38305378
 C     17  12   8     2.603453557942   117.33110870   181.67856114
 C     18  17  12     2.640453637645   121.73381967     0.14751907
 C     19  18  17     2.605643227754   120.53351802   359.47412826
 N     14  13  10     2.732956705344   118.91937392   180.25157516
 C     21  14  13     2.612438439100   117.50257581    95.94242724
 C     22  21  14     2.659804653448   122.37832413   179.76885472
 S     23  22  21     3.239476838744   123.56339428     1.38720064
 C     24  23  22     3.239350650722   103.22115287   358.80752237
 C     21  14  13     2.612080372500   117.63600300   275.81353318
 N     19  18  17     2.690552605356   118.29423700   177.91787698
 C     27  19  18     2.664127453066   118.60932171   103.36778135
 C     28  27  19     2.637661289451   120.00431076   192.80481278
 S     29  28  27     3.319611824083   120.29145843     6.55408157
 C     30  29  28     3.318378253328    99.22209782   325.34036781
 C     31  30  29     2.636746933768   120.14807655    34.22470197
 C     22  21  14     2.657631719213   119.82675361   359.71217836
 C     33  22  21     2.584053930387   120.79885339   179.19626381
 C     34  33  22     2.641544314752   120.95113799     0.24376407
 C     35  34  33     2.583600611177   119.47736231     0.40977607
 C     25  24  23     2.642809903299   115.90619696   180.32939960
 C     37  25  24     2.583526044576   120.44604243   179.35467287
 C     38  37  25     2.641464653416   119.47773014   359.65202021
 C     39  38  37     2.584046445318   120.95109157     0.39819910
 C     31  30  29     2.614212726682   119.12772604   209.58820069
 C     41  31  30     2.614338803740   120.72648119   187.37194018
 C     42  41  31     2.608829135401   119.04958340   358.82750042
 C     43  42  41     2.616554208356   120.54851949   359.16321135
 C     28  27  19     2.627711860562   121.83024398    11.61282884
 C     45  28  27     2.616923091389   120.89282081   180.46628181
 C     46  45  28     2.608778180555   120.56415694   358.80232285
 C     29  28  27     2.614077045488   120.55240241   181.54979933
 H      2   1   3     2.044118847239   119.66940723   180.38190565
 H      3   2   1     2.044321588434   119.68677070   180.43137865
 H      5   4   3     2.043315340042   120.25820927   180.33430115
 H      6   5   4     2.044319193579   120.16994253   181.12332378
 H      7   4   3     2.527878082044    97.01920413   177.47595871
 H     13  10   9     2.045133335293   121.33981878   180.65792690
 H     15  14  13     2.043998409609   119.56456451   179.90291379
 H     16  15  14     2.041674769959   120.93995508   180.52034172
 H     17  12   8     2.041708437975   121.43242226     1.14956868
 H     18  17  12     2.043030350040   120.25022928   179.47897394
 H     20  19  18     2.044699223054   119.69990950   179.47765972
 H     33  22  21     2.034942820335   119.39021889   359.25420808
 H     34  33  22     2.042449847230   119.21832609   180.16350216
 H     35  34  33     2.041822724650   120.36512328   180.10767376
 H     36  35  34     2.044654289657   120.56214619   179.54972211
 H     37  25  24     2.044651764957   118.98309979   359.44377355
 H     38  37  25     2.041777779282   120.15161177   179.94831593
 H     39  38  37     2.042409056271   119.82132159   180.48638820
 H     40  39  38     2.034988897290   119.85596665   180.15362682
 H     41  31  30     2.044583719790   118.86411583     5.94046283
 H     42  41  31     2.042378692390   120.15154589   178.52581396
 H     43  42  41     2.043985465936   120.24413909   179.47303675
 H     44  43  42     2.037731542108   119.20029528   180.02411007
 H     45  28  27     2.037745304332   119.93845926   359.19902382
 H     46  45  28     2.043999454395   119.18103264   179.11108378
 H     47  46  45     2.042384543075   120.82101113   180.65419534
 H     48  29  28     2.044555390595   118.85712288   178.65280726

---------------------
BASIS SET INFORMATION
---------------------
There are 4 groups of distinct atoms

 Group   1 Type C   : 11s6p2d1f contracted to 5s3p2d1f pattern {62111/411/11/1}
 Group   2 Type S   : 14s9p3d1f contracted to 5s5p2d1f pattern {73211/51111/21/1}
 Group   3 Type N   : 11s6p2d1f contracted to 5s3p2d1f pattern {62111/411/11/1}
 Group   4 Type H   : 5s1p contracted to 3s1p pattern {311/1}

Atom   0C    basis set group =>   1
Atom   1C    basis set group =>   1
Atom   2C    basis set group =>   1
Atom   3C    basis set group =>   1
Atom   4C    basis set group =>   1
Atom   5C    basis set group =>   1
Atom   6S    basis set group =>   2
Atom   7N    basis set group =>   3
Atom   8C    basis set group =>   1
Atom   9C    basis set group =>   1
Atom  10C    basis set group =>   1
Atom  11C    basis set group =>   1
Atom  12C    basis set group =>   1
Atom  13C    basis set group =>   1
Atom  14C    basis set group =>   1
Atom  15C    basis set group =>   1
Atom  16C    basis set group =>   1
Atom  17C    basis set group =>   1
Atom  18C    basis set group =>   1
Atom  19C    basis set group =>   1
Atom  20N    basis set group =>   3
Atom  21C    basis set group =>   1
Atom  22C    basis set group =>   1
Atom  23S    basis set group =>   2
Atom  24C    basis set group =>   1
Atom  25C    basis set group =>   1
Atom  26N    basis set group =>   3
Atom  27C    basis set group =>   1
Atom  28C    basis set group =>   1
Atom  29S    basis set group =>   2
Atom  30C    basis set group =>   1
Atom  31C    basis set group =>   1
Atom  32C    basis set group =>   1
Atom  33C    basis set group =>   1
Atom  34C    basis set group =>   1
Atom  35C    basis set group =>   1
Atom  36C    basis set group =>   1
Atom  37C    basis set group =>   1
Atom  38C    basis set group =>   1
Atom  39C    basis set group =>   1
Atom  40C    basis set group =>   1
Atom  41C    basis set group =>   1
Atom  42C    basis set group =>   1
Atom  43C    basis set group =>   1
Atom  44C    basis set group =>   1
Atom  45C    basis set group =>   1
Atom  46C    basis set group =>   1
Atom  47C    basis set group =>   1
Atom  48H    basis set group =>   4
Atom  49H    basis set group =>   4
Atom  50H    basis set group =>   4
Atom  51H    basis set group =>   4
Atom  52H    basis set group =>   4
Atom  53H    basis set group =>   4
Atom  54H    basis set group =>   4
Atom  55H    basis set group =>   4
Atom  56H    basis set group =>   4
Atom  57H    basis set group =>   4
Atom  58H    basis set group =>   4
Atom  59H    basis set group =>   4
Atom  60H    basis set group =>   4
Atom  61H    basis set group =>   4
Atom  62H    basis set group =>   4
Atom  63H    basis set group =>   4
Atom  64H    basis set group =>   4
Atom  65H    basis set group =>   4
Atom  66H    basis set group =>   4
Atom  67H    basis set group =>   4
Atom  68H    basis set group =>   4
Atom  69H    basis set group =>   4
Atom  70H    basis set group =>   4
Atom  71H    basis set group =>   4
Atom  72H    basis set group =>   4
Atom  73H    basis set group =>   4
Atom  74H    basis set group =>   4
---------------------------------
AUXILIARY/J BASIS SET INFORMATION
---------------------------------
There are 4 groups of distinct atoms

 Group   1 Type C   : 12s5p4d2f1g contracted to 6s4p3d1f1g pattern {711111/2111/211/2/1}
 Group   2 Type S   : 14s5p5d2f1g contracted to 8s4p3d1f1g pattern {71111111/2111/311/2/1}
 Group   3 Type N   : 12s5p4d2f1g contracted to 6s4p3d1f1g pattern {711111/2111/211/2/1}
 Group   4 Type H   : 5s2p1d contracted to 3s1p1d pattern {311/2/1}

Atom   0C    basis set group =>   1
Atom   1C    basis set group =>   1
Atom   2C    basis set group =>   1
Atom   3C    basis set group =>   1
Atom   4C    basis set group =>   1
Atom   5C    basis set group =>   1
Atom   6S    basis set group =>   2
Atom   7N    basis set group =>   3
Atom   8C    basis set group =>   1
Atom   9C    basis set group =>   1
Atom  10C    basis set group =>   1
Atom  11C    basis set group =>   1
Atom  12C    basis set group =>   1
Atom  13C    basis set group =>   1
Atom  14C    basis set group =>   1
Atom  15C    basis set group =>   1
Atom  16C    basis set group =>   1
Atom  17C    basis set group =>   1
Atom  18C    basis set group =>   1
Atom  19C    basis set group =>   1
Atom  20N    basis set group =>   3
Atom  21C    basis set group =>   1
Atom  22C    basis set group =>   1
Atom  23S    basis set group =>   2
Atom  24C    basis set group =>   1
Atom  25C    basis set group =>   1
Atom  26N    basis set group =>   3
Atom  27C    basis set group =>   1
Atom  28C    basis set group =>   1
Atom  29S    basis set group =>   2
Atom  30C    basis set group =>   1
Atom  31C    basis set group =>   1
Atom  32C    basis set group =>   1
Atom  33C    basis set group =>   1
Atom  34C    basis set group =>   1
Atom  35C    basis set group =>   1
Atom  36C    basis set group =>   1
Atom  37C    basis set group =>   1
Atom  38C    basis set group =>   1
Atom  39C    basis set group =>   1
Atom  40C    basis set group =>   1
Atom  41C    basis set group =>   1
Atom  42C    basis set group =>   1
Atom  43C    basis set group =>   1
Atom  44C    basis set group =>   1
Atom  45C    basis set group =>   1
Atom  46C    basis set group =>   1
Atom  47C    basis set group =>   1
Atom  48H    basis set group =>   4
Atom  49H    basis set group =>   4
Atom  50H    basis set group =>   4
Atom  51H    basis set group =>   4
Atom  52H    basis set group =>   4
Atom  53H    basis set group =>   4
Atom  54H    basis set group =>   4
Atom  55H    basis set group =>   4
Atom  56H    basis set group =>   4
Atom  57H    basis set group =>   4
Atom  58H    basis set group =>   4
Atom  59H    basis set group =>   4
Atom  60H    basis set group =>   4
Atom  61H    basis set group =>   4
Atom  62H    basis set group =>   4
Atom  63H    basis set group =>   4
Atom  64H    basis set group =>   4
Atom  65H    basis set group =>   4
Atom  66H    basis set group =>   4
Atom  67H    basis set group =>   4
Atom  68H    basis set group =>   4
Atom  69H    basis set group =>   4
Atom  70H    basis set group =>   4
Atom  71H    basis set group =>   4
Atom  72H    basis set group =>   4
Atom  73H    basis set group =>   4
Atom  74H    basis set group =>   4


           ************************************************************
           *        Program running with 36 parallel MPI-processes    *
           *              working on a shared directory               *
           ************************************************************
------------------------------------------------------------------------------
                           ORCA GTO INTEGRAL CALCULATION
                           -- RI-GTO INTEGRALS CHOSEN --
------------------------------------------------------------------------------
------------------------------------------------------------------------------
                   ___                                                        
                  /   \      - P O W E R E D   B Y -                         
                 /     \                                                     
                 |  |  |   _    _      __       _____    __    __             
                 |  |  |  | |  | |    /  \     |  _  \  |  |  /  |          
                  \  \/   | |  | |   /    \    | | | |  |  | /  /          
                 / \  \   | |__| |  /  /\  \   | |_| |  |  |/  /          
                |  |  |   |  __  | /  /__\  \  |    /   |      \           
                |  |  |   | |  | | |   __   |  |    \   |  |\   \          
                \     /   | |  | | |  |  |  |  | |\  \  |  | \   \       
                 \___/    |_|  |_| |__|  |__|  |_| \__\ |__|  \__/        
                                                                              
                      - O R C A' S   B I G   F R I E N D -                    
                                      &                                       
                       - I N T E G R A L  F E E D E R -                       
                                                                              
 v1 FN, 2020, v2 2021                                                         
------------------------------------------------------------------------------


Reading SHARK input file Combo6_Cf1tc_-0.43404_0.43404_ck0.SHARKINP.tmp ... ok
----------------------
SHARK INTEGRAL PACKAGE
----------------------

Number of atoms                             ...     75
Number of basis functions                   ...   1668
Number of shells                            ...    642
Maximum angular momentum                    ...      3
Integral batch strategy                     ... SHARK/LIBINT Hybrid
RI-J (if used) integral strategy            ... SPLIT-RIJ (Revised 2003 algorithm where possible)
Printlevel                                  ...      1
Contraction scheme used                     ... SEGMENTED contraction
Coulomb Range Separation                    ... NOT USED
Exchange Range Separation                   ... Long Range
   Mu parameter                             ...  0.330000
   Scaling (regular/separated)              ...  0.190000  0.460000
Finite Nucleus Model                        ... NOT USED
Auxiliary Coulomb fitting basis             ... AVAILABLE
   # of basis functions in Aux-J            ...   2655
   # of shells in Aux-J                     ...    861
   Maximum angular momentum in Aux-J        ...      4
Auxiliary J/K fitting basis                 ... NOT available
Auxiliary Correlation fitting basis         ... NOT available
Auxiliary 'external' fitting basis          ... NOT available
Integral threshold                          ...     2.500000e-11
Primitive cut-off                           ...     2.500000e-12
Primitive pair pre-selection threshold      ...     2.500000e-12

Calculating pre-screening integrals         ... done (  0.1 sec) Dimension = 642
Organizing shell pair data                  ... done (  1.0 sec)
Shell pair information
Total number of shell pairs                 ...    206403
Shell pairs after pre-screening             ...     97007
Total number of primitive shell pairs       ...    654975
Primitive shell pairs kept                  ...    187727
          la=0 lb=0:  23323 shell pairs
          la=1 lb=0:  28752 shell pairs
          la=1 lb=1:   8811 shell pairs
          la=2 lb=0:  13531 shell pairs
          la=2 lb=1:   8364 shell pairs
          la=2 lb=2:   1941 shell pairs
          la=3 lb=0:   6177 shell pairs
          la=3 lb=1:   3930 shell pairs
          la=3 lb=2:   1755 shell pairs
          la=3 lb=3:    423 shell pairs

Reading point charge file                   ... ok (4 point charges)
Calculating one electron integrals          ... done (  0.2 sec)
Calculating RI/J V-Matrix + Cholesky decomp.... done (  0.7 sec)
Calculating Nuclear repulsion               ... (+Point charges) done (  0.0 sec) ENN=   5969.854108680363 Eh

SHARK setup successfully completed in   3.0 seconds

Maximum memory used throughout the entire GTOINT-calculation: 161.0 MB
ENUC WAS=  0.000000000
ENUC IS =  0.000000000
n1225:rank34.orca_scf_mpi: Failed to modify UD QP to INIT on mlx5_0: Operation not permitted
n1225:rank33.orca_scf_mpi: Failed to modify UD QP to INIT on mlx5_0: Operation not permitted
n1225:rank32.orca_scf_mpi: Failed to modify UD QP to INIT on mlx5_0: Operation not permitted
n1225:rank35.orca_scf_mpi: Failed to modify UD QP to INIT on mlx5_0: Operation not permitted
n1225:rank34.orca_scf_mpi: Failed to modify UD QP to INIT on mlx5_0: Operation not permitted
n1225:rank34.orca_scf_mpi: Failed to modify UD QP to INIT on mlx5_0: Operation not permitted
n1225:rank35.orca_scf_mpi: Failed to modify UD QP to INIT on mlx5_0: Operation not permitted
n1225:rank32.orca_scf_mpi: Failed to modify UD QP to INIT on mlx5_0: Operation not permitted
n1220:rank11.orca_scf_mpi: Failed to modify UD QP to INIT on mlx5_0: Operation not permitted
n1225:rank33.orca_scf_mpi: Failed to modify UD QP to INIT on mlx5_0: Operation not permitted
n1225:rank35.orca_scf_mpi: Failed to modify UD QP to INIT on mlx5_0: Operation not permitted
n1225:rank32.orca_scf_mpi: Failed to modify UD QP to INIT on mlx5_0: Operation not permitted
n1225:rank33.orca_scf_mpi: Failed to modify UD QP to INIT on mlx5_0: Operation not permitted
n1220:rank11.orca_scf_mpi: Failed to modify UD QP to INIT on mlx5_0: Operation not permitted
n1220:rank11.orca_scf_mpi: Failed to modify UD QP to INIT on mlx5_0: Operation not permitted
n1220:rank3.orca_scf_mpi: Failed to modify UD QP to INIT on mlx5_0: Operation not permitted
n1220:rank3.orca_scf_mpi: Failed to modify UD QP to INIT on mlx5_0: Operation not permitted
n1220:rank3.orca_scf_mpi: Failed to modify UD QP to INIT on mlx5_0: Operation not permitted
n1225:rank34.orca_scf_mpi: Failed to modify UD QP to INIT on mlx5_0: Operation not permitted
n1225:rank35.orca_scf_mpi: Failed to modify UD QP to INIT on mlx5_0: Operation not permitted
n1225:rank32.orca_scf_mpi: Failed to modify UD QP to INIT on mlx5_0: Operation not permitted
n1220:rank7.orca_scf_mpi: Failed to modify UD QP to INIT on mlx5_0: Operation not permitted
n1225:rank33.orca_scf_mpi: Failed to modify UD QP to INIT on mlx5_0: Operation not permitted
n1220:rank7.orca_scf_mpi: Failed to modify UD QP to INIT on mlx5_0: Operation not permitted
n1220:rank7.orca_scf_mpi: Failed to modify UD QP to INIT on mlx5_0: Operation not permitted
n1220:rank29.orca_scf_mpi: Failed to modify UD QP to INIT on mlx5_0: Operation not permitted
n1220:rank27.orca_scf_mpi: Failed to modify UD QP to INIT on mlx5_0: Operation not permitted
n1220:rank29.orca_scf_mpi: Failed to modify UD QP to INIT on mlx5_0: Operation not permitted
n1220:rank11.orca_scf_mpi: Failed to modify UD QP to INIT on mlx5_0: Operation not permitted
n1220:rank29.orca_scf_mpi: Failed to modify UD QP to INIT on mlx5_0: Operation not permitted
n1220:rank27.orca_scf_mpi: Failed to modify UD QP to INIT on mlx5_0: Operation not permitted
n1220:rank3.orca_scf_mpi: Failed to modify UD QP to INIT on mlx5_0: Operation not permitted
n1220:rank27.orca_scf_mpi: Failed to modify UD QP to INIT on mlx5_0: Operation not permitted
n1220:rank7.orca_scf_mpi: Failed to modify UD QP to INIT on mlx5_0: Operation not permitted
n1220:rank12.orca_scf_mpi: Failed to modify UD QP to INIT on mlx5_0: Operation not permitted
n1220:rank22.orca_scf_mpi: Failed to modify UD QP to INIT on mlx5_0: Operation not permitted
n1220:rank13.orca_scf_mpi: Failed to modify UD QP to INIT on mlx5_0: Operation not permitted
n1220:rank29.orca_scf_mpi: Failed to modify UD QP to INIT on mlx5_0: Operation not permitted
n1220:rank27.orca_scf_mpi: Failed to modify UD QP to INIT on mlx5_0: Operation not permitted
n1220:rank22.orca_scf_mpi: Failed to modify UD QP to INIT on mlx5_0: Operation not permitted
n1220:rank12.orca_scf_mpi: Failed to modify UD QP to INIT on mlx5_0: Operation not permitted
n1220:rank13.orca_scf_mpi: Failed to modify UD QP to INIT on mlx5_0: Operation not permitted
n1220:rank22.orca_scf_mpi: Failed to modify UD QP to INIT on mlx5_0: Operation not permitted
n1220:rank12.orca_scf_mpi: Failed to modify UD QP to INIT on mlx5_0: Operation not permitted
n1220:rank13.orca_scf_mpi: Failed to modify UD QP to INIT on mlx5_0: Operation not permitted
n1220:rank6.orca_scf_mpi: Failed to modify UD QP to INIT on mlx5_0: Operation not permitted
n1220:rank6.orca_scf_mpi: Failed to modify UD QP to INIT on mlx5_0: Operation not permitted
n1220:rank6.orca_scf_mpi: Failed to modify UD QP to INIT on mlx5_0: Operation not permitted
n1220:rank22.orca_scf_mpi: Failed to modify UD QP to INIT on mlx5_0: Operation not permitted
n1220:rank12.orca_scf_mpi: Failed to modify UD QP to INIT on mlx5_0: Operation not permitted
n1220:rank13.orca_scf_mpi: Failed to modify UD QP to INIT on mlx5_0: Operation not permitted
n1220:rank6.orca_scf_mpi: Failed to modify UD QP to INIT on mlx5_0: Operation not permitted
n1220:rank24.orca_scf_mpi: Failed to modify UD QP to INIT on mlx5_0: Operation not permitted
n1220:rank24.orca_scf_mpi: Failed to modify UD QP to INIT on mlx5_0: Operation not permitted
n1220:rank24.orca_scf_mpi: Failed to modify UD QP to INIT on mlx5_0: Operation not permitted
n1220:rank23.orca_scf_mpi: Failed to modify UD QP to INIT on mlx5_0: Operation not permitted
n1220:rank23.orca_scf_mpi: Failed to modify UD QP to INIT on mlx5_0: Operation not permitted
n1220:rank23.orca_scf_mpi: Failed to modify UD QP to INIT on mlx5_0: Operation not permitted
n1220:rank15.orca_scf_mpi: Failed to modify UD QP to INIT on mlx5_0: Operation not permitted
n1220:rank0.orca_scf_mpi: Failed to modify UD QP to INIT on mlx5_0: Operation not permitted
n1220:rank10.orca_scf_mpi: Failed to modify UD QP to INIT on mlx5_0: Operation not permitted
n1220:rank5.orca_scf_mpi: Failed to modify UD QP to INIT on mlx5_0: Operation not permitted
n1220:rank15.orca_scf_mpi: Failed to modify UD QP to INIT on mlx5_0: Operation not permitted
n1220:rank20.orca_scf_mpi: Failed to modify UD QP to INIT on mlx5_0: Operation not permitted
n1220:rank0.orca_scf_mpi: Failed to modify UD QP to INIT on mlx5_0: Operation not permitted
n1220:rank10.orca_scf_mpi: Failed to modify UD QP to INIT on mlx5_0: Operation not permitted
n1220:rank5.orca_scf_mpi: Failed to modify UD QP to INIT on mlx5_0: Operation not permitted
n1220:rank15.orca_scf_mpi: Failed to modify UD QP to INIT on mlx5_0: Operation not permitted
n1220:rank1.orca_scf_mpi: Failed to modify UD QP to INIT on mlx5_0: Operation not permitted
n1220:rank24.orca_scf_mpi: Failed to modify UD QP to INIT on mlx5_0: Operation not permitted
n1220:rank21.orca_scf_mpi: Failed to modify UD QP to INIT on mlx5_0: Operation not permitted
n1220:rank20.orca_scf_mpi: Failed to modify UD QP to INIT on mlx5_0: Operation not permitted
n1220:rank0.orca_scf_mpi: Failed to modify UD QP to INIT on mlx5_0: Operation not permitted
n1220:rank10.orca_scf_mpi: Failed to modify UD QP to INIT on mlx5_0: Operation not permitted
n1220:rank1.orca_scf_mpi: Failed to modify UD QP to INIT on mlx5_0: Operation not permitted
n1220:rank5.orca_scf_mpi: Failed to modify UD QP to INIT on mlx5_0: Operation not permitted
n1220:rank23.orca_scf_mpi: Failed to modify UD QP to INIT on mlx5_0: Operation not permitted
n1220:rank20.orca_scf_mpi: Failed to modify UD QP to INIT on mlx5_0: Operation not permitted
n1220:rank21.orca_scf_mpi: Failed to modify UD QP to INIT on mlx5_0: Operation not permitted
n1220:rank1.orca_scf_mpi: Failed to modify UD QP to INIT on mlx5_0: Operation not permitted
n1220:rank21.orca_scf_mpi: Failed to modify UD QP to INIT on mlx5_0: Operation not permitted
n1220:rank15.orca_scf_mpi: Failed to modify UD QP to INIT on mlx5_0: Operation not permitted
n1220:rank0.orca_scf_mpi: Failed to modify UD QP to INIT on mlx5_0: Operation not permitted
n1220:rank9.orca_scf_mpi: Failed to modify UD QP to INIT on mlx5_0: Operation not permitted
n1220:rank16.orca_scf_mpi: Failed to modify UD QP to INIT on mlx5_0: Operation not permitted
n1220:rank28.orca_scf_mpi: Failed to modify UD QP to INIT on mlx5_0: Operation not permitted
n1220:rank30.orca_scf_mpi: Failed to modify UD QP to INIT on mlx5_0: Operation not permitted
n1220:rank2.orca_scf_mpi: Failed to modify UD QP to INIT on mlx5_0: Operation not permitted
n1220:rank26.orca_scf_mpi: Failed to modify UD QP to INIT on mlx5_0: Operation not permitted
n1220:rank25.orca_scf_mpi: Failed to modify UD QP to INIT on mlx5_0: Operation not permitted
n1220:rank10.orca_scf_mpi: Failed to modify UD QP to INIT on mlx5_0: Operation not permitted
n1220:rank14.orca_scf_mpi: Failed to modify UD QP to INIT on mlx5_0: Operation not permitted
n1220:rank20.orca_scf_mpi: Failed to modify UD QP to INIT on mlx5_0: Operation not permitted
n1220:rank1.orca_scf_mpi: Failed to modify UD QP to INIT on mlx5_0: Operation not permitted
n1220:rank31.orca_scf_mpi: Failed to modify UD QP to INIT on mlx5_0: Operation not permitted
n1220:rank18.orca_scf_mpi: Failed to modify UD QP to INIT on mlx5_0: Operation not permitted
n1220:rank9.orca_scf_mpi: Failed to modify UD QP to INIT on mlx5_0: Operation not permitted
n1220:rank4.orca_scf_mpi: Failed to modify UD QP to INIT on mlx5_0: Operation not permitted
n1220:rank17.orca_scf_mpi: Failed to modify UD QP to INIT on mlx5_0: Operation not permitted
n1220:rank8.orca_scf_mpi: Failed to modify UD QP to INIT on mlx5_0: Operation not permitted
n1220:rank19.orca_scf_mpi: Failed to modify UD QP to INIT on mlx5_0: Operation not permitted
n1220:rank30.orca_scf_mpi: Failed to modify UD QP to INIT on mlx5_0: Operation not permitted
n1220:rank26.orca_scf_mpi: Failed to modify UD QP to INIT on mlx5_0: Operation not permitted
n1220:rank16.orca_scf_mpi: Failed to modify UD QP to INIT on mlx5_0: Operation not permitted
n1220:rank2.orca_scf_mpi: Failed to modify UD QP to INIT on mlx5_0: Operation not permitted
n1220:rank28.orca_scf_mpi: Failed to modify UD QP to INIT on mlx5_0: Operation not permitted
n1220:rank21.orca_scf_mpi: Failed to modify UD QP to INIT on mlx5_0: Operation not permitted
n1220:rank14.orca_scf_mpi: Failed to modify UD QP to INIT on mlx5_0: Operation not permitted
n1220:rank25.orca_scf_mpi: Failed to modify UD QP to INIT on mlx5_0: Operation not permitted
n1220:rank5.orca_scf_mpi: Failed to modify UD QP to INIT on mlx5_0: Operation not permitted
n1220:rank9.orca_scf_mpi: Failed to modify UD QP to INIT on mlx5_0: Operation not permitted
n1220:rank31.orca_scf_mpi: Failed to modify UD QP to INIT on mlx5_0: Operation not permitted
n1220:rank18.orca_scf_mpi: Failed to modify UD QP to INIT on mlx5_0: Operation not permitted
n1220:rank26.orca_scf_mpi: Failed to modify UD QP to INIT on mlx5_0: Operation not permitted
n1220:rank16.orca_scf_mpi: Failed to modify UD QP to INIT on mlx5_0: Operation not permitted
n1220:rank4.orca_scf_mpi: Failed to modify UD QP to INIT on mlx5_0: Operation not permitted
n1220:rank17.orca_scf_mpi: Failed to modify UD QP to INIT on mlx5_0: Operation not permitted
n1220:rank8.orca_scf_mpi: Failed to modify UD QP to INIT on mlx5_0: Operation not permitted
n1220:rank30.orca_scf_mpi: Failed to modify UD QP to INIT on mlx5_0: Operation not permitted
n1220:rank14.orca_scf_mpi: Failed to modify UD QP to INIT on mlx5_0: Operation not permitted
n1220:rank28.orca_scf_mpi: Failed to modify UD QP to INIT on mlx5_0: Operation not permitted
n1220:rank2.orca_scf_mpi: Failed to modify UD QP to INIT on mlx5_0: Operation not permitted
n1220:rank25.orca_scf_mpi: Failed to modify UD QP to INIT on mlx5_0: Operation not permitted
n1220:rank19.orca_scf_mpi: Failed to modify UD QP to INIT on mlx5_0: Operation not permitted
n1220:rank31.orca_scf_mpi: Failed to modify UD QP to INIT on mlx5_0: Operation not permitted
n1220:rank18.orca_scf_mpi: Failed to modify UD QP to INIT on mlx5_0: Operation not permitted
n1220:rank4.orca_scf_mpi: Failed to modify UD QP to INIT on mlx5_0: Operation not permitted
n1220:rank17.orca_scf_mpi: Failed to modify UD QP to INIT on mlx5_0: Operation not permitted
n1220:rank8.orca_scf_mpi: Failed to modify UD QP to INIT on mlx5_0: Operation not permitted
n1220:rank19.orca_scf_mpi: Failed to modify UD QP to INIT on mlx5_0: Operation not permitted
n1220:rank9.orca_scf_mpi: Failed to modify UD QP to INIT on mlx5_0: Operation not permitted
n1220:rank26.orca_scf_mpi: Failed to modify UD QP to INIT on mlx5_0: Operation not permitted
n1220:rank16.orca_scf_mpi: Failed to modify UD QP to INIT on mlx5_0: Operation not permitted
n1220:rank30.orca_scf_mpi: Failed to modify UD QP to INIT on mlx5_0: Operation not permitted
n1220:rank31.orca_scf_mpi: Failed to modify UD QP to INIT on mlx5_0: Operation not permitted
n1220:rank28.orca_scf_mpi: Failed to modify UD QP to INIT on mlx5_0: Operation not permitted
n1220:rank17.orca_scf_mpi: Failed to modify UD QP to INIT on mlx5_0: Operation not permitted
n1220:rank4.orca_scf_mpi: Failed to modify UD QP to INIT on mlx5_0: Operation not permitted
n1220:rank2.orca_scf_mpi: Failed to modify UD QP to INIT on mlx5_0: Operation not permitted
n1220:rank8.orca_scf_mpi: Failed to modify UD QP to INIT on mlx5_0: Operation not permitted
n1220:rank25.orca_scf_mpi: Failed to modify UD QP to INIT on mlx5_0: Operation not permitted
n1220:rank18.orca_scf_mpi: Failed to modify UD QP to INIT on mlx5_0: Operation not permitted
n1220:rank19.orca_scf_mpi: Failed to modify UD QP to INIT on mlx5_0: Operation not permitted
n1220:rank14.orca_scf_mpi: Failed to modify UD QP to INIT on mlx5_0: Operation not permitted


           ************************************************************
           *        Program running with 36 parallel MPI-processes    *
           *              working on a shared directory               *
           ************************************************************
-------------------------------------------------------------------------------
                                 ORCA SCF
-------------------------------------------------------------------------------

------------
SCF SETTINGS
------------
Hamiltonian:
 Density Functional     Method          .... DFT(GTOs)
 Exchange Functional    Exchange        .... WB88
 Correlation Functional Correlation     .... LYP
 LDA part of GGA corr.  LDAOpt          .... VWN-5
 Gradients option       PostSCFGGA      .... off
 Hybrid DFT is turned on
   Fraction HF Exchange ScalHFX         ....  0.190000
   Scaling of DF-GGA-X  ScalDFX         ....  0.350000
   Scaling of DF-GGA-C  ScalDFC         ....  0.810000
   Scaling of DF-LDA-C  ScalLDAC        ....  1.000000
   Perturbative correction              ....  0.000000
   Density functional embedding theory  .... OFF
 Long-range corrected/Screened/Range-Separated Hybrid DFT is turned on
   Amount of maximum screened exact exchange              ....  0.460000
   Range separation parameter mu (erf(mu*r12)/r12)        ....  0.330000
 RI-approximation to the Coulomb term is turned on
   Number of AuxJ basis functions       .... 2655
   RIJ-COSX (HFX calculated with COS-X)).... on


General Settings:
 Integral files         IntName         .... Combo6_Cf1tc_-0.43404_0.43404_ck0
 Hartree-Fock type      HFTyp           .... UHF
 Total Charge           Charge          ....    1
 Multiplicity           Mult            ....    2
 Number of Electrons    NEL             ....  347
 Basis Dimension        Dim             .... 1668
 Nuclear Repulsion      ENuc            ....   5969.8541086804 Eh

Convergence Acceleration:
 DIIS                   CNVDIIS         .... on
   Start iteration      DIISMaxIt       ....    12
   Startup error        DIISStart       ....  0.200000
   # of expansion vecs  DIISMaxEq       ....     5
   Bias factor          DIISBfac        ....   1.050
   Max. coefficient     DIISMaxC        ....  10.000
 Trust-Rad. Augm. Hess. CNVTRAH         .... auto
   Auto Start mean grad. ratio tolernc. ....  1.125000
   Auto Start start iteration           ....     1
   Auto Start num. interpolation iter.  ....    10
   Max. Number of Micro iterations      ....    16
   Max. Number of Macro iterations      .... Maxiter - #DIIS iter
   Number of Davidson start vectors     ....     2
   Converg. threshold I  (grad. norm)   ....   1.000e-05
   Converg. threshold II (energy diff.) ....   1.000e-08
   Grad. Scal. Fac. for Micro threshold ....   0.100
   Minimum threshold for Micro iter.    ....   0.010
   NR start threshold (gradient norm)   ....   0.001
   Initial trust radius                 ....   0.400
   Minimum AH scaling param. (alpha)    ....   1.000
   Maximum AH scaling param. (alpha)    .... 1000.000
   Orbital update algorithm             .... Taylor
   White noise on init. David. guess    .... on
   Maximum white noise                  ....   0.010
   Quad. conv. algorithm                .... NR
 SOSCF                  CNVSOSCF        .... off
 Level Shifting         CNVShift        .... on
   Level shift para.    LevelShift      ....    0.2500
   Turn off err/grad.   ShiftErr        ....    0.0010
 Zerner damping         CNVZerner       .... off
 Static damping         CNVDamp         .... on
   Fraction old density DampFac         ....    0.7000
   Max. Damping (<1)    DampMax         ....    0.9800
   Min. Damping (>=0)   DampMin         ....    0.0000
   Turn off err/grad.   DampErr         ....    0.1000
 Fernandez-Rico         CNVRico         .... off

SCF Procedure:
 Maximum # iterations   MaxIter         ....   500
 SCF integral mode      SCFMode         .... Direct
   Integral package                     .... SHARK and LIBINT hybrid scheme
 Reset frequency        DirectResetFreq ....    20
 Integral Threshold     Thresh          ....  2.500e-11 Eh
 Primitive CutOff       TCut            ....  2.500e-12 Eh

Convergence Tolerance:
 Convergence Check Mode ConvCheckMode   .... Total+1el-Energy
 Convergence forced     ConvForced      .... 0
 Energy Change          TolE            ....  1.000e-08 Eh
 1-El. energy change                    ....  1.000e-05 Eh
 DIIS Error             TolErr          ....  5.000e-07


Diagonalization of the overlap matrix:
Smallest eigenvalue                        ... 3.580e-06
Time for diagonalization                   ...    0.508 sec
Threshold for overlap eigenvalues          ... 1.000e-08
Number of eigenvalues below threshold      ... 0
Time for construction of square roots      ...    0.432 sec
Total time needed                          ...    0.953 sec

---------------------
INITIAL GUESS: MOREAD
---------------------
Guess MOs are being read from file: Combo6_Cf1tc_-0.43404_0.43404_ck0.gbw
Input Geometry matches current geometry (good)
Input basis set matches current basis set (good)
MOs were renormalized
MOs were reorthogonalized (Cholesky)
                      ------------------
                      INITIAL GUESS DONE (   7.8 sec)
                      ------------------
-------------------
DFT GRID GENERATION
-------------------

General Integration Accuracy     IntAcc      ... 4.388
Radial Grid Type                 RadialGrid  ... OptM3 with GC (2021)
Angular Grid (max. ang.)         AngularGrid ... 4 (Lebedev-302)
Angular grid pruning method      GridPruning ... 4 (adaptive)
Weight generation scheme         WeightScheme... Becke
Basis function cutoff            BFCut       ... 1.0000e-11
Integration weight cutoff        WCut        ... 1.0000e-14
Angular grids for H and He will be reduced by one unit
Partially contracted basis set               ... off
Rotationally invariant grid construction     ... off

Total number of grid points                  ...   374459
Total number of batches                      ...     5888
Average number of points per batch           ...       63
Average number of grid points per atom       ...     4993
Time for grid setup =    2.192 sec

--------------------
COSX GRID GENERATION
--------------------

GRIDX 1
-------
General Integration Accuracy     IntAcc      ... 3.816
Radial Grid Type                 RadialGrid  ... OptM3 with GC (2021)
Angular Grid (max. ang.)         AngularGrid ... 1 (Lebedev-50)
Angular grid pruning method      GridPruning ... 4 (adaptive)
Weight generation scheme         WeightScheme... Becke
Basis function cutoff            BFCut       ... 1.0000e-11
Integration weight cutoff        WCut        ... 1.0000e-14
Angular grids for H and He will be reduced by one unit
Partially contracted basis set               ... on
Rotationally invariant grid construction     ... off

Total number of grid points                  ...    47153
Total number of batches                      ...      763
Average number of points per batch           ...       61
Average number of grid points per atom       ...      629
UseSFitting                                  ... on

GRIDX 2
-------
General Integration Accuracy     IntAcc      ... 4.020
Radial Grid Type                 RadialGrid  ... OptM3 with GC (2021)
Angular Grid (max. ang.)         AngularGrid ... 2 (Lebedev-110)
Angular grid pruning method      GridPruning ... 4 (adaptive)
Weight generation scheme         WeightScheme... Becke
Basis function cutoff            BFCut       ... 1.0000e-11
Integration weight cutoff        WCut        ... 1.0000e-14
Angular grids for H and He will be reduced by one unit
Partially contracted basis set               ... on
Rotationally invariant grid construction     ... off

Total number of grid points                  ...   102999
Total number of batches                      ...     1648
Average number of points per batch           ...       62
Average number of grid points per atom       ...     1373
UseSFitting                                  ... on

GRIDX 3
-------
General Integration Accuracy     IntAcc      ... 4.338
Radial Grid Type                 RadialGrid  ... OptM3 with GC (2021)
Angular Grid (max. ang.)         AngularGrid ... 3 (Lebedev-194)
Angular grid pruning method      GridPruning ... 4 (adaptive)
Weight generation scheme         WeightScheme... Becke
Basis function cutoff            BFCut       ... 1.0000e-11
Integration weight cutoff        WCut        ... 1.0000e-14
Angular grids for H and He will be reduced by one unit
Partially contracted basis set               ... on
Rotationally invariant grid construction     ... off

Total number of grid points                  ...   226636
Total number of batches                      ...     3580
Average number of points per batch           ...       63
Average number of grid points per atom       ...     3022
UseSFitting                                  ... on

Time for X-Grid setup             =    5.531 sec

--------------
SCF ITERATIONS
--------------
ITER       Energy         Delta-E        Max-DP      RMS-DP      [F,P]     Damp
               ***  Starting incremental Fock matrix formation  ***
  0  -2975.0629617612   0.000000000000 0.00302458  0.00001900  0.0011812 0.7000
  1  -2975.0630108481  -0.000049086980 0.00253823  0.00001602  0.0008499 0.7000
                               ***Turning on DIIS***
  2  -2975.0630512031  -0.000040354956 0.00624512  0.00003965  0.0006552 0.0000
               *** Restarting incremental Fock matrix formation ***
                                   *** Resetting DIIS ***
  3  -2975.0631658617  -0.000114658559 0.00024655  0.00000202  0.0001413 0.0000
  4  -2975.0631708234  -0.000004961715 0.00015422  0.00000109  0.0000427 0.0000
  5  -2975.0631713137  -0.000000490311 0.00006725  0.00000043  0.0000386 0.0000
  6  -2975.0631713489  -0.000000035175 0.00014762  0.00000075  0.0000119 0.0000
  7  -2975.0631713824  -0.000000033492 0.00015755  0.00000058  0.0000027 0.0000
  8  -2975.0631713505   0.000000031834 0.00020302  0.00000060  0.0000019 0.0000
                            ***DIIS convergence achieved***

               *****************************************************
               *                     SUCCESS                       *
               *           SCF CONVERGED AFTER   9 CYCLES          *
               *****************************************************

Old exchange energy                            =    -88.483043419 Eh
New exchange energy                            =    -88.483032270 Eh
Exchange energy change after final integration =      0.000011149 Eh
Total energy after final integration           =  -2975.063160233 Eh
Final COS-X integration done in                =    46.621 sec

----------------
TOTAL SCF ENERGY
----------------

Total Energy       :        -2975.06316023 Eh          -80955.58429 eV

Components:
Nuclear Repulsion  :         5969.85410868 Eh          162447.98899 eV
Electronic Energy  :        -8944.91726891 Eh         -243403.57329 eV
One Electron Energy:       -15916.19596261 Eh         -433101.71061 eV
Two Electron Energy:         6971.27869370 Eh          189698.13732 eV
Max COSX asymmetry :            0.00000092 Eh               0.00003 eV

Virial components:
Potential Energy   :        -5940.90085558 Eh         -161660.13092 eV
Kinetic Energy     :         2965.83769535 Eh           80704.54663 eV
Virial Ratio       :            2.00311058


DFT components:
N(Alpha)           :      173.999850798160 electrons
N(Beta)            :      172.999841751940 electrons
N(Total)           :      346.999692550100 electrons
E(XC)              :     -247.029932302903 Eh       
DFET-embed. en.    :        0.000000000000 Eh       

---------------
SCF CONVERGENCE
---------------

  Last Energy change         ...   -3.1572e-08  Tolerance :   1.0000e-08
  Last MAX-Density change    ...    0.0000e+00  Tolerance :   1.0000e-07
  Last RMS-Density change    ...    0.0000e+00  Tolerance :   5.0000e-09
  Last DIIS Error            ...    9.1445e-07  Tolerance :   5.0000e-07

             **** THE GBW FILE WAS UPDATED (Combo6_Cf1tc_-0.43404_0.43404_ck0.gbw) ****
             **** DENSITY Combo6_Cf1tc_-0.43404_0.43404_ck0.scfp WAS UPDATED ****
             **** ENERGY FILE WAS UPDATED (Combo6_Cf1tc_-0.43404_0.43404_ck0.en.tmp) ****
----------------------
UHF SPIN CONTAMINATION
----------------------

Warning: in a DFT calculation there is little theoretical justification to 
         calculate <S**2> as in Hartree-Fock theory. We will do it anyways
         but you should keep in mind that the values have only limited relevance

Expectation value of <S**2>     :     0.767700
Ideal value S*(S+1) for S=0.5   :     0.750000
Deviation                       :     0.017700

             **** THE GBW FILE WAS UPDATED (Combo6_Cf1tc_-0.43404_0.43404_ck0.gbw) ****
             **** DENSITY Combo6_Cf1tc_-0.43404_0.43404_ck0.scfp WAS UPDATED ****
----------------
ORBITAL ENERGIES
----------------
                 SPIN UP ORBITALS
  NO   OCC          E(Eh)            E(eV) 
   0   1.0000     -89.114267     -2424.9225 
   1   1.0000     -89.009667     -2422.0762 
   2   1.0000     -88.986180     -2421.4370 
   3   1.0000     -14.612859      -397.6361 
   4   1.0000     -14.532764      -395.4566 
   5   1.0000     -14.485611      -394.1735 
   6   1.0000     -10.454816      -284.4900 
   7   1.0000     -10.454703      -284.4869 
   8   1.0000     -10.438185      -284.0375 
   9   1.0000     -10.438138      -284.0362 
  10   1.0000     -10.403850      -283.1031 
  11   1.0000     -10.395196      -282.8677 
  12   1.0000     -10.390213      -282.7321 
  13   1.0000     -10.390084      -282.7286 
  14   1.0000     -10.385399      -282.6011 
  15   1.0000     -10.385176      -282.5950 
  16   1.0000     -10.384558      -282.5782 
  17   1.0000     -10.384363      -282.5729 
  18   1.0000     -10.383948      -282.5616 
  19   1.0000     -10.383796      -282.5574 
  20   1.0000     -10.379485      -282.4401 
  21   1.0000     -10.377937      -282.3980 
  22   1.0000     -10.372161      -282.2408 
  23   1.0000     -10.370961      -282.2082 
  24   1.0000     -10.367713      -282.1198 
  25   1.0000     -10.361935      -281.9626 
  26   1.0000     -10.361401      -281.9480 
  27   1.0000     -10.361331      -281.9461 
  28   1.0000     -10.355821      -281.7962 
  29   1.0000     -10.355771      -281.7948 
  30   1.0000     -10.345834      -281.5245 
  31   1.0000     -10.344402      -281.4855 
  32   1.0000     -10.343235      -281.4537 
  33   1.0000     -10.340144      -281.3696 
  34   1.0000     -10.339669      -281.3567 
  35   1.0000     -10.338351      -281.3208 
  36   1.0000     -10.335612      -281.2463 
  37   1.0000     -10.332941      -281.1736 
  38   1.0000     -10.332154      -281.1522 
  39   1.0000     -10.331897      -281.1452 
  40   1.0000     -10.305137      -280.4170 
  41   1.0000     -10.304836      -280.4088 
  42   1.0000     -10.304551      -280.4011 
  43   1.0000     -10.304208      -280.3917 
  44   1.0000     -10.303637      -280.3762 
  45   1.0000     -10.303336      -280.3680 
  46   1.0000     -10.297739      -280.2157 
  47   1.0000     -10.297205      -280.2012 
  48   1.0000      -8.191629      -222.9055 
  49   1.0000      -8.088413      -220.0969 
  50   1.0000      -8.064481      -219.4457 
  51   1.0000      -6.154527      -167.4732 
  52   1.0000      -6.151507      -167.3910 
  53   1.0000      -6.150338      -167.3592 
  54   1.0000      -6.052499      -164.6969 
  55   1.0000      -6.048373      -164.5846 
  56   1.0000      -6.044169      -164.4702 
  57   1.0000      -6.028616      -164.0470 
  58   1.0000      -6.024950      -163.9472 
  59   1.0000      -6.019821      -163.8076 
  60   1.0000      -1.235140       -33.6099 
  61   1.0000      -1.184734       -32.2383 
  62   1.0000      -1.127365       -30.6772 
  63   1.0000      -1.110632       -30.2218 
  64   1.0000      -1.100913       -29.9574 
  65   1.0000      -1.062873       -28.9223 
  66   1.0000      -1.047630       -28.5075 
  67   1.0000      -1.044721       -28.4283 
  68   1.0000      -1.031269       -28.0623 
  69   1.0000      -1.009929       -27.4816 
  70   1.0000      -1.003688       -27.3117 
  71   1.0000      -0.996791       -27.1240 
  72   1.0000      -0.982142       -26.7254 
  73   1.0000      -0.982023       -26.7222 
  74   1.0000      -0.963640       -26.2220 
  75   1.0000      -0.956770       -26.0350 
  76   1.0000      -0.948084       -25.7987 
  77   1.0000      -0.943849       -25.6834 
  78   1.0000      -0.928836       -25.2749 
  79   1.0000      -0.918375       -24.9902 
  80   1.0000      -0.912397       -24.8276 
  81   1.0000      -0.904517       -24.6131 
  82   1.0000      -0.903823       -24.5943 
  83   1.0000      -0.891278       -24.2529 
  84   1.0000      -0.878144       -23.8955 
  85   1.0000      -0.865839       -23.5607 
  86   1.0000      -0.864766       -23.5315 
  87   1.0000      -0.847692       -23.0669 
  88   1.0000      -0.830557       -22.6006 
  89   1.0000      -0.820434       -22.3251 
  90   1.0000      -0.817697       -22.2507 
  91   1.0000      -0.794673       -21.6241 
  92   1.0000      -0.791216       -21.5301 
  93   1.0000      -0.786698       -21.4072 
  94   1.0000      -0.776507       -21.1298 
  95   1.0000      -0.774983       -21.0883 
  96   1.0000      -0.770098       -20.9554 
  97   1.0000      -0.764572       -20.8051 
  98   1.0000      -0.755524       -20.5588 
  99   1.0000      -0.745529       -20.2869 
 100   1.0000      -0.736880       -20.0515 
 101   1.0000      -0.727199       -19.7881 
 102   1.0000      -0.714302       -19.4372 
 103   1.0000      -0.700417       -19.0593 
 104   1.0000      -0.694391       -18.8953 
 105   1.0000      -0.693260       -18.8646 
 106   1.0000      -0.685895       -18.6641 
 107   1.0000      -0.679285       -18.4843 
 108   1.0000      -0.678620       -18.4662 
 109   1.0000      -0.678067       -18.4511 
 110   1.0000      -0.677227       -18.4283 
 111   1.0000      -0.662360       -18.0237 
 112   1.0000      -0.654117       -17.7994 
 113   1.0000      -0.648481       -17.6461 
 114   1.0000      -0.644750       -17.5445 
 115   1.0000      -0.641673       -17.4608 
 116   1.0000      -0.632936       -17.2231 
 117   1.0000      -0.631309       -17.1788 
 118   1.0000      -0.623796       -16.9743 
 119   1.0000      -0.617682       -16.8080 
 120   1.0000      -0.611734       -16.6461 
 121   1.0000      -0.606069       -16.4920 
 122   1.0000      -0.604446       -16.4478 
 123   1.0000      -0.604205       -16.4413 
 124   1.0000      -0.600011       -16.3271 
 125   1.0000      -0.598164       -16.2769 
 126   1.0000      -0.594146       -16.1675 
 127   1.0000      -0.589676       -16.0459 
 128   1.0000      -0.588481       -16.0134 
 129   1.0000      -0.588027       -16.0010 
 130   1.0000      -0.584735       -15.9114 
 131   1.0000      -0.580726       -15.8024 
 132   1.0000      -0.574547       -15.6342 
 133   1.0000      -0.569590       -15.4993 
 134   1.0000      -0.566535       -15.4162 
 135   1.0000      -0.562748       -15.3131 
 136   1.0000      -0.561103       -15.2684 
 137   1.0000      -0.552646       -15.0383 
 138   1.0000      -0.550860       -14.9897 
 139   1.0000      -0.547095       -14.8872 
 140   1.0000      -0.546287       -14.8652 
 141   1.0000      -0.542453       -14.7609 
 142   1.0000      -0.537354       -14.6221 
 143   1.0000      -0.536756       -14.6059 
 144   1.0000      -0.532048       -14.4778 
 145   1.0000      -0.530468       -14.4348 
 146   1.0000      -0.522466       -14.2170 
 147   1.0000      -0.514167       -13.9912 
 148   1.0000      -0.510445       -13.8899 
 149   1.0000      -0.504224       -13.7206 
 150   1.0000      -0.502003       -13.6602 
 151   1.0000      -0.492576       -13.4037 
 152   1.0000      -0.490152       -13.3377 
 153   1.0000      -0.480788       -13.0829 
 154   1.0000      -0.479999       -13.0614 
 155   1.0000      -0.468255       -12.7419 
 156   1.0000      -0.466780       -12.7017 
 157   1.0000      -0.462972       -12.5981 
 158   1.0000      -0.452538       -12.3142 
 159   1.0000      -0.450068       -12.2470 
 160   1.0000      -0.449645       -12.2355 
 161   1.0000      -0.444945       -12.1076 
 162   1.0000      -0.427178       -11.6241 
 163   1.0000      -0.421756       -11.4766 
 164   1.0000      -0.417584       -11.3630 
 165   1.0000      -0.408044       -11.1034 
 166   1.0000      -0.383612       -10.4386 
 167   1.0000      -0.380533       -10.3548 
 168   1.0000      -0.371575       -10.1111 
 169   1.0000      -0.369492       -10.0544 
 170   1.0000      -0.363593        -9.8939 
 171   1.0000      -0.351108        -9.5541 
 172   1.0000      -0.338422        -9.2089 
 173   1.0000      -0.295345        -8.0367 
 174   0.0000      -0.135371        -3.6836 
 175   0.0000      -0.111531        -3.0349 
 176   0.0000      -0.110957        -3.0193 
 177   0.0000      -0.093846        -2.5537 
 178   0.0000      -0.076654        -2.0859 
 179   0.0000      -0.070258        -1.9118 
 180   0.0000      -0.066813        -1.8181 
 181   0.0000      -0.062744        -1.7074 
 182   0.0000      -0.062106        -1.6900 
 183   0.0000      -0.043621        -1.1870 
 184   0.0000      -0.033424        -0.9095 
 185   0.0000      -0.030496        -0.8298 
 186   0.0000      -0.028812        -0.7840 
 187   0.0000      -0.025142        -0.6842 
 188   0.0000      -0.022014        -0.5990 
 189   0.0000      -0.020471        -0.5570 
 190   0.0000      -0.016694        -0.4543 
 191   0.0000      -0.009351        -0.2544 
 192   0.0000      -0.001125        -0.0306 
 193   0.0000       0.000468         0.0127 
 194   0.0000       0.003056         0.0832 
 195   0.0000       0.006085         0.1656 
 196   0.0000       0.012160         0.3309 
 197   0.0000       0.014658         0.3989 
 198   0.0000       0.017398         0.4734 
 199   0.0000       0.023577         0.6416 
 200   0.0000       0.027056         0.7362 
 201   0.0000       0.029910         0.8139 
 202   0.0000       0.030093         0.8189 
 203   0.0000       0.036294         0.9876 
 204   0.0000       0.038988         1.0609 
 205   0.0000       0.043428         1.1817 
 206   0.0000       0.045940         1.2501 
 207   0.0000       0.047991         1.3059 
 208   0.0000       0.050753         1.3810 
 209   0.0000       0.051827         1.4103 
 210   0.0000       0.054976         1.4960 
 211   0.0000       0.056087         1.5262 
 212   0.0000       0.058821         1.6006 
 213   0.0000       0.059766         1.6263 
 214   0.0000       0.064557         1.7567 
 215   0.0000       0.066181         1.8009 
 216   0.0000       0.070264         1.9120 
 217   0.0000       0.073158         1.9907 
 218   0.0000       0.074757         2.0342 
 219   0.0000       0.075841         2.0637 
 220   0.0000       0.081398         2.2149 
 221   0.0000       0.085917         2.3379 
 222   0.0000       0.089632         2.4390 
 223   0.0000       0.091809         2.4983 
 224   0.0000       0.096820         2.6346 
 225   0.0000       0.099377         2.7042 
 226   0.0000       0.102390         2.7862 
 227   0.0000       0.105242         2.8638 
 228   0.0000       0.107326         2.9205 
 229   0.0000       0.109882         2.9900 
 230   0.0000       0.113830         3.0975 
 231   0.0000       0.116766         3.1774 
 232   0.0000       0.119128         3.2416 
 233   0.0000       0.123612         3.3637 
 234   0.0000       0.125484         3.4146 
 235   0.0000       0.126690         3.4474 
 236   0.0000       0.127558         3.4710 
 237   0.0000       0.128866         3.5066 
 238   0.0000       0.131836         3.5874 
 239   0.0000       0.133675         3.6375 
 240   0.0000       0.135929         3.6988 
 241   0.0000       0.136371         3.7108 
 242   0.0000       0.138921         3.7802 
 243   0.0000       0.143801         3.9130 
 244   0.0000       0.148455         4.0397 
 245   0.0000       0.149476         4.0674 
 246   0.0000       0.151507         4.1227 
 247   0.0000       0.153144         4.1673 
 248   0.0000       0.155314         4.2263 
 249   0.0000       0.159620         4.3435 
 250   0.0000       0.161158         4.3853 
 251   0.0000       0.162287         4.4161 
 252   0.0000       0.165367         4.4999 
 253   0.0000       0.166704         4.5362 
 254   0.0000       0.167744         4.5646 
 255   0.0000       0.171861         4.6766 
 256   0.0000       0.173506         4.7213 
 257   0.0000       0.177027         4.8171 
 258   0.0000       0.179276         4.8783 
 259   0.0000       0.180897         4.9225 
 260   0.0000       0.182977         4.9791 
 261   0.0000       0.184295         5.0149 
 262   0.0000       0.186468         5.0740 
 263   0.0000       0.187568         5.1040 
 264   0.0000       0.190952         5.1961 
 265   0.0000       0.192810         5.2466 
 266   0.0000       0.193582         5.2676 
 267   0.0000       0.194056         5.2805 
 268   0.0000       0.197282         5.3683 
 269   0.0000       0.197828         5.3832 
 270   0.0000       0.200016         5.4427 
 271   0.0000       0.202044         5.4979 
 272   0.0000       0.205132         5.5819 
 273   0.0000       0.208723         5.6796 
 274   0.0000       0.210465         5.7270 
 275   0.0000       0.212591         5.7849 
 276   0.0000       0.215215         5.8563 
 277   0.0000       0.218358         5.9418 
 278   0.0000       0.218987         5.9589 
 279   0.0000       0.223684         6.0868 
 280   0.0000       0.225870         6.1462 
 281   0.0000       0.229457         6.2438 
 282   0.0000       0.230233         6.2650 
 283   0.0000       0.232567         6.3285 
 284   0.0000       0.233105         6.3431 
 285   0.0000       0.234997         6.3946 
 286   0.0000       0.236986         6.4487 
 287   0.0000       0.241026         6.5586 
 288   0.0000       0.241572         6.5735 
 289   0.0000       0.242319         6.5938 
 290   0.0000       0.243797         6.6341 
 291   0.0000       0.246497         6.7075 
 292   0.0000       0.249604         6.7921 
 293   0.0000       0.251308         6.8384 
 294   0.0000       0.255264         6.9461 
 295   0.0000       0.257447         7.0055 
 296   0.0000       0.258826         7.0430 
 297   0.0000       0.261051         7.1036 
 298   0.0000       0.266214         7.2440 
 299   0.0000       0.268613         7.3093 
 300   0.0000       0.270065         7.3488 
 301   0.0000       0.272342         7.4108 
 302   0.0000       0.273372         7.4388 
 303   0.0000       0.273886         7.4528 
 304   0.0000       0.277170         7.5422 
 305   0.0000       0.281137         7.6501 
 306   0.0000       0.283842         7.7237 
 307   0.0000       0.285331         7.7642 
 308   0.0000       0.287020         7.8102 
 309   0.0000       0.287871         7.8334 
 310   0.0000       0.291703         7.9376 
 311   0.0000       0.294574         8.0158 
 312   0.0000       0.296526         8.0689 
 313   0.0000       0.298965         8.1353 
 314   0.0000       0.299739         8.1563 
 315   0.0000       0.301699         8.2096 
 316   0.0000       0.303421         8.2565 
 317   0.0000       0.306060         8.3283 
 318   0.0000       0.306997         8.3538 
 319   0.0000       0.308847         8.4042 
 320   0.0000       0.311130         8.4663 
 321   0.0000       0.312825         8.5124 
 322   0.0000       0.316944         8.6245 
 323   0.0000       0.318981         8.6799 
 324   0.0000       0.319639         8.6978 
 325   0.0000       0.322942         8.7877 
 326   0.0000       0.323347         8.7987 
 327   0.0000       0.326334         8.8800 
 328   0.0000       0.328402         8.9363 
 329   0.0000       0.329829         8.9751 
 330   0.0000       0.333137         9.0651 
 331   0.0000       0.335480         9.1289 
 332   0.0000       0.337088         9.1726 
 333   0.0000       0.337585         9.1862 
 334   0.0000       0.340794         9.2735 
 335   0.0000       0.341304         9.2874 
 336   0.0000       0.343646         9.3511 
 337   0.0000       0.349498         9.5103 
 338   0.0000       0.351894         9.5755 
 339   0.0000       0.352272         9.5858 
 340   0.0000       0.353632         9.6228 
 341   0.0000       0.354458         9.6453 
 342   0.0000       0.355764         9.6808 
 343   0.0000       0.358341         9.7510 
 344   0.0000       0.360283         9.8038 
 345   0.0000       0.363018         9.8782 
 346   0.0000       0.365211         9.9379 
 347   0.0000       0.365962         9.9583 
 348   0.0000       0.368395        10.0245 
 349   0.0000       0.371652        10.1132 
 350   0.0000       0.372091        10.1251 
 351   0.0000       0.374919        10.2021 
 352   0.0000       0.375311        10.2127 
 353   0.0000       0.376236        10.2379 
 354   0.0000       0.379597        10.3293 
 355   0.0000       0.379795        10.3348 
 356   0.0000       0.381608        10.3841 
 357   0.0000       0.383006        10.4221 
 358   0.0000       0.384212        10.4549 
 359   0.0000       0.388896        10.5824 
 360   0.0000       0.389618        10.6020 
 361   0.0000       0.392230        10.6731 
 362   0.0000       0.393668        10.7122 
 363   0.0000       0.397329        10.8119 
 364   0.0000       0.398268        10.8374 
 365   0.0000       0.401337        10.9209 
 366   0.0000       0.403360        10.9760 
 367   0.0000       0.405267        11.0279 
 368   0.0000       0.408861        11.1257 
 369   0.0000       0.409961        11.1556 
 370   0.0000       0.412036        11.2121 
 371   0.0000       0.415805        11.3146 
 372   0.0000       0.417865        11.3707 
 373   0.0000       0.422012        11.4835 
 374   0.0000       0.423699        11.5294 
 375   0.0000       0.426702        11.6111 
 376   0.0000       0.428199        11.6519 
 377   0.0000       0.429364        11.6836 
 378   0.0000       0.430697        11.7198 
 379   0.0000       0.432385        11.7658 
 380   0.0000       0.434460        11.8223 
 381   0.0000       0.437233        11.8977 
 382   0.0000       0.440214        11.9788 
 383   0.0000       0.443359        12.0644 
 384   0.0000       0.445277        12.1166 
 385   0.0000       0.446395        12.1470 
 386   0.0000       0.449101        12.2206 
 387   0.0000       0.450575        12.2608 
 388   0.0000       0.453037        12.3278 
 389   0.0000       0.453205        12.3323 
 390   0.0000       0.457809        12.4576 
 391   0.0000       0.458502        12.4765 
 392   0.0000       0.459695        12.5089 
 393   0.0000       0.463448        12.6111 
 394   0.0000       0.464509        12.6399 
 395   0.0000       0.466131        12.6841 
 396   0.0000       0.473330        12.8800 
 397   0.0000       0.474447        12.9104 
 398   0.0000       0.484105        13.1732 
 399   0.0000       0.484495        13.1838 
 400   0.0000       0.485543        13.2123 
 401   0.0000       0.487371        13.2620 
 402   0.0000       0.491307        13.3692 
 403   0.0000       0.494136        13.4461 
 404   0.0000       0.498614        13.5680 
 405   0.0000       0.499143        13.5824 
 406   0.0000       0.502603        13.6765 
 407   0.0000       0.505551        13.7568 
 408   0.0000       0.506565        13.7843 
 409   0.0000       0.507856        13.8195 
 410   0.0000       0.510690        13.8966 
 411   0.0000       0.512927        13.9574 
 412   0.0000       0.514615        14.0034 
 413   0.0000       0.518013        14.0959 
 414   0.0000       0.519683        14.1413 
 415   0.0000       0.527014        14.3408 
 416   0.0000       0.527849        14.3635 
 417   0.0000       0.530448        14.4342 
 418   0.0000       0.533936        14.5291 
 419   0.0000       0.534568        14.5463 
 420   0.0000       0.537099        14.6152 
 421   0.0000       0.541931        14.7467 
 422   0.0000       0.542526        14.7629 
 423   0.0000       0.545114        14.8333 
 424   0.0000       0.548995        14.9389 
 425   0.0000       0.551528        15.0078 
 426   0.0000       0.554492        15.0885 
 427   0.0000       0.561293        15.2736 
 428   0.0000       0.568123        15.4594 
 429   0.0000       0.569840        15.5061 
 430   0.0000       0.574938        15.6448 
 431   0.0000       0.575848        15.6696 
 432   0.0000       0.577685        15.7196 
 433   0.0000       0.582879        15.8610 
 434   0.0000       0.582956        15.8630 
 435   0.0000       0.588641        16.0177 
 436   0.0000       0.591626        16.0990 
 437   0.0000       0.594712        16.1829 
 438   0.0000       0.596397        16.2288 
 439   0.0000       0.599614        16.3163 
 440   0.0000       0.602522        16.3954 
 441   0.0000       0.604228        16.4419 
 442   0.0000       0.605601        16.4793 
 443   0.0000       0.609712        16.5911 
 444   0.0000       0.613416        16.6919 
 445   0.0000       0.615501        16.7486 
 446   0.0000       0.618791        16.8382 
 447   0.0000       0.620240        16.8776 
 448   0.0000       0.624279        16.9875 
 449   0.0000       0.625678        17.0256 
 450   0.0000       0.626817        17.0566 
 451   0.0000       0.630761        17.1639 
 452   0.0000       0.635083        17.2815 
 453   0.0000       0.635946        17.3050 
 454   0.0000       0.640134        17.4189 
 455   0.0000       0.640681        17.4338 
 456   0.0000       0.643086        17.4993 
 457   0.0000       0.646311        17.5870 
 458   0.0000       0.649157        17.6644 
 459   0.0000       0.650462        17.7000 
 460   0.0000       0.652435        17.7537 
 461   0.0000       0.652645        17.7594 
 462   0.0000       0.655721        17.8431 
 463   0.0000       0.658830        17.9277 
 464   0.0000       0.661548        18.0016 
 465   0.0000       0.663060        18.0428 
 466   0.0000       0.667398        18.1608 
 467   0.0000       0.668549        18.1921 
 468   0.0000       0.670614        18.2483 
 469   0.0000       0.672460        18.2986 
 470   0.0000       0.676721        18.4145 
 471   0.0000       0.680047        18.5050 
 472   0.0000       0.681587        18.5469 
 473   0.0000       0.682579        18.5739 
 474   0.0000       0.687818        18.7165 
 475   0.0000       0.690524        18.7901 
 476   0.0000       0.691343        18.8124 
 477   0.0000       0.695479        18.9249 
 478   0.0000       0.696629        18.9562 
 479   0.0000       0.699940        19.0463 
 480   0.0000       0.701931        19.1005 
 481   0.0000       0.705051        19.1854 
 482   0.0000       0.706927        19.2365 
 483   0.0000       0.712131        19.3781 
 484   0.0000       0.712908        19.3992 
 485   0.0000       0.714943        19.4546 
 486   0.0000       0.715947        19.4819 
 487   0.0000       0.718224        19.5439 
 488   0.0000       0.721011        19.6197 
 489   0.0000       0.723576        19.6895 
 490   0.0000       0.727830        19.8053 
 491   0.0000       0.731470        19.9043 
 492   0.0000       0.732851        19.9419 
 493   0.0000       0.737015        20.0552 
 494   0.0000       0.738083        20.0843 
 495   0.0000       0.744278        20.2528 
 496   0.0000       0.745892        20.2967 
 497   0.0000       0.748675        20.3725 
 498   0.0000       0.749033        20.3822 
 499   0.0000       0.751451        20.4480 
 500   0.0000       0.755157        20.5489 
 501   0.0000       0.759189        20.6586 
 502   0.0000       0.761969        20.7342 
 503   0.0000       0.763110        20.7653 
 504   0.0000       0.766302        20.8521 
 505   0.0000       0.767670        20.8894 
 506   0.0000       0.773614        21.0511 
 507   0.0000       0.775280        21.0964 
 508   0.0000       0.779081        21.1999 
 509   0.0000       0.780799        21.2466 
 510   0.0000       0.784327        21.3426 
 511   0.0000       0.788784        21.4639 
 512   0.0000       0.790147        21.5010 
 513   0.0000       0.792639        21.5688 
 514   0.0000       0.793925        21.6038 
 515   0.0000       0.797522        21.7017 
 516   0.0000       0.800474        21.7820 
 517   0.0000       0.804963        21.9041 
 518   0.0000       0.805507        21.9190 
 519   0.0000       0.808701        22.0059 
 520   0.0000       0.812144        22.0996 
 521   0.0000       0.814284        22.1578 
 522   0.0000       0.819318        22.2948 
 523   0.0000       0.820839        22.3362 
 524   0.0000       0.822252        22.3746 
 525   0.0000       0.823662        22.4130 
 526   0.0000       0.829126        22.5617 
 527   0.0000       0.829294        22.5662 
 528   0.0000       0.833054        22.6686 
 529   0.0000       0.836051        22.7501 
 530   0.0000       0.841144        22.8887 
 531   0.0000       0.847549        23.0630 
 532   0.0000       0.850049        23.1310 
 533   0.0000       0.852340        23.1934 
 534   0.0000       0.856752        23.3134 
 535   0.0000       0.858995        23.3745 
 536   0.0000       0.862161        23.4606 
 537   0.0000       0.864713        23.5300 
 538   0.0000       0.866450        23.5773 
 539   0.0000       0.869638        23.6641 
 540   0.0000       0.877172        23.8691 
 541   0.0000       0.880126        23.9495 
 542   0.0000       0.880457        23.9585 
 543   0.0000       0.884104        24.0577 
 544   0.0000       0.885297        24.0902 
 545   0.0000       0.889540        24.2056 
 546   0.0000       0.891975        24.2719 
 547   0.0000       0.895791        24.3757 
 548   0.0000       0.897553        24.4237 
 549   0.0000       0.902267        24.5519 
 550   0.0000       0.902840        24.5675 
 551   0.0000       0.908115        24.7111 
 552   0.0000       0.908584        24.7238 
 553   0.0000       0.911965        24.8158 
 554   0.0000       0.916027        24.9264 
 555   0.0000       0.921518        25.0758 
 556   0.0000       0.926026        25.1985 
 557   0.0000       0.929681        25.2979 
 558   0.0000       0.933434        25.4000 
 559   0.0000       0.936112        25.4729 
 560   0.0000       0.939035        25.5524 
 561   0.0000       0.944405        25.6986 
 562   0.0000       0.951979        25.9047 
 563   0.0000       0.957221        26.0473 
 564   0.0000       0.960571        26.1385 
 565   0.0000       0.963450        26.2168 
 566   0.0000       0.964874        26.2556 
 567   0.0000       0.967322        26.3222 
 568   0.0000       0.971101        26.4250 
 569   0.0000       0.976556        26.5734 
 570   0.0000       0.981576        26.7100 
 571   0.0000       0.987337        26.8668 
 572   0.0000       0.989464        26.9247 
 573   0.0000       0.996231        27.1088 
 574   0.0000       0.999394        27.1949 
 575   0.0000       1.002185        27.2708 
 576   0.0000       1.006409        27.3858 
 577   0.0000       1.009744        27.4765 
 578   0.0000       1.011157        27.5150 
 579   0.0000       1.018824        27.7236 
 580   0.0000       1.025344        27.9010 
 581   0.0000       1.026511        27.9328 
 582   0.0000       1.030378        28.0380 
 583   0.0000       1.035246        28.1705 
 584   0.0000       1.038010        28.2457 
 585   0.0000       1.041537        28.3417 
 586   0.0000       1.045554        28.4510 
 587   0.0000       1.051555        28.6143 
 588   0.0000       1.052794        28.6480 
 589   0.0000       1.054158        28.6851 
 590   0.0000       1.057217        28.7683 
 591   0.0000       1.065228        28.9863 
 592   0.0000       1.068020        29.0623 
 593   0.0000       1.074706        29.2442 
 594   0.0000       1.076773        29.3005 
 595   0.0000       1.081481        29.4286 
 596   0.0000       1.082737        29.4628 
 597   0.0000       1.091760        29.7083 
 598   0.0000       1.094490        29.7826 
 599   0.0000       1.101254        29.9666 
 600   0.0000       1.105529        30.0830 
 601   0.0000       1.111570        30.2474 
 602   0.0000       1.115831        30.3633 
 603   0.0000       1.118122        30.4256 
 604   0.0000       1.120189        30.4819 
 605   0.0000       1.125223        30.6189 
 606   0.0000       1.129378        30.7319 
 607   0.0000       1.131777        30.7972 
 608   0.0000       1.138954        30.9925 
 609   0.0000       1.141888        31.0724 
 610   0.0000       1.143282        31.1103 
 611   0.0000       1.145664        31.1751 
 612   0.0000       1.149829        31.2884 
 613   0.0000       1.152559        31.3627 
 614   0.0000       1.153719        31.3943 
 615   0.0000       1.159111        31.5410 
 616   0.0000       1.163059        31.6484 
 617   0.0000       1.164232        31.6804 
 618   0.0000       1.172025        31.8924 
 619   0.0000       1.175929        31.9986 
 620   0.0000       1.179228        32.0884 
 621   0.0000       1.180392        32.1201 
 622   0.0000       1.184316        32.2269 
 623   0.0000       1.185168        32.2501 
 624   0.0000       1.194009        32.4906 
 625   0.0000       1.196575        32.5604 
 626   0.0000       1.197500        32.5856 
 627   0.0000       1.200586        32.6696 
 628   0.0000       1.205098        32.7924 
 629   0.0000       1.209219        32.9045 
 630   0.0000       1.211059        32.9546 
 631   0.0000       1.213737        33.0275 
 632   0.0000       1.217512        33.1302 
 633   0.0000       1.219798        33.1924 
 634   0.0000       1.224497        33.3203 
 635   0.0000       1.227693        33.4072 
 636   0.0000       1.228480        33.4286 
 637   0.0000       1.235953        33.6320 
 638   0.0000       1.236544        33.6481 
 639   0.0000       1.240930        33.7674 
 640   0.0000       1.242581        33.8123 
 641   0.0000       1.247002        33.9327 
 642   0.0000       1.252402        34.0796 
 643   0.0000       1.257686        34.2234 
 644   0.0000       1.259913        34.2840 
 645   0.0000       1.263188        34.3731 
 646   0.0000       1.264652        34.4129 
 647   0.0000       1.268271        34.5114 
 648   0.0000       1.270378        34.5687 
 649   0.0000       1.271504        34.5994 
 650   0.0000       1.274421        34.6788 
 651   0.0000       1.276632        34.7389 
 652   0.0000       1.279608        34.8199 
 653   0.0000       1.282793        34.9066 
 654   0.0000       1.289532        35.0899 
 655   0.0000       1.292175        35.1619 
 656   0.0000       1.297382        35.3035 
 657   0.0000       1.297781        35.3144 
 658   0.0000       1.301041        35.4031 
 659   0.0000       1.302556        35.4443 
 660   0.0000       1.310001        35.6469 
 661   0.0000       1.314270        35.7631 
 662   0.0000       1.321016        35.9467 
 663   0.0000       1.323163        36.0051 
 664   0.0000       1.325850        36.0782 
 665   0.0000       1.331016        36.2188 
 666   0.0000       1.338443        36.4209 
 667   0.0000       1.342854        36.5409 
 668   0.0000       1.345850        36.6224 
 669   0.0000       1.348167        36.6855 
 670   0.0000       1.351471        36.7754 
 671   0.0000       1.352833        36.8124 
 672   0.0000       1.360257        37.0145 
 673   0.0000       1.362078        37.0640 
 674   0.0000       1.367938        37.2235 
 675   0.0000       1.369747        37.2727 
 676   0.0000       1.371895        37.3311 
 677   0.0000       1.372836        37.3568 
 678   0.0000       1.378982        37.5240 
 679   0.0000       1.380788        37.5732 
 680   0.0000       1.385471        37.7006 
 681   0.0000       1.387959        37.7683 
 682   0.0000       1.391167        37.8556 
 683   0.0000       1.396627        38.0042 
 684   0.0000       1.396915        38.0120 
 685   0.0000       1.399218        38.0747 
 686   0.0000       1.404821        38.2271 
 687   0.0000       1.408783        38.3349 
 688   0.0000       1.412233        38.4288 
 689   0.0000       1.414178        38.4817 
 690   0.0000       1.416605        38.5478 
 691   0.0000       1.419646        38.6305 
 692   0.0000       1.425167        38.7808 
 693   0.0000       1.428935        38.8833 
 694   0.0000       1.429236        38.8915 
 695   0.0000       1.438464        39.1426 
 696   0.0000       1.440336        39.1935 
 697   0.0000       1.443602        39.2824 
 698   0.0000       1.446773        39.3687 
 699   0.0000       1.448160        39.4064 
 700   0.0000       1.452433        39.5227 
 701   0.0000       1.457016        39.6474 
 702   0.0000       1.461357        39.7656 
 703   0.0000       1.466806        39.9138 
 704   0.0000       1.467633        39.9363 
 705   0.0000       1.469713        39.9929 
 706   0.0000       1.472946        40.0809 
 707   0.0000       1.476615        40.1807 
 708   0.0000       1.478726        40.2382 
 709   0.0000       1.480065        40.2746 
 710   0.0000       1.484041        40.3828 
 711   0.0000       1.488587        40.5065 
 712   0.0000       1.490929        40.5703 
 713   0.0000       1.492597        40.6156 
 714   0.0000       1.497445        40.7476 
 715   0.0000       1.498852        40.7858 
 716   0.0000       1.500577        40.8328 
 717   0.0000       1.502005        40.8716 
 718   0.0000       1.506794        41.0019 
 719   0.0000       1.509583        41.0779 
 720   0.0000       1.515240        41.2318 
 721   0.0000       1.517393        41.2904 
 722   0.0000       1.523703        41.4621 
 723   0.0000       1.526095        41.5272 
 724   0.0000       1.527869        41.5754 
 725   0.0000       1.530858        41.6568 
 726   0.0000       1.531758        41.6813 
 727   0.0000       1.534430        41.7540 
 728   0.0000       1.535265        41.7767 
 729   0.0000       1.542380        41.9703 
 730   0.0000       1.543236        41.9936 
 731   0.0000       1.545368        42.0516 
 732   0.0000       1.546850        42.0919 
 733   0.0000       1.548811        42.1453 
 734   0.0000       1.557401        42.3790 
 735   0.0000       1.562191        42.5094 
 736   0.0000       1.564184        42.5636 
 737   0.0000       1.566910        42.6378 
 738   0.0000       1.568032        42.6683 
 739   0.0000       1.570506        42.7356 
 740   0.0000       1.573000        42.8035 
 741   0.0000       1.575018        42.8584 
 742   0.0000       1.580613        43.0107 
 743   0.0000       1.585837        43.1528 
 744   0.0000       1.588818        43.2339 
 745   0.0000       1.593978        43.3744 
 746   0.0000       1.595334        43.4113 
 747   0.0000       1.598580        43.4996 
 748   0.0000       1.601632        43.5826 
 749   0.0000       1.603450        43.6321 
 750   0.0000       1.605543        43.6890 
 751   0.0000       1.610245        43.8170 
 752   0.0000       1.614042        43.9203 
 753   0.0000       1.615179        43.9512 
 754   0.0000       1.618639        44.0454 
 755   0.0000       1.621686        44.1283 
 756   0.0000       1.623567        44.1795 
 757   0.0000       1.633019        44.4367 
 758   0.0000       1.634683        44.4820 
 759   0.0000       1.637709        44.5643 
 760   0.0000       1.640377        44.6369 
 761   0.0000       1.643680        44.7268 
 762   0.0000       1.645914        44.7876 
 763   0.0000       1.647146        44.8211 
 764   0.0000       1.649354        44.8812 
 765   0.0000       1.651288        44.9338 
 766   0.0000       1.654091        45.0101 
 767   0.0000       1.656093        45.0646 
 768   0.0000       1.657565        45.1046 
 769   0.0000       1.659959        45.1698 
 770   0.0000       1.661127        45.2016 
 771   0.0000       1.664146        45.2837 
 772   0.0000       1.666204        45.3397 
 773   0.0000       1.668541        45.4033 
 774   0.0000       1.672911        45.5222 
 775   0.0000       1.677688        45.6522 
 776   0.0000       1.679908        45.7126 
 777   0.0000       1.685802        45.8730 
 778   0.0000       1.691810        46.0365 
 779   0.0000       1.694222        46.1021 
 780   0.0000       1.696593        46.1666 
 781   0.0000       1.701686        46.3052 
 782   0.0000       1.704135        46.3719 
 783   0.0000       1.706790        46.4441 
 784   0.0000       1.712623        46.6028 
 785   0.0000       1.716435        46.7066 
 786   0.0000       1.718332        46.7582 
 787   0.0000       1.720784        46.8249 
 788   0.0000       1.723541        46.8999 
 789   0.0000       1.725646        46.9572 
 790   0.0000       1.730280        47.0833 
 791   0.0000       1.733638        47.1747 
 792   0.0000       1.736667        47.2571 
 793   0.0000       1.738730        47.3133 
 794   0.0000       1.746437        47.5230 
 795   0.0000       1.750226        47.6261 
 796   0.0000       1.750878        47.6438 
 797   0.0000       1.753397        47.7123 
 798   0.0000       1.754349        47.7383 
 799   0.0000       1.758789        47.8591 
 800   0.0000       1.766035        48.0563 
 801   0.0000       1.769358        48.1467 
 802   0.0000       1.770298        48.1723 
 803   0.0000       1.777585        48.3705 
 804   0.0000       1.778802        48.4037 
 805   0.0000       1.782703        48.5098 
 806   0.0000       1.787336        48.6359 
 807   0.0000       1.792271        48.7702 
 808   0.0000       1.792799        48.7846 
 809   0.0000       1.793908        48.8147 
 810   0.0000       1.799420        48.9647 
 811   0.0000       1.799890        48.9775 
 812   0.0000       1.805735        49.1365 
 813   0.0000       1.811562        49.2951 
 814   0.0000       1.818336        49.4794 
 815   0.0000       1.820387        49.5352 
 816   0.0000       1.820846        49.5477 
 817   0.0000       1.826290        49.6959 
 818   0.0000       1.834753        49.9262 
 819   0.0000       1.842349        50.1329 
 820   0.0000       1.847412        50.2706 
 821   0.0000       1.850108        50.3440 
 822   0.0000       1.852245        50.4021 
 823   0.0000       1.854089        50.4523 
 824   0.0000       1.859593        50.6021 
 825   0.0000       1.866062        50.7781 
 826   0.0000       1.866460        50.7890 
 827   0.0000       1.870703        50.9044 
 828   0.0000       1.874811        51.0162 
 829   0.0000       1.879031        51.1310 
 830   0.0000       1.882180        51.2167 
 831   0.0000       1.885146        51.2974 
 832   0.0000       1.887587        51.3639 
 833   0.0000       1.892065        51.4857 
 834   0.0000       1.895113        51.5686 
 835   0.0000       1.896925        51.6180 
 836   0.0000       1.904878        51.8344 
 837   0.0000       1.909592        51.9626 
 838   0.0000       1.915640        52.1272 
 839   0.0000       1.917705        52.1834 
 840   0.0000       1.921127        52.2765 
 841   0.0000       1.921747        52.2934 
 842   0.0000       1.926274        52.4166 
 843   0.0000       1.929007        52.4909 
 844   0.0000       1.939030        52.7637 
 845   0.0000       1.942198        52.8499 
 846   0.0000       1.949923        53.0601 
 847   0.0000       1.952128        53.1201 
 848   0.0000       1.955230        53.2045 
 849   0.0000       1.958099        53.2826 
 850   0.0000       1.966754        53.5181 
 851   0.0000       1.970954        53.6324 
 852   0.0000       1.979091        53.8538 
 853   0.0000       1.985220        54.0206 
 854   0.0000       1.988079        54.0984 
 855   0.0000       1.992800        54.2269 
 856   0.0000       1.995787        54.3081 
 857   0.0000       2.000088        54.4252 
 858   0.0000       2.008964        54.6667 
 859   0.0000       2.011874        54.7459 
 860   0.0000       2.017689        54.9041 
 861   0.0000       2.021153        54.9984 
 862   0.0000       2.023224        55.0547 
 863   0.0000       2.031026        55.2670 
 864   0.0000       2.037370        55.4397 
 865   0.0000       2.038925        55.4820 
 866   0.0000       2.045056        55.6488 
 867   0.0000       2.046312        55.6830 
 868   0.0000       2.049126        55.7596 
 869   0.0000       2.050847        55.8064 
 870   0.0000       2.054794        55.9138 
 871   0.0000       2.060513        56.0694 
 872   0.0000       2.062592        56.1260 
 873   0.0000       2.065516        56.2056 
 874   0.0000       2.067141        56.2498 
 875   0.0000       2.071316        56.3634 
 876   0.0000       2.074561        56.4517 
 877   0.0000       2.079583        56.5883 
 878   0.0000       2.086835        56.7857 
 879   0.0000       2.090132        56.8754 
 880   0.0000       2.092708        56.9455 
 881   0.0000       2.096892        57.0593 
 882   0.0000       2.097558        57.0775 
 883   0.0000       2.100855        57.1672 
 884   0.0000       2.107799        57.3561 
 885   0.0000       2.109554        57.4039 
 886   0.0000       2.115470        57.5649 
 887   0.0000       2.117935        57.6319 
 888   0.0000       2.119584        57.6768 
 889   0.0000       2.126187        57.8565 
 890   0.0000       2.127676        57.8970 
 891   0.0000       2.131344        57.9968 
 892   0.0000       2.135359        58.1061 
 893   0.0000       2.141120        58.2628 
 894   0.0000       2.142627        58.3038 
 895   0.0000       2.147311        58.4313 
 896   0.0000       2.152828        58.5814 
 897   0.0000       2.157432        58.7067 
 898   0.0000       2.160554        58.7917 
 899   0.0000       2.163921        58.8833 
 900   0.0000       2.168729        59.0141 
 901   0.0000       2.173127        59.1338 
 902   0.0000       2.174188        59.1627 
 903   0.0000       2.177597        59.2554 
 904   0.0000       2.181174        59.3528 
 905   0.0000       2.184735        59.4497 
 906   0.0000       2.186117        59.4873 
 907   0.0000       2.188640        59.5559 
 908   0.0000       2.194619        59.7186 
 909   0.0000       2.196847        59.7793 
 910   0.0000       2.202659        59.9374 
 911   0.0000       2.203878        59.9706 
 912   0.0000       2.207300        60.0637 
 913   0.0000       2.211847        60.1874 
 914   0.0000       2.214494        60.2594 
 915   0.0000       2.220922        60.4344 
 916   0.0000       2.225599        60.5616 
 917   0.0000       2.233083        60.7653 
 918   0.0000       2.237408        60.8830 
 919   0.0000       2.238480        60.9121 
 920   0.0000       2.246654        61.1346 
 921   0.0000       2.247883        61.1680 
 922   0.0000       2.260856        61.5210 
 923   0.0000       2.263167        61.5839 
 924   0.0000       2.269756        61.7632 
 925   0.0000       2.269848        61.7657 
 926   0.0000       2.276541        61.9478 
 927   0.0000       2.280065        62.0437 
 928   0.0000       2.286978        62.2318 
 929   0.0000       2.298958        62.5578 
 930   0.0000       2.300335        62.5953 
 931   0.0000       2.305412        62.7334 
 932   0.0000       2.310128        62.8618 
 933   0.0000       2.313465        62.9526 
 934   0.0000       2.316347        63.0310 
 935   0.0000       2.324483        63.2524 
 936   0.0000       2.333641        63.5016 
 937   0.0000       2.346189        63.8430 
 938   0.0000       2.356407        64.1211 
 939   0.0000       2.360619        64.2357 
 940   0.0000       2.368258        64.4436 
 941   0.0000       2.371458        64.5306 
 942   0.0000       2.379430        64.7476 
 943   0.0000       2.386935        64.9518 
 944   0.0000       2.390795        65.0568 
 945   0.0000       2.396834        65.2212 
 946   0.0000       2.398721        65.2725 
 947   0.0000       2.409067        65.5541 
 948   0.0000       2.411790        65.6281 
 949   0.0000       2.418985        65.8239 
 950   0.0000       2.424701        65.9795 
 951   0.0000       2.425936        66.0131 
 952   0.0000       2.433137        66.2090 
 953   0.0000       2.434664        66.2506 
 954   0.0000       2.442419        66.4616 
 955   0.0000       2.445280        66.5394 
 956   0.0000       2.453703        66.7687 
 957   0.0000       2.458505        66.8993 
 958   0.0000       2.460097        66.9426 
 959   0.0000       2.471594        67.2555 
 960   0.0000       2.475258        67.3552 
 961   0.0000       2.483122        67.5692 
 962   0.0000       2.488404        67.7129 
 963   0.0000       2.496033        67.9205 
 964   0.0000       2.498542        67.9888 
 965   0.0000       2.501030        68.0565 
 966   0.0000       2.506885        68.2158 
 967   0.0000       2.508664        68.2642 
 968   0.0000       2.519536        68.5601 
 969   0.0000       2.520743        68.5929 
 970   0.0000       2.528172        68.7951 
 971   0.0000       2.533670        68.9447 
 972   0.0000       2.536715        69.0275 
 973   0.0000       2.540210        69.1226 
 974   0.0000       2.545439        69.2649 
 975   0.0000       2.547211        69.3131 
 976   0.0000       2.549961        69.3880 
 977   0.0000       2.554628        69.5150 
 978   0.0000       2.557524        69.5938 
 979   0.0000       2.562965        69.7418 
 980   0.0000       2.567098        69.8543 
 981   0.0000       2.568994        69.9059 
 982   0.0000       2.577366        70.1337 
 983   0.0000       2.582259        70.2668 
 984   0.0000       2.585815        70.3636 
 985   0.0000       2.592791        70.5534 
 986   0.0000       2.597048        70.6693 
 987   0.0000       2.598853        70.7184 
 988   0.0000       2.603886        70.8554 
 989   0.0000       2.609377        71.0048 
 990   0.0000       2.612234        71.0825 
 991   0.0000       2.613017        71.1038 
 992   0.0000       2.615971        71.1842 
 993   0.0000       2.620976        71.3204 
 994   0.0000       2.626384        71.4675 
 995   0.0000       2.628563        71.5268 
 996   0.0000       2.629939        71.5643 
 997   0.0000       2.632295        71.6284 
 998   0.0000       2.633794        71.6692 
 999   0.0000       2.636743        71.7494 
 1000   0.0000       2.636863        71.7527 
 1001   0.0000       2.640190        71.8432 
 1002   0.0000       2.648578        72.0715 
 1003   0.0000       2.648928        72.0810 
 1004   0.0000       2.651202        72.1429 
 1005   0.0000       2.654460        72.2315 
 1006   0.0000       2.655136        72.2499 
 1007   0.0000       2.657453        72.3130 
 1008   0.0000       2.662712        72.4561 
 1009   0.0000       2.666447        72.5577 
 1010   0.0000       2.670900        72.6789 
 1011   0.0000       2.673217        72.7419 
 1012   0.0000       2.675936        72.8159 
 1013   0.0000       2.677611        72.8615 
 1014   0.0000       2.678112        72.8751 
 1015   0.0000       2.682436        72.9928 
 1016   0.0000       2.685320        73.0713 
 1017   0.0000       2.687862        73.1404 
 1018   0.0000       2.690279        73.2062 
 1019   0.0000       2.694677        73.3259 
 1020   0.0000       2.698081        73.4185 
 1021   0.0000       2.701043        73.4991 
 1022   0.0000       2.702050        73.5265 
 1023   0.0000       2.705801        73.6286 
 1024   0.0000       2.708119        73.6917 
 1025   0.0000       2.709581        73.7314 
 1026   0.0000       2.715572        73.8945 
 1027   0.0000       2.717341        73.9426 
 1028   0.0000       2.718893        73.9848 
 1029   0.0000       2.719870        74.0114 
 1030   0.0000       2.721475        74.0551 
 1031   0.0000       2.721791        74.0637 
 1032   0.0000       2.724851        74.1470 
 1033   0.0000       2.725850        74.1741 
 1034   0.0000       2.727230        74.2117 
 1035   0.0000       2.729135        74.2635 
 1036   0.0000       2.733537        74.3833 
 1037   0.0000       2.735537        74.4378 
 1038   0.0000       2.739900        74.5565 
 1039   0.0000       2.742495        74.6271 
 1040   0.0000       2.746632        74.7397 
 1041   0.0000       2.750817        74.8535 
 1042   0.0000       2.755613        74.9840 
 1043   0.0000       2.757690        75.0406 
 1044   0.0000       2.760761        75.1241 
 1045   0.0000       2.764091        75.2147 
 1046   0.0000       2.767437        75.3058 
 1047   0.0000       2.771814        75.4249 
 1048   0.0000       2.774743        75.5046 
 1049   0.0000       2.778881        75.6172 
 1050   0.0000       2.781280        75.6825 
 1051   0.0000       2.783524        75.7435 
 1052   0.0000       2.785111        75.7867 
 1053   0.0000       2.787724        75.8578 
 1054   0.0000       2.789265        75.8998 
 1055   0.0000       2.790034        75.9207 
 1056   0.0000       2.793133        76.0050 
 1057   0.0000       2.797249        76.1170 
 1058   0.0000       2.797783        76.1315 
 1059   0.0000       2.801943        76.2447 
 1060   0.0000       2.804673        76.3190 
 1061   0.0000       2.805030        76.3287 
 1062   0.0000       2.806074        76.3571 
 1063   0.0000       2.810078        76.4661 
 1064   0.0000       2.811405        76.5022 
 1065   0.0000       2.814991        76.5998 
 1066   0.0000       2.819438        76.7208 
 1067   0.0000       2.823042        76.8189 
 1068   0.0000       2.826356        76.9091 
 1069   0.0000       2.833791        77.1114 
 1070   0.0000       2.836463        77.1841 
 1071   0.0000       2.837031        77.1996 
 1072   0.0000       2.840224        77.2864 
 1073   0.0000       2.843971        77.3884 
 1074   0.0000       2.846380        77.4539 
 1075   0.0000       2.848917        77.5230 
 1076   0.0000       2.853402        77.6450 
 1077   0.0000       2.856004        77.7158 
 1078   0.0000       2.860117        77.8277 
 1079   0.0000       2.866073        77.9898 
 1080   0.0000       2.869204        78.0750 
 1081   0.0000       2.872828        78.1736 
 1082   0.0000       2.876101        78.2627 
 1083   0.0000       2.876720        78.2795 
 1084   0.0000       2.879771        78.3626 
 1085   0.0000       2.881969        78.4224 
 1086   0.0000       2.884940        78.5032 
 1087   0.0000       2.886865        78.5556 
 1088   0.0000       2.890976        78.6674 
 1089   0.0000       2.892890        78.7195 
 1090   0.0000       2.898546        78.8734 
 1091   0.0000       2.900194        78.9183 
 1092   0.0000       2.900708        78.9323 
 1093   0.0000       2.906204        79.0818 
 1094   0.0000       2.907090        79.1059 
 1095   0.0000       2.910890        79.2093 
 1096   0.0000       2.914612        79.3106 
 1097   0.0000       2.923438        79.5508 
 1098   0.0000       2.924542        79.5808 
 1099   0.0000       2.927057        79.6493 
 1100   0.0000       2.929590        79.7182 
 1101   0.0000       2.931616        79.7733 
 1102   0.0000       2.937744        79.9401 
 1103   0.0000       2.938879        79.9710 
 1104   0.0000       2.945273        80.1449 
 1105   0.0000       2.947726        80.2117 
 1106   0.0000       2.953046        80.3565 
 1107   0.0000       2.954681        80.4010 
 1108   0.0000       2.955023        80.4103 
 1109   0.0000       2.959502        80.5321 
 1110   0.0000       2.961143        80.5768 
 1111   0.0000       2.964357        80.6642 
 1112   0.0000       2.968822        80.7857 
 1113   0.0000       2.969622        80.8075 
 1114   0.0000       2.971582        80.8609 
 1115   0.0000       2.978918        81.0605 
 1116   0.0000       2.979790        81.0842 
 1117   0.0000       2.992708        81.4357 
 1118   0.0000       2.995136        81.5018 
 1119   0.0000       2.998763        81.6005 
 1120   0.0000       3.003809        81.7378 
 1121   0.0000       3.005754        81.7907 
 1122   0.0000       3.008779        81.8730 
 1123   0.0000       3.012519        81.9748 
 1124   0.0000       3.019575        82.1668 
 1125   0.0000       3.023040        82.2611 
 1126   0.0000       3.025354        82.3241 
 1127   0.0000       3.030194        82.4558 
 1128   0.0000       3.030649        82.4682 
 1129   0.0000       3.031443        82.4897 
 1130   0.0000       3.036693        82.6326 
 1131   0.0000       3.040248        82.7294 
 1132   0.0000       3.044277        82.8390 
 1133   0.0000       3.049233        82.9739 
 1134   0.0000       3.052275        83.0566 
 1135   0.0000       3.053917        83.1013 
 1136   0.0000       3.056768        83.1789 
 1137   0.0000       3.057166        83.1897 
 1138   0.0000       3.063453        83.3608 
 1139   0.0000       3.064464        83.3883 
 1140   0.0000       3.068955        83.5105 
 1141   0.0000       3.071424        83.5777 
 1142   0.0000       3.080041        83.8122 
 1143   0.0000       3.084557        83.9351 
 1144   0.0000       3.085897        83.9715 
 1145   0.0000       3.092822        84.1600 
 1146   0.0000       3.094737        84.2121 
 1147   0.0000       3.095569        84.2347 
 1148   0.0000       3.098493        84.3143 
 1149   0.0000       3.101497        84.3960 
 1150   0.0000       3.104441        84.4761 
 1151   0.0000       3.105410        84.5025 
 1152   0.0000       3.106259        84.5256 
 1153   0.0000       3.109282        84.6079 
 1154   0.0000       3.118852        84.8683 
 1155   0.0000       3.121051        84.9281 
 1156   0.0000       3.124412        85.0196 
 1157   0.0000       3.126837        85.0856 
 1158   0.0000       3.130818        85.1939 
 1159   0.0000       3.134190        85.2856 
 1160   0.0000       3.136274        85.3424 
 1161   0.0000       3.140629        85.4609 
 1162   0.0000       3.142764        85.5189 
 1163   0.0000       3.144239        85.5591 
 1164   0.0000       3.146797        85.6287 
 1165   0.0000       3.147522        85.6484 
 1166   0.0000       3.152574        85.7859 
 1167   0.0000       3.154576        85.8404 
 1168   0.0000       3.157641        85.9238 
 1169   0.0000       3.161201        86.0207 
 1170   0.0000       3.164751        86.1172 
 1171   0.0000       3.168304        86.2139 
 1172   0.0000       3.171583        86.3032 
 1173   0.0000       3.172837        86.3373 
 1174   0.0000       3.178312        86.4863 
 1175   0.0000       3.180769        86.5531 
 1176   0.0000       3.182284        86.5943 
 1177   0.0000       3.187373        86.7328 
 1178   0.0000       3.190784        86.8256 
 1179   0.0000       3.191009        86.8318 
 1180   0.0000       3.195392        86.9510 
 1181   0.0000       3.197427        87.0064 
 1182   0.0000       3.201819        87.1259 
 1183   0.0000       3.206652        87.2574 
 1184   0.0000       3.209757        87.3419 
 1185   0.0000       3.212865        87.4265 
 1186   0.0000       3.214122        87.4607 
 1187   0.0000       3.219915        87.6183 
 1188   0.0000       3.222459        87.6876 
 1189   0.0000       3.224985        87.7563 
 1190   0.0000       3.227798        87.8328 
 1191   0.0000       3.231403        87.9309 
 1192   0.0000       3.233684        87.9930 
 1193   0.0000       3.234726        88.0214 
 1194   0.0000       3.237938        88.1088 
 1195   0.0000       3.240234        88.1712 
 1196   0.0000       3.241588        88.2081 
 1197   0.0000       3.246249        88.3349 
 1198   0.0000       3.248608        88.3991 
 1199   0.0000       3.255119        88.5763 
 1200   0.0000       3.263386        88.8013 
 1201   0.0000       3.266942        88.8980 
 1202   0.0000       3.273537        89.0775 
 1203   0.0000       3.279457        89.2386 
 1204   0.0000       3.280879        89.2773 
 1205   0.0000       3.287236        89.4502 
 1206   0.0000       3.289153        89.5024 
 1207   0.0000       3.293314        89.6156 
 1208   0.0000       3.293944        89.6328 
 1209   0.0000       3.294624        89.6513 
 1210   0.0000       3.300679        89.8160 
 1211   0.0000       3.303816        89.9014 
 1212   0.0000       3.305104        89.9364 
 1213   0.0000       3.306156        89.9651 
 1214   0.0000       3.309051        90.0438 
 1215   0.0000       3.309864        90.0660 
 1216   0.0000       3.314457        90.1910 
 1217   0.0000       3.317073        90.2622 
 1218   0.0000       3.317958        90.2862 
 1219   0.0000       3.321578        90.3847 
 1220   0.0000       3.325441        90.4898 
 1221   0.0000       3.327354        90.5419 
 1222   0.0000       3.327995        90.5593 
 1223   0.0000       3.328154        90.5637 
 1224   0.0000       3.331976        90.6677 
 1225   0.0000       3.334860        90.7462 
 1226   0.0000       3.337816        90.8266 
 1227   0.0000       3.344699        91.0139 
 1228   0.0000       3.348170        91.1083 
 1229   0.0000       3.350445        91.1702 
 1230   0.0000       3.351038        91.1864 
 1231   0.0000       3.356303        91.3297 
 1232   0.0000       3.357553        91.3637 
 1233   0.0000       3.358921        91.4009 
 1234   0.0000       3.364581        91.5549 
 1235   0.0000       3.369188        91.6803 
 1236   0.0000       3.371485        91.7428 
 1237   0.0000       3.374229        91.8174 
 1238   0.0000       3.375727        91.8582 
 1239   0.0000       3.380028        91.9752 
 1240   0.0000       3.381789        92.0231 
 1241   0.0000       3.382981        92.0556 
 1242   0.0000       3.386210        92.1435 
 1243   0.0000       3.388419        92.2036 
 1244   0.0000       3.391199        92.2792 
 1245   0.0000       3.396393        92.4206 
 1246   0.0000       3.397946        92.4628 
 1247   0.0000       3.401481        92.5590 
 1248   0.0000       3.404371        92.6376 
 1249   0.0000       3.406077        92.6841 
 1250   0.0000       3.409435        92.7754 
 1251   0.0000       3.409966        92.7899 
 1252   0.0000       3.412010        92.8455 
 1253   0.0000       3.416084        92.9564 
 1254   0.0000       3.420707        93.0822 
 1255   0.0000       3.424097        93.1744 
 1256   0.0000       3.426661        93.2442 
 1257   0.0000       3.430608        93.3516 
 1258   0.0000       3.430799        93.3568 
 1259   0.0000       3.434209        93.4496 
 1260   0.0000       3.436332        93.5074 
 1261   0.0000       3.442945        93.6873 
 1262   0.0000       3.445210        93.7489 
 1263   0.0000       3.448249        93.8316 
 1264   0.0000       3.455898        94.0398 
 1265   0.0000       3.460024        94.1520 
 1266   0.0000       3.464914        94.2851 
 1267   0.0000       3.465612        94.3041 
 1268   0.0000       3.468541        94.3838 
 1269   0.0000       3.469972        94.4227 
 1270   0.0000       3.472255        94.4849 
 1271   0.0000       3.474914        94.5572 
 1272   0.0000       3.475406        94.5706 
 1273   0.0000       3.479458        94.6809 
 1274   0.0000       3.480685        94.7142 
 1275   0.0000       3.485473        94.8445 
 1276   0.0000       3.491318        95.0036 
 1277   0.0000       3.493143        95.0533 
 1278   0.0000       3.495431        95.1155 
 1279   0.0000       3.496931        95.1563 
 1280   0.0000       3.498205        95.1910 
 1281   0.0000       3.503701        95.3406 
 1282   0.0000       3.507838        95.4531 
 1283   0.0000       3.508886        95.4816 
 1284   0.0000       3.510104        95.5148 
 1285   0.0000       3.512521        95.5806 
 1286   0.0000       3.515545        95.6628 
 1287   0.0000       3.516374        95.6854 
 1288   0.0000       3.519150        95.7609 
 1289   0.0000       3.520294        95.7921 
 1290   0.0000       3.528802        96.0236 
 1291   0.0000       3.532620        96.1275 
 1292   0.0000       3.535213        96.1980 
 1293   0.0000       3.536761        96.2402 
 1294   0.0000       3.540951        96.3542 
 1295   0.0000       3.542481        96.3958 
 1296   0.0000       3.546536        96.5062 
 1297   0.0000       3.548535        96.5606 
 1298   0.0000       3.556103        96.7665 
 1299   0.0000       3.558477        96.8311 
 1300   0.0000       3.563250        96.9610 
 1301   0.0000       3.567041        97.0641 
 1302   0.0000       3.573137        97.2300 
 1303   0.0000       3.579213        97.3953 
 1304   0.0000       3.580121        97.4201 
 1305   0.0000       3.583260        97.5055 
 1306   0.0000       3.589457        97.6741 
 1307   0.0000       3.591806        97.7380 
 1308   0.0000       3.592932        97.7687 
 1309   0.0000       3.599550        97.9487 
 1310   0.0000       3.600663        97.9790 
 1311   0.0000       3.604517        98.0839 
 1312   0.0000       3.609317        98.2145 
 1313   0.0000       3.612809        98.3095 
 1314   0.0000       3.618488        98.4641 
 1315   0.0000       3.618957        98.4768 
 1316   0.0000       3.626400        98.6793 
 1317   0.0000       3.630759        98.7980 
 1318   0.0000       3.639047        99.0235 
 1319   0.0000       3.641916        99.1016 
 1320   0.0000       3.643063        99.1328 
 1321   0.0000       3.648702        99.2862 
 1322   0.0000       3.650021        99.3221 
 1323   0.0000       3.654957        99.4564 
 1324   0.0000       3.663669        99.6935 
 1325   0.0000       3.667103        99.7869 
 1326   0.0000       3.675226       100.0080 
 1327   0.0000       3.681268       100.1724 
 1328   0.0000       3.683820       100.2418 
 1329   0.0000       3.688042       100.3567 
 1330   0.0000       3.690757       100.4306 
 1331   0.0000       3.702756       100.7571 
 1332   0.0000       3.704464       100.8036 
 1333   0.0000       3.709185       100.9321 
 1334   0.0000       3.718599       101.1882 
 1335   0.0000       3.735924       101.6597 
 1336   0.0000       3.745165       101.9111 
 1337   0.0000       3.746086       101.9362 
 1338   0.0000       3.752832       102.1198 
 1339   0.0000       3.753334       102.1334 
 1340   0.0000       3.759556       102.3027 
 1341   0.0000       3.781635       102.9035 
 1342   0.0000       3.787679       103.0680 
 1343   0.0000       3.797730       103.3415 
 1344   0.0000       3.807398       103.6046 
 1345   0.0000       3.811818       103.7248 
 1346   0.0000       3.819506       103.9341 
 1347   0.0000       3.825928       104.1088 
 1348   0.0000       3.832933       104.2994 
 1349   0.0000       3.835738       104.3757 
 1350   0.0000       3.840540       104.5064 
 1351   0.0000       3.848750       104.7298 
 1352   0.0000       3.853508       104.8593 
 1353   0.0000       3.860496       105.0494 
 1354   0.0000       3.862368       105.1004 
 1355   0.0000       3.867328       105.2353 
 1356   0.0000       3.873350       105.3992 
 1357   0.0000       3.882378       105.6449 
 1358   0.0000       3.882645       105.6521 
 1359   0.0000       3.891385       105.8900 
 1360   0.0000       3.901155       106.1558 
 1361   0.0000       3.911006       106.4239 
 1362   0.0000       3.920190       106.6738 
 1363   0.0000       3.921705       106.7150 
 1364   0.0000       3.935867       107.1004 
 1365   0.0000       3.938316       107.1670 
 1366   0.0000       3.946734       107.3961 
 1367   0.0000       3.950735       107.5050 
 1368   0.0000       3.955952       107.6469 
 1369   0.0000       3.958324       107.7115 
 1370   0.0000       3.962819       107.8338 
 1371   0.0000       3.969904       108.0266 
 1372   0.0000       3.972895       108.1080 
 1373   0.0000       3.986559       108.4798 
 1374   0.0000       3.987414       108.5030 
 1375   0.0000       3.996894       108.7610 
 1376   0.0000       4.005822       109.0040 
 1377   0.0000       4.009066       109.0922 
 1378   0.0000       4.014290       109.2344 
 1379   0.0000       4.014835       109.2492 
 1380   0.0000       4.021805       109.4389 
 1381   0.0000       4.025234       109.5322 
 1382   0.0000       4.034006       109.7709 
 1383   0.0000       4.042413       109.9996 
 1384   0.0000       4.044724       110.0625 
 1385   0.0000       4.052465       110.2732 
 1386   0.0000       4.056098       110.3720 
 1387   0.0000       4.065936       110.6398 
 1388   0.0000       4.067191       110.6739 
 1389   0.0000       4.073464       110.8446 
 1390   0.0000       4.087258       111.2199 
 1391   0.0000       4.090931       111.3199 
 1392   0.0000       4.094576       111.4191 
 1393   0.0000       4.098537       111.5269 
 1394   0.0000       4.100824       111.5891 
 1395   0.0000       4.106281       111.7376 
 1396   0.0000       4.108603       111.8008 
 1397   0.0000       4.115896       111.9992 
 1398   0.0000       4.116199       112.0075 
 1399   0.0000       4.117867       112.0528 
 1400   0.0000       4.126044       112.2754 
 1401   0.0000       4.127270       112.3087 
 1402   0.0000       4.134150       112.4959 
 1403   0.0000       4.136712       112.5657 
 1404   0.0000       4.137868       112.5971 
 1405   0.0000       4.142481       112.7226 
 1406   0.0000       4.144422       112.7755 
 1407   0.0000       4.152534       112.9962 
 1408   0.0000       4.153684       113.0275 
 1409   0.0000       4.156741       113.1107 
 1410   0.0000       4.163791       113.3025 
 1411   0.0000       4.167581       113.4056 
 1412   0.0000       4.171509       113.5125 
 1413   0.0000       4.174831       113.6029 
 1414   0.0000       4.181347       113.7802 
 1415   0.0000       4.182073       113.8000 
 1416   0.0000       4.188050       113.9626 
 1417   0.0000       4.193756       114.1179 
 1418   0.0000       4.194299       114.1327 
 1419   0.0000       4.201194       114.3203 
 1420   0.0000       4.203230       114.3757 
 1421   0.0000       4.207894       114.5026 
 1422   0.0000       4.209564       114.5481 
 1423   0.0000       4.213498       114.6551 
 1424   0.0000       4.218892       114.8019 
 1425   0.0000       4.231564       115.1467 
 1426   0.0000       4.233303       115.1940 
 1427   0.0000       4.236520       115.2816 
 1428   0.0000       4.241243       115.4101 
 1429   0.0000       4.241491       115.4168 
 1430   0.0000       4.243558       115.4731 
 1431   0.0000       4.245877       115.5362 
 1432   0.0000       4.253851       115.7532 
 1433   0.0000       4.253954       115.7560 
 1434   0.0000       4.257402       115.8498 
 1435   0.0000       4.261587       115.9637 
 1436   0.0000       4.263554       116.0172 
 1437   0.0000       4.264080       116.0315 
 1438   0.0000       4.265012       116.0569 
 1439   0.0000       4.271647       116.2374 
 1440   0.0000       4.272665       116.2651 
 1441   0.0000       4.275688       116.3474 
 1442   0.0000       4.284330       116.5825 
 1443   0.0000       4.286003       116.6281 
 1444   0.0000       4.292401       116.8022 
 1445   0.0000       4.293801       116.8403 
 1446   0.0000       4.298003       116.9546 
 1447   0.0000       4.309126       117.2573 
 1448   0.0000       4.318616       117.5155 
 1449   0.0000       4.325712       117.7086 
 1450   0.0000       4.329263       117.8052 
 1451   0.0000       4.334028       117.9349 
 1452   0.0000       4.339323       118.0790 
 1453   0.0000       4.344521       118.2204 
 1454   0.0000       4.349116       118.3455 
 1455   0.0000       4.352647       118.4416 
 1456   0.0000       4.362110       118.6991 
 1457   0.0000       4.368324       118.8681 
 1458   0.0000       4.373929       119.0207 
 1459   0.0000       4.380199       119.1913 
 1460   0.0000       4.384971       119.3211 
 1461   0.0000       4.392936       119.5379 
 1462   0.0000       4.399125       119.7063 
 1463   0.0000       4.410563       120.0175 
 1464   0.0000       4.416742       120.1857 
 1465   0.0000       4.417682       120.2112 
 1466   0.0000       4.426453       120.4499 
 1467   0.0000       4.432751       120.6213 
 1468   0.0000       4.450798       121.1124 
 1469   0.0000       4.461135       121.3937 
 1470   0.0000       4.464469       121.4844 
 1471   0.0000       4.471145       121.6660 
 1472   0.0000       4.498462       122.4094 
 1473   0.0000       4.505160       122.5916 
 1474   0.0000       4.511922       122.7756 
 1475   0.0000       4.516858       122.9099 
 1476   0.0000       4.521075       123.0247 
 1477   0.0000       4.529525       123.2547 
 1478   0.0000       4.545321       123.6845 
 1479   0.0000       4.548448       123.7696 
 1480   0.0000       4.553701       123.9125 
 1481   0.0000       4.557479       124.0153 
 1482   0.0000       4.566411       124.2584 
 1483   0.0000       4.568085       124.3039 
 1484   0.0000       4.590813       124.9224 
 1485   0.0000       4.599937       125.1707 
 1486   0.0000       4.610295       125.4525 
 1487   0.0000       4.619898       125.7138 
 1488   0.0000       4.636783       126.1733 
 1489   0.0000       4.642790       126.3367 
 1490   0.0000       4.649249       126.5125 
 1491   0.0000       4.656956       126.7222 
 1492   0.0000       4.660302       126.8133 
 1493   0.0000       4.679117       127.3253 
 1494   0.0000       4.685592       127.5014 
 1495   0.0000       4.698305       127.8474 
 1496   0.0000       4.699468       127.8790 
 1497   0.0000       4.707893       128.1083 
 1498   0.0000       4.719916       128.4355 
 1499   0.0000       4.728708       128.6747 
 1500   0.0000       4.744071       129.0927 
 1501   0.0000       4.752985       129.3353 
 1502   0.0000       4.760715       129.5457 
 1503   0.0000       4.762959       129.6067 
 1504   0.0000       4.765269       129.6695 
 1505   0.0000       4.780345       130.0798 
 1506   0.0000       4.788817       130.3103 
 1507   0.0000       4.792122       130.4003 
 1508   0.0000       4.795774       130.4996 
 1509   0.0000       4.804242       130.7301 
 1510   0.0000       4.807117       130.8083 
 1511   0.0000       4.811826       130.9364 
 1512   0.0000       4.827981       131.3760 
 1513   0.0000       4.836422       131.6057 
 1514   0.0000       4.842334       131.7666 
 1515   0.0000       4.850419       131.9866 
 1516   0.0000       4.857776       132.1868 
 1517   0.0000       4.862418       132.3131 
 1518   0.0000       4.868585       132.4809 
 1519   0.0000       4.876578       132.6984 
 1520   0.0000       4.885432       132.9394 
 1521   0.0000       4.915105       133.7468 
 1522   0.0000       4.920258       133.8870 
 1523   0.0000       4.923161       133.9660 
 1524   0.0000       4.930913       134.1770 
 1525   0.0000       4.940115       134.4274 
 1526   0.0000       4.950531       134.7108 
 1527   0.0000       4.961454       135.0080 
 1528   0.0000       4.973837       135.3450 
 1529   0.0000       4.978509       135.4721 
 1530   0.0000       4.993149       135.8705 
 1531   0.0000       4.997712       135.9947 
 1532   0.0000       5.011093       136.3588 
 1533   0.0000       5.012908       136.4082 
 1534   0.0000       5.026190       136.7696 
 1535   0.0000       5.032605       136.9441 
 1536   0.0000       5.045038       137.2825 
 1537   0.0000       5.049946       137.4160 
 1538   0.0000       5.064548       137.8134 
 1539   0.0000       5.067028       137.8808 
 1540   0.0000       5.074821       138.0929 
 1541   0.0000       5.081539       138.2757 
 1542   0.0000       5.095724       138.6617 
 1543   0.0000       5.100482       138.7912 
 1544   0.0000       5.131500       139.6352 
 1545   0.0000       5.132603       139.6652 
 1546   0.0000       5.143064       139.9499 
 1547   0.0000       5.148672       140.1025 
 1548   0.0000       5.165267       140.5541 
 1549   0.0000       5.170290       140.6908 
 1550   0.0000       5.173894       140.7888 
 1551   0.0000       5.179374       140.9379 
 1552   0.0000       5.186609       141.1348 
 1553   0.0000       5.192110       141.2845 
 1554   0.0000       5.202475       141.5665 
 1555   0.0000       5.240283       142.5953 
 1556   0.0000       5.258007       143.0776 
 1557   0.0000       5.264793       143.2623 
 1558   0.0000       5.274987       143.5397 
 1559   0.0000       5.281488       143.7166 
 1560   0.0000       5.287059       143.8682 
 1561   0.0000       5.300809       144.2423 
 1562   0.0000       5.306476       144.3966 
 1563   0.0000       5.316324       144.6645 
 1564   0.0000       5.323534       144.8607 
 1565   0.0000       5.333890       145.1425 
 1566   0.0000       5.343152       145.3946 
 1567   0.0000       5.358646       145.8162 
 1568   0.0000       5.368952       146.0966 
 1569   0.0000       5.376269       146.2957 
 1570   0.0000       5.395503       146.8191 
 1571   0.0000       5.407411       147.1431 
 1572   0.0000       5.414844       147.3454 
 1573   0.0000       5.423676       147.5857 
 1574   0.0000       5.426578       147.6647 
 1575   0.0000       5.446507       148.2070 
 1576   0.0000       5.460265       148.5814 
 1577   0.0000       5.469691       148.8379 
 1578   0.0000       5.492140       149.4487 
 1579   0.0000       5.497507       149.5948 
 1580   0.0000       5.508061       149.8820 
 1581   0.0000       5.544825       150.8824 
 1582   0.0000       5.548331       150.9778 
 1583   0.0000       5.550928       151.0484 
 1584   0.0000       5.565094       151.4339 
 1585   0.0000       5.593184       152.1983 
 1586   0.0000       5.602693       152.4570 
 1587   0.0000       5.618032       152.8744 
 1588   0.0000       5.652020       153.7993 
 1589   0.0000       5.654891       153.8774 
 1590   0.0000       5.662712       154.0902 
 1591   0.0000       5.702885       155.1834 
 1592   0.0000       5.732647       155.9933 
 1593   0.0000       5.754119       156.5775 
 1594   0.0000       5.769250       156.9893 
 1595   0.0000       5.787856       157.4956 
 1596   0.0000       5.814113       158.2101 
 1597   0.0000       5.866053       159.6234 
 1598   0.0000       5.904786       160.6774 
 1599   0.0000       5.916941       161.0082 
 1600   0.0000       5.953969       162.0157 
 1601   0.0000       5.965276       162.3234 
 1602   0.0000       5.998709       163.2332 
 1603   0.0000       6.049688       164.6204 
 1604   0.0000       6.125483       166.6829 
 1605   0.0000       6.133525       166.9017 
 1606   0.0000       6.167026       167.8133 
 1607   0.0000       6.181733       168.2135 
 1608   0.0000       6.237544       169.7322 
 1609   0.0000       6.330614       172.2648 
 1610   0.0000       6.499558       176.8620 
 1611   0.0000       8.785540       239.0667 
 1612   0.0000       8.834991       240.4123 
 1613   0.0000       8.986662       244.5395 
 1614   0.0000       9.024969       245.5819 
 1615   0.0000       9.352468       254.4936 
 1616   0.0000       9.399561       255.7750 
 1617   0.0000       9.435442       256.7514 
 1618   0.0000       9.565144       260.2808 
 1619   0.0000       9.627813       261.9861 
 1620   0.0000      19.770171       537.9737 
 1621   0.0000      20.483827       557.3933 
 1622   0.0000      20.733592       564.1897 
 1623   0.0000      22.094030       601.2091 
 1624   0.0000      22.153873       602.8375 
 1625   0.0000      22.159405       602.9881 
 1626   0.0000      22.177268       603.4741 
 1627   0.0000      22.190509       603.8344 
 1628   0.0000      22.462098       611.2248 
 1629   0.0000      22.595597       614.8575 
 1630   0.0000      22.605899       615.1378 
 1631   0.0000      22.619539       615.5089 
 1632   0.0000      22.624046       615.6316 
 1633   0.0000      22.634890       615.9267 
 1634   0.0000      22.644800       616.1963 
 1635   0.0000      22.653547       616.4344 
 1636   0.0000      22.666094       616.7758 
 1637   0.0000      22.695267       617.5696 
 1638   0.0000      22.716890       618.1580 
 1639   0.0000      22.717483       618.1741 
 1640   0.0000      22.721241       618.2764 
 1641   0.0000      22.744783       618.9170 
 1642   0.0000      22.766950       619.5202 
 1643   0.0000      22.776763       619.7872 
 1644   0.0000      22.786046       620.0398 
 1645   0.0000      22.804636       620.5457 
 1646   0.0000      22.812946       620.7718 
 1647   0.0000      22.860408       622.0633 
 1648   0.0000      22.868275       622.2774 
 1649   0.0000      22.880907       622.6211 
 1650   0.0000      22.884708       622.7246 
 1651   0.0000      22.886147       622.7637 
 1652   0.0000      22.921776       623.7332 
 1653   0.0000      22.926314       623.8567 
 1654   0.0000      22.997608       625.7967 
 1655   0.0000      23.123049       629.2102 
 1656   0.0000      23.187675       630.9687 
 1657   0.0000      23.248121       632.6135 
 1658   0.0000      23.263907       633.0431 
 1659   0.0000      23.277483       633.4125 
 1660   0.0000      23.300334       634.0343 
 1661   0.0000      23.314520       634.4204 
 1662   0.0000      23.325831       634.7281 
 1663   0.0000      23.571173       641.4042 
 1664   0.0000      23.840892       648.7436 
 1665   0.0000      33.202165       903.4768 
 1666   0.0000      33.270804       905.3446 
 1667   0.0000      33.320308       906.6917 

                 SPIN DOWN ORBITALS
  NO   OCC          E(Eh)            E(eV) 
   0   1.0000     -89.112194     -2424.8661 
   1   1.0000     -89.009667     -2422.0762 
   2   1.0000     -88.986180     -2421.4370 
   3   1.0000     -14.605482      -397.4354 
   4   1.0000     -14.532751      -395.4562 
   5   1.0000     -14.485611      -394.1735 
   6   1.0000     -10.454685      -284.4864 
   7   1.0000     -10.454569      -284.4833 
   8   1.0000     -10.436148      -283.9820 
   9   1.0000     -10.436098      -283.9807 
  10   1.0000     -10.404137      -283.1110 
  11   1.0000     -10.395172      -282.8670 
  12   1.0000     -10.390900      -282.7508 
  13   1.0000     -10.390770      -282.7472 
  14   1.0000     -10.385063      -282.5919 
  15   1.0000     -10.384842      -282.5859 
  16   1.0000     -10.384244      -282.5696 
  17   1.0000     -10.384028      -282.5638 
  18   1.0000     -10.382748      -282.5289 
  19   1.0000     -10.382612      -282.5252 
  20   1.0000     -10.379490      -282.4403 
  21   1.0000     -10.377938      -282.3980 
  22   1.0000     -10.372161      -282.2408 
  23   1.0000     -10.370707      -282.2013 
  24   1.0000     -10.367464      -282.1130 
  25   1.0000     -10.361936      -281.9626 
  26   1.0000     -10.361396      -281.9479 
  27   1.0000     -10.361335      -281.9463 
  28   1.0000     -10.355820      -281.7962 
  29   1.0000     -10.355771      -281.7948 
  30   1.0000     -10.345816      -281.5240 
  31   1.0000     -10.344401      -281.4855 
  32   1.0000     -10.343235      -281.4537 
  33   1.0000     -10.340144      -281.3696 
  34   1.0000     -10.339674      -281.3568 
  35   1.0000     -10.338351      -281.3208 
  36   1.0000     -10.335607      -281.2462 
  37   1.0000     -10.332947      -281.1738 
  38   1.0000     -10.332154      -281.1522 
  39   1.0000     -10.331897      -281.1452 
  40   1.0000     -10.305137      -280.4170 
  41   1.0000     -10.304836      -280.4088 
  42   1.0000     -10.304551      -280.4011 
  43   1.0000     -10.304208      -280.3917 
  44   1.0000     -10.303638      -280.3762 
  45   1.0000     -10.303336      -280.3680 
  46   1.0000     -10.297739      -280.2157 
  47   1.0000     -10.297205      -280.2012 
  48   1.0000      -8.189671      -222.8523 
  49   1.0000      -8.088413      -220.0969 
  50   1.0000      -8.064481      -219.4457 
  51   1.0000      -6.153323      -167.4404 
  52   1.0000      -6.149265      -167.3300 
  53   1.0000      -6.144986      -167.2136 
  54   1.0000      -6.052499      -164.6969 
  55   1.0000      -6.048373      -164.5846 
  56   1.0000      -6.044169      -164.4702 
  57   1.0000      -6.028616      -164.0470 
  58   1.0000      -6.024950      -163.9472 
  59   1.0000      -6.019821      -163.8076 
  60   1.0000      -1.224816       -33.3289 
  61   1.0000      -1.184694       -32.2372 
  62   1.0000      -1.127364       -30.6771 
  63   1.0000      -1.105056       -30.0701 
  64   1.0000      -1.097621       -29.8678 
  65   1.0000      -1.062278       -28.9061 
  66   1.0000      -1.046958       -28.4892 
  67   1.0000      -1.041301       -28.3352 
  68   1.0000      -1.031248       -28.0617 
  69   1.0000      -1.009929       -27.4816 
  70   1.0000      -1.003666       -27.3111 
  71   1.0000      -0.995134       -27.0790 
  72   1.0000      -0.981731       -26.7143 
  73   1.0000      -0.978755       -26.6333 
  74   1.0000      -0.962740       -26.1975 
  75   1.0000      -0.955861       -26.0103 
  76   1.0000      -0.947556       -25.7843 
  77   1.0000      -0.942828       -25.6557 
  78   1.0000      -0.928803       -25.2740 
  79   1.0000      -0.916218       -24.9316 
  80   1.0000      -0.912062       -24.8185 
  81   1.0000      -0.903962       -24.5980 
  82   1.0000      -0.899324       -24.4719 
  83   1.0000      -0.891278       -24.2529 
  84   1.0000      -0.877572       -23.8799 
  85   1.0000      -0.865484       -23.5510 
  86   1.0000      -0.862925       -23.4814 
  87   1.0000      -0.846360       -23.0306 
  88   1.0000      -0.829936       -22.5837 
  89   1.0000      -0.818921       -22.2840 
  90   1.0000      -0.817245       -22.2384 
  91   1.0000      -0.793857       -21.6019 
  92   1.0000      -0.790470       -21.5098 
  93   1.0000      -0.786567       -21.4036 
  94   1.0000      -0.774485       -21.0748 
  95   1.0000      -0.771826       -21.0025 
  96   1.0000      -0.769051       -20.9269 
  97   1.0000      -0.764559       -20.8047 
  98   1.0000      -0.755032       -20.5455 
  99   1.0000      -0.745326       -20.2813 
 100   1.0000      -0.736880       -20.0515 
 101   1.0000      -0.726168       -19.7600 
 102   1.0000      -0.713792       -19.4233 
 103   1.0000      -0.698144       -18.9975 
 104   1.0000      -0.694184       -18.8897 
 105   1.0000      -0.691484       -18.8162 
 106   1.0000      -0.683544       -18.6002 
 107   1.0000      -0.678642       -18.4668 
 108   1.0000      -0.677710       -18.4414 
 109   1.0000      -0.676715       -18.4143 
 110   1.0000      -0.669897       -18.2288 
 111   1.0000      -0.661454       -17.9991 
 112   1.0000      -0.653123       -17.7724 
 113   1.0000      -0.645388       -17.5619 
 114   1.0000      -0.642212       -17.4755 
 115   1.0000      -0.640577       -17.4310 
 116   1.0000      -0.632005       -17.1977 
 117   1.0000      -0.630988       -17.1701 
 118   1.0000      -0.622137       -16.9292 
 119   1.0000      -0.615662       -16.7530 
 120   1.0000      -0.611462       -16.6387 
 121   1.0000      -0.606064       -16.4919 
 122   1.0000      -0.604335       -16.4448 
 123   1.0000      -0.604025       -16.4364 
 124   1.0000      -0.599685       -16.3183 
 125   1.0000      -0.593924       -16.1615 
 126   1.0000      -0.588477       -16.0133 
 127   1.0000      -0.587997       -16.0002 
 128   1.0000      -0.587191       -15.9783 
 129   1.0000      -0.586721       -15.9655 
 130   1.0000      -0.584526       -15.9058 
 131   1.0000      -0.579653       -15.7732 
 132   1.0000      -0.572442       -15.5769 
 133   1.0000      -0.566513       -15.4156 
 134   1.0000      -0.562228       -15.2990 
 135   1.0000      -0.561037       -15.2666 
 136   1.0000      -0.553086       -15.0502 
 137   1.0000      -0.550680       -14.9848 
 138   1.0000      -0.548238       -14.9183 
 139   1.0000      -0.546392       -14.8681 
 140   1.0000      -0.545555       -14.8453 
 141   1.0000      -0.539262       -14.6741 
 142   1.0000      -0.536703       -14.6044 
 143   1.0000      -0.534503       -14.5446 
 144   1.0000      -0.531857       -14.4726 
 145   1.0000      -0.522069       -14.2062 
 146   1.0000      -0.514159       -13.9910 
 147   1.0000      -0.513545       -13.9743 
 148   1.0000      -0.510399       -13.8887 
 149   1.0000      -0.504224       -13.7206 
 150   1.0000      -0.501743       -13.6531 
 151   1.0000      -0.492501       -13.4016 
 152   1.0000      -0.490150       -13.3377 
 153   1.0000      -0.480785       -13.0828 
 154   1.0000      -0.479994       -13.0613 
 155   1.0000      -0.465502       -12.6670 
 156   1.0000      -0.462721       -12.5913 
 157   1.0000      -0.452623       -12.3165 
 158   1.0000      -0.450163       -12.2496 
 159   1.0000      -0.449684       -12.2365 
 160   1.0000      -0.444942       -12.1075 
 161   1.0000      -0.443688       -12.0734 
 162   1.0000      -0.422080       -11.4854 
 163   1.0000      -0.417586       -11.3631 
 164   1.0000      -0.411143       -11.1878 
 165   1.0000      -0.408005       -11.1024 
 166   1.0000      -0.380614       -10.3570 
 167   1.0000      -0.371569       -10.1109 
 168   1.0000      -0.369499       -10.0546 
 169   1.0000      -0.363648        -9.8954 
 170   1.0000      -0.351133        -9.5548 
 171   1.0000      -0.338422        -9.2089 
 172   1.0000      -0.295344        -8.0367 
 173   0.0000      -0.234044        -6.3687 
 174   0.0000      -0.131372        -3.5748 
 175   0.0000      -0.108697        -2.9578 
 176   0.0000      -0.099899        -2.7184 
 177   0.0000      -0.089668        -2.4400 
 178   0.0000      -0.076164        -2.0725 
 179   0.0000      -0.064798        -1.7632 
 180   0.0000      -0.062739        -1.7072 
 181   0.0000      -0.062110        -1.6901 
 182   0.0000      -0.049388        -1.3439 
 183   0.0000      -0.043479        -1.1831 
 184   0.0000      -0.033419        -0.9094 
 185   0.0000      -0.030271        -0.8237 
 186   0.0000      -0.028253        -0.7688 
 187   0.0000      -0.024625        -0.6701 
 188   0.0000      -0.021861        -0.5949 
 189   0.0000      -0.020091        -0.5467 
 190   0.0000      -0.016625        -0.4524 
 191   0.0000      -0.008536        -0.2323 
 192   0.0000      -0.000743        -0.0202 
 193   0.0000       0.000500         0.0136 
 194   0.0000       0.005400         0.1469 
 195   0.0000       0.006868         0.1869 
 196   0.0000       0.013017         0.3542 
 197   0.0000       0.017260         0.4697 
 198   0.0000       0.017712         0.4820 
 199   0.0000       0.023616         0.6426 
 200   0.0000       0.027345         0.7441 
 201   0.0000       0.030070         0.8182 
 202   0.0000       0.030267         0.8236 
 203   0.0000       0.036591         0.9957 
 204   0.0000       0.039250         1.0680 
 205   0.0000       0.043689         1.1888 
 206   0.0000       0.046463         1.2643 
 207   0.0000       0.048644         1.3237 
 208   0.0000       0.051254         1.3947 
 209   0.0000       0.052179         1.4199 
 210   0.0000       0.055153         1.5008 
 211   0.0000       0.056571         1.5394 
 212   0.0000       0.062531         1.7015 
 213   0.0000       0.064815         1.7637 
 214   0.0000       0.066246         1.8026 
 215   0.0000       0.067095         1.8258 
 216   0.0000       0.070979         1.9314 
 217   0.0000       0.073297         1.9945 
 218   0.0000       0.074869         2.0373 
 219   0.0000       0.076267         2.0753 
 220   0.0000       0.081636         2.2214 
 221   0.0000       0.086163         2.3446 
 222   0.0000       0.089753         2.4423 
 223   0.0000       0.092240         2.5100 
 224   0.0000       0.096955         2.6383 
 225   0.0000       0.100088         2.7235 
 226   0.0000       0.102513         2.7895 
 227   0.0000       0.105534         2.8717 
 228   0.0000       0.107728         2.9314 
 229   0.0000       0.110341         3.0025 
 230   0.0000       0.113909         3.0996 
 231   0.0000       0.116956         3.1825 
 232   0.0000       0.119292         3.2461 
 233   0.0000       0.124054         3.3757 
 234   0.0000       0.126266         3.4359 
 235   0.0000       0.127558         3.4710 
 236   0.0000       0.128017         3.4835 
 237   0.0000       0.130047         3.5388 
 238   0.0000       0.132335         3.6010 
 239   0.0000       0.134618         3.6631 
 240   0.0000       0.136418         3.7121 
 241   0.0000       0.136757         3.7213 
 242   0.0000       0.139101         3.7851 
 243   0.0000       0.144335         3.9276 
 244   0.0000       0.148932         4.0527 
 245   0.0000       0.150247         4.0884 
 246   0.0000       0.152049         4.1375 
 247   0.0000       0.154130         4.1941 
 248   0.0000       0.155813         4.2399 
 249   0.0000       0.160186         4.3589 
 250   0.0000       0.161447         4.3932 
 251   0.0000       0.163015         4.4359 
 252   0.0000       0.165847         4.5129 
 253   0.0000       0.167649         4.5620 
 254   0.0000       0.168501         4.5851 
 255   0.0000       0.172635         4.6976 
 256   0.0000       0.174383         4.7452 
 257   0.0000       0.177831         4.8390 
 258   0.0000       0.179590         4.8869 
 259   0.0000       0.181690         4.9440 
 260   0.0000       0.183679         4.9982 
 261   0.0000       0.185277         5.0416 
 262   0.0000       0.187231         5.0948 
 263   0.0000       0.188375         5.1259 
 264   0.0000       0.191821         5.2197 
 265   0.0000       0.193469         5.2646 
 266   0.0000       0.194053         5.2804 
 267   0.0000       0.194803         5.3009 
 268   0.0000       0.197586         5.3766 
 269   0.0000       0.199273         5.4225 
 270   0.0000       0.201160         5.4739 
 271   0.0000       0.202247         5.5034 
 272   0.0000       0.207451         5.6450 
 273   0.0000       0.209389         5.6978 
 274   0.0000       0.211211         5.7473 
 275   0.0000       0.214518         5.8373 
 276   0.0000       0.216140         5.8815 
 277   0.0000       0.219263         5.9664 
 278   0.0000       0.220730         6.0064 
 279   0.0000       0.223974         6.0946 
 280   0.0000       0.226185         6.1548 
 281   0.0000       0.229812         6.2535 
 282   0.0000       0.230593         6.2748 
 283   0.0000       0.233053         6.3417 
 284   0.0000       0.233723         6.3599 
 285   0.0000       0.235897         6.4191 
 286   0.0000       0.238331         6.4853 
 287   0.0000       0.241503         6.5716 
 288   0.0000       0.242591         6.6012 
 289   0.0000       0.242883         6.6092 
 290   0.0000       0.244541         6.6543 
 291   0.0000       0.247128         6.7247 
 292   0.0000       0.250101         6.8056 
 293   0.0000       0.252430         6.8690 
 294   0.0000       0.257138         6.9971 
 295   0.0000       0.258284         7.0283 
 296   0.0000       0.259347         7.0572 
 297   0.0000       0.262181         7.1343 
 298   0.0000       0.266629         7.2553 
 299   0.0000       0.268812         7.3147 
 300   0.0000       0.270404         7.3581 
 301   0.0000       0.273501         7.4423 
 302   0.0000       0.274441         7.4679 
 303   0.0000       0.274961         7.4821 
 304   0.0000       0.277657         7.5554 
 305   0.0000       0.281387         7.6569 
 306   0.0000       0.284216         7.7339 
 307   0.0000       0.285715         7.7747 
 308   0.0000       0.287964         7.8359 
 309   0.0000       0.288488         7.8502 
 310   0.0000       0.294051         8.0015 
 311   0.0000       0.295868         8.0510 
 312   0.0000       0.298352         8.1186 
 313   0.0000       0.299999         8.1634 
 314   0.0000       0.300947         8.1892 
 315   0.0000       0.302099         8.2205 
 316   0.0000       0.304040         8.2734 
 317   0.0000       0.306261         8.3338 
 318   0.0000       0.307302         8.3621 
 319   0.0000       0.309370         8.4184 
 320   0.0000       0.312157         8.4942 
 321   0.0000       0.315432         8.5834 
 322   0.0000       0.317580         8.6418 
 323   0.0000       0.319374         8.6906 
 324   0.0000       0.320356         8.7173 
 325   0.0000       0.323353         8.7989 
 326   0.0000       0.324060         8.8181 
 327   0.0000       0.328171         8.9300 
 328   0.0000       0.330265         8.9870 
 329   0.0000       0.333210         9.0671 
 330   0.0000       0.333592         9.0775 
 331   0.0000       0.335892         9.1401 
 332   0.0000       0.337596         9.1865 
 333   0.0000       0.337838         9.1930 
 334   0.0000       0.341054         9.2805 
 335   0.0000       0.341581         9.2949 
 336   0.0000       0.344147         9.3647 
 337   0.0000       0.349888         9.5209 
 338   0.0000       0.352367         9.5884 
 339   0.0000       0.352637         9.5957 
 340   0.0000       0.353876         9.6295 
 341   0.0000       0.354870         9.6565 
 342   0.0000       0.356098         9.6899 
 343   0.0000       0.358508         9.7555 
 344   0.0000       0.360521         9.8103 
 345   0.0000       0.363298         9.8858 
 346   0.0000       0.365543         9.9469 
 347   0.0000       0.366109         9.9623 
 348   0.0000       0.368914        10.0387 
 349   0.0000       0.371909        10.1202 
 350   0.0000       0.372572        10.1382 
 351   0.0000       0.375188        10.2094 
 352   0.0000       0.376018        10.2320 
 353   0.0000       0.376574        10.2471 
 354   0.0000       0.379794        10.3347 
 355   0.0000       0.380577        10.3560 
 356   0.0000       0.381749        10.3879 
 357   0.0000       0.383235        10.4284 
 358   0.0000       0.384271        10.4565 
 359   0.0000       0.389243        10.5918 
 360   0.0000       0.390146        10.6164 
 361   0.0000       0.392393        10.6776 
 362   0.0000       0.393780        10.7153 
 363   0.0000       0.397817        10.8252 
 364   0.0000       0.398965        10.8564 
 365   0.0000       0.402102        10.9418 
 366   0.0000       0.403611        10.9828 
 367   0.0000       0.405614        11.0373 
 368   0.0000       0.409179        11.1343 
 369   0.0000       0.410307        11.1650 
 370   0.0000       0.412404        11.2221 
 371   0.0000       0.416187        11.3250 
 372   0.0000       0.418202        11.3798 
 373   0.0000       0.422148        11.4872 
 374   0.0000       0.424213        11.5434 
 375   0.0000       0.427671        11.6375 
 376   0.0000       0.428353        11.6561 
 377   0.0000       0.429452        11.6860 
 378   0.0000       0.430980        11.7276 
 379   0.0000       0.432818        11.7776 
 380   0.0000       0.434722        11.8294 
 381   0.0000       0.437368        11.9014 
 382   0.0000       0.440639        11.9904 
 383   0.0000       0.443511        12.0686 
 384   0.0000       0.445679        12.1275 
 385   0.0000       0.446704        12.1554 
 386   0.0000       0.449476        12.2309 
 387   0.0000       0.451200        12.2778 
 388   0.0000       0.453487        12.3400 
 389   0.0000       0.453745        12.3470 
 390   0.0000       0.458238        12.4693 
 391   0.0000       0.458797        12.4845 
 392   0.0000       0.460261        12.5243 
 393   0.0000       0.463720        12.6185 
 394   0.0000       0.464780        12.6473 
 395   0.0000       0.466395        12.6913 
 396   0.0000       0.474283        12.9059 
 397   0.0000       0.475364        12.9353 
 398   0.0000       0.484595        13.1865 
 399   0.0000       0.484708        13.1896 
 400   0.0000       0.487901        13.2765 
 401   0.0000       0.490134        13.3372 
 402   0.0000       0.492252        13.3949 
 403   0.0000       0.494705        13.4616 
 404   0.0000       0.498985        13.5781 
 405   0.0000       0.499228        13.5847 
 406   0.0000       0.502749        13.6805 
 407   0.0000       0.506438        13.7809 
 408   0.0000       0.506741        13.7891 
 409   0.0000       0.507997        13.8233 
 410   0.0000       0.510985        13.9046 
 411   0.0000       0.514601        14.0030 
 412   0.0000       0.516056        14.0426 
 413   0.0000       0.518630        14.1126 
 414   0.0000       0.519947        14.1485 
 415   0.0000       0.527427        14.3520 
 416   0.0000       0.528524        14.3819 
 417   0.0000       0.531696        14.4682 
 418   0.0000       0.534192        14.5361 
 419   0.0000       0.535190        14.5633 
 420   0.0000       0.537609        14.6291 
 421   0.0000       0.542355        14.7582 
 422   0.0000       0.543135        14.7795 
 423   0.0000       0.545488        14.8435 
 424   0.0000       0.549138        14.9428 
 425   0.0000       0.551737        15.0135 
 426   0.0000       0.555509        15.1162 
 427   0.0000       0.561703        15.2847 
 428   0.0000       0.568873        15.4798 
 429   0.0000       0.570447        15.5226 
 430   0.0000       0.575123        15.6499 
 431   0.0000       0.576675        15.6921 
 432   0.0000       0.578921        15.7532 
 433   0.0000       0.583674        15.8826 
 434   0.0000       0.583921        15.8893 
 435   0.0000       0.589392        16.0382 
 436   0.0000       0.591985        16.1087 
 437   0.0000       0.595618        16.2076 
 438   0.0000       0.596963        16.2442 
 439   0.0000       0.601800        16.3758 
 440   0.0000       0.603725        16.4282 
 441   0.0000       0.604871        16.4594 
 442   0.0000       0.606263        16.4973 
 443   0.0000       0.610605        16.6154 
 444   0.0000       0.614228        16.7140 
 445   0.0000       0.615891        16.7593 
 446   0.0000       0.619061        16.8455 
 447   0.0000       0.621406        16.9093 
 448   0.0000       0.624908        17.0046 
 449   0.0000       0.625901        17.0316 
 450   0.0000       0.627893        17.0858 
 451   0.0000       0.631074        17.1724 
 452   0.0000       0.635883        17.3032 
 453   0.0000       0.636927        17.3317 
 454   0.0000       0.641050        17.4439 
 455   0.0000       0.641356        17.4522 
 456   0.0000       0.643709        17.5162 
 457   0.0000       0.647194        17.6110 
 458   0.0000       0.650588        17.7034 
 459   0.0000       0.651123        17.7180 
 460   0.0000       0.652750        17.7622 
 461   0.0000       0.653722        17.7887 
 462   0.0000       0.656101        17.8534 
 463   0.0000       0.659234        17.9387 
 464   0.0000       0.662220        18.0199 
 465   0.0000       0.664593        18.0845 
 466   0.0000       0.667709        18.1693 
 467   0.0000       0.669052        18.2058 
 468   0.0000       0.670911        18.2564 
 469   0.0000       0.672733        18.3060 
 470   0.0000       0.677097        18.4248 
 471   0.0000       0.680297        18.5118 
 472   0.0000       0.681745        18.5512 
 473   0.0000       0.683101        18.5881 
 474   0.0000       0.688218        18.7274 
 475   0.0000       0.690946        18.8016 
 476   0.0000       0.691739        18.8232 
 477   0.0000       0.695834        18.9346 
 478   0.0000       0.696780        18.9604 
 479   0.0000       0.700007        19.0482 
 480   0.0000       0.702069        19.1043 
 481   0.0000       0.705212        19.1898 
 482   0.0000       0.707097        19.2411 
 483   0.0000       0.712305        19.3828 
 484   0.0000       0.713351        19.4113 
 485   0.0000       0.715114        19.4592 
 486   0.0000       0.716138        19.4871 
 487   0.0000       0.718578        19.5535 
 488   0.0000       0.721446        19.6315 
 489   0.0000       0.723880        19.6978 
 490   0.0000       0.727946        19.8084 
 491   0.0000       0.731858        19.9149 
 492   0.0000       0.733180        19.9509 
 493   0.0000       0.737355        20.0644 
 494   0.0000       0.738266        20.0892 
 495   0.0000       0.744610        20.2619 
 496   0.0000       0.746148        20.3037 
 497   0.0000       0.749210        20.3870 
 498   0.0000       0.751451        20.4480 
 499   0.0000       0.752537        20.4776 
 500   0.0000       0.755713        20.5640 
 501   0.0000       0.760015        20.6811 
 502   0.0000       0.762413        20.7463 
 503   0.0000       0.763855        20.7856 
 504   0.0000       0.766405        20.8549 
 505   0.0000       0.768400        20.9092 
 506   0.0000       0.773952        21.0603 
 507   0.0000       0.776244        21.1227 
 508   0.0000       0.779296        21.2057 
 509   0.0000       0.781086        21.2544 
 510   0.0000       0.785559        21.3761 
 511   0.0000       0.789175        21.4746 
 512   0.0000       0.791630        21.5413 
 513   0.0000       0.793568        21.5941 
 514   0.0000       0.794769        21.6268 
 515   0.0000       0.797773        21.7085 
 516   0.0000       0.800869        21.7928 
 517   0.0000       0.805382        21.9156 
 518   0.0000       0.806029        21.9332 
 519   0.0000       0.809324        22.0228 
 520   0.0000       0.812539        22.1103 
 521   0.0000       0.814914        22.1749 
 522   0.0000       0.819649        22.3038 
 523   0.0000       0.820950        22.3392 
 524   0.0000       0.822753        22.3883 
 525   0.0000       0.823978        22.4216 
 526   0.0000       0.829583        22.5741 
 527   0.0000       0.831276        22.6202 
 528   0.0000       0.833643        22.6846 
 529   0.0000       0.836675        22.7671 
 530   0.0000       0.842677        22.9304 
 531   0.0000       0.848053        23.0767 
 532   0.0000       0.850327        23.1386 
 533   0.0000       0.853353        23.2209 
 534   0.0000       0.857575        23.3358 
 535   0.0000       0.859370        23.3846 
 536   0.0000       0.862612        23.4729 
 537   0.0000       0.865125        23.5412 
 538   0.0000       0.866878        23.5890 
 539   0.0000       0.870051        23.6753 
 540   0.0000       0.877527        23.8787 
 541   0.0000       0.880382        23.9564 
 542   0.0000       0.880797        23.9677 
 543   0.0000       0.884484        24.0680 
 544   0.0000       0.885734        24.1020 
 545   0.0000       0.889999        24.2181 
 546   0.0000       0.892603        24.2890 
 547   0.0000       0.896390        24.3920 
 548   0.0000       0.897657        24.4265 
 549   0.0000       0.902690        24.5635 
 550   0.0000       0.903041        24.5730 
 551   0.0000       0.908582        24.7238 
 552   0.0000       0.909120        24.7384 
 553   0.0000       0.912572        24.8323 
 554   0.0000       0.916683        24.9442 
 555   0.0000       0.921888        25.0858 
 556   0.0000       0.926135        25.2014 
 557   0.0000       0.929745        25.2996 
 558   0.0000       0.933731        25.4081 
 559   0.0000       0.936290        25.4777 
 560   0.0000       0.939156        25.5557 
 561   0.0000       0.944611        25.7042 
 562   0.0000       0.952229        25.9115 
 563   0.0000       0.957671        26.0595 
 564   0.0000       0.960919        26.1479 
 565   0.0000       0.964192        26.2370 
 566   0.0000       0.965915        26.2839 
 567   0.0000       0.968169        26.3452 
 568   0.0000       0.971391        26.4329 
 569   0.0000       0.976857        26.5816 
 570   0.0000       0.982005        26.7217 
 571   0.0000       0.987901        26.8821 
 572   0.0000       0.990162        26.9437 
 573   0.0000       0.996863        27.1260 
 574   0.0000       0.999816        27.2064 
 575   0.0000       1.002834        27.2885 
 576   0.0000       1.008264        27.4363 
 577   0.0000       1.010334        27.4926 
 578   0.0000       1.012426        27.5495 
 579   0.0000       1.019528        27.7428 
 580   0.0000       1.025630        27.9088 
 581   0.0000       1.027746        27.9664 
 582   0.0000       1.030909        28.0525 
 583   0.0000       1.036285        28.1988 
 584   0.0000       1.038168        28.2500 
 585   0.0000       1.042218        28.3602 
 586   0.0000       1.046259        28.4702 
 587   0.0000       1.052177        28.6312 
 588   0.0000       1.053068        28.6555 
 589   0.0000       1.054608        28.6974 
 590   0.0000       1.057762        28.7832 
 591   0.0000       1.065521        28.9943 
 592   0.0000       1.068195        29.0671 
 593   0.0000       1.075079        29.2544 
 594   0.0000       1.077375        29.3169 
 595   0.0000       1.081592        29.4316 
 596   0.0000       1.083118        29.4731 
 597   0.0000       1.092015        29.7152 
 598   0.0000       1.095950        29.8223 
 599   0.0000       1.101845        29.9827 
 600   0.0000       1.105862        30.0920 
 601   0.0000       1.113001        30.2863 
 602   0.0000       1.116310        30.3763 
 603   0.0000       1.118261        30.4294 
 604   0.0000       1.121356        30.5136 
 605   0.0000       1.125545        30.6276 
 606   0.0000       1.129915        30.7466 
 607   0.0000       1.132393        30.8140 
 608   0.0000       1.139336        31.0029 
 609   0.0000       1.142347        31.0849 
 610   0.0000       1.143849        31.1257 
 611   0.0000       1.146312        31.1927 
 612   0.0000       1.150783        31.3144 
 613   0.0000       1.153376        31.3849 
 614   0.0000       1.154527        31.4163 
 615   0.0000       1.159890        31.5622 
 616   0.0000       1.163583        31.6627 
 617   0.0000       1.164947        31.6998 
 618   0.0000       1.172877        31.9156 
 619   0.0000       1.176480        32.0136 
 620   0.0000       1.179901        32.1067 
 621   0.0000       1.181937        32.1621 
 622   0.0000       1.185428        32.2571 
 623   0.0000       1.186126        32.2761 
 624   0.0000       1.194403        32.5014 
 625   0.0000       1.197941        32.5976 
 626   0.0000       1.198169        32.6038 
 627   0.0000       1.200783        32.6750 
 628   0.0000       1.205250        32.7965 
 629   0.0000       1.209520        32.9127 
 630   0.0000       1.211857        32.9763 
 631   0.0000       1.214475        33.0476 
 632   0.0000       1.217696        33.1352 
 633   0.0000       1.219957        33.1967 
 634   0.0000       1.224823        33.3291 
 635   0.0000       1.227890        33.4126 
 636   0.0000       1.229038        33.4438 
 637   0.0000       1.236593        33.6494 
 638   0.0000       1.237157        33.6648 
 639   0.0000       1.241549        33.7843 
 640   0.0000       1.243157        33.8280 
 641   0.0000       1.248964        33.9860 
 642   0.0000       1.252966        34.0949 
 643   0.0000       1.258913        34.2568 
 644   0.0000       1.260249        34.2931 
 645   0.0000       1.263452        34.3803 
 646   0.0000       1.264943        34.4209 
 647   0.0000       1.268782        34.5253 
 648   0.0000       1.270655        34.5763 
 649   0.0000       1.272120        34.6161 
 650   0.0000       1.274735        34.6873 
 651   0.0000       1.277046        34.7502 
 652   0.0000       1.279981        34.8300 
 653   0.0000       1.283219        34.9182 
 654   0.0000       1.290422        35.1142 
 655   0.0000       1.292648        35.1747 
 656   0.0000       1.297522        35.3074 
 657   0.0000       1.298653        35.3381 
 658   0.0000       1.301885        35.4261 
 659   0.0000       1.302941        35.4548 
 660   0.0000       1.310729        35.6667 
 661   0.0000       1.314821        35.7781 
 662   0.0000       1.321534        35.9608 
 663   0.0000       1.324584        36.0438 
 664   0.0000       1.326900        36.1068 
 665   0.0000       1.332122        36.2489 
 666   0.0000       1.338645        36.4264 
 667   0.0000       1.343307        36.5532 
 668   0.0000       1.346227        36.6327 
 669   0.0000       1.348376        36.6912 
 670   0.0000       1.352911        36.8146 
 671   0.0000       1.353066        36.8188 
 672   0.0000       1.360956        37.0335 
 673   0.0000       1.362904        37.0865 
 674   0.0000       1.368394        37.2359 
 675   0.0000       1.370118        37.2828 
 676   0.0000       1.372152        37.3382 
 677   0.0000       1.375703        37.4348 
 678   0.0000       1.379505        37.5382 
 679   0.0000       1.381997        37.6061 
 680   0.0000       1.386325        37.7238 
 681   0.0000       1.388908        37.7941 
 682   0.0000       1.391934        37.8765 
 683   0.0000       1.396984        38.0139 
 684   0.0000       1.397287        38.0221 
 685   0.0000       1.399511        38.0826 
 686   0.0000       1.404959        38.2309 
 687   0.0000       1.409197        38.3462 
 688   0.0000       1.412564        38.4378 
 689   0.0000       1.414332        38.4859 
 690   0.0000       1.417176        38.5633 
 691   0.0000       1.420721        38.6598 
 692   0.0000       1.426532        38.8179 
 693   0.0000       1.430247        38.9190 
 694   0.0000       1.431027        38.9402 
 695   0.0000       1.439356        39.1669 
 696   0.0000       1.441594        39.2278 
 697   0.0000       1.445106        39.3233 
 698   0.0000       1.447002        39.3749 
 699   0.0000       1.448357        39.4118 
 700   0.0000       1.453080        39.5403 
 701   0.0000       1.457853        39.6702 
 702   0.0000       1.462136        39.7868 
 703   0.0000       1.467647        39.9367 
 704   0.0000       1.468974        39.9728 
 705   0.0000       1.469943        39.9992 
 706   0.0000       1.473297        40.0904 
 707   0.0000       1.476859        40.1874 
 708   0.0000       1.479616        40.2624 
 709   0.0000       1.480416        40.2842 
 710   0.0000       1.485437        40.4208 
 711   0.0000       1.490187        40.5501 
 712   0.0000       1.492873        40.6231 
 713   0.0000       1.493090        40.6290 
 714   0.0000       1.497723        40.7551 
 715   0.0000       1.500501        40.8307 
 716   0.0000       1.501726        40.8640 
 717   0.0000       1.504124        40.9293 
 718   0.0000       1.507677        41.0260 
 719   0.0000       1.510282        41.0969 
 720   0.0000       1.515709        41.2445 
 721   0.0000       1.518470        41.3197 
 722   0.0000       1.525869        41.5210 
 723   0.0000       1.526896        41.5490 
 724   0.0000       1.528646        41.5966 
 725   0.0000       1.531516        41.6747 
 726   0.0000       1.532346        41.6973 
 727   0.0000       1.535238        41.7759 
 728   0.0000       1.536553        41.8117 
 729   0.0000       1.542686        41.9786 
 730   0.0000       1.543643        42.0047 
 731   0.0000       1.545832        42.0642 
 732   0.0000       1.547505        42.1098 
 733   0.0000       1.549775        42.1715 
 734   0.0000       1.557891        42.3924 
 735   0.0000       1.563136        42.5351 
 736   0.0000       1.564595        42.5748 
 737   0.0000       1.567918        42.6652 
 738   0.0000       1.568630        42.6846 
 739   0.0000       1.571692        42.7679 
 740   0.0000       1.573530        42.8179 
 741   0.0000       1.576442        42.8972 
 742   0.0000       1.581536        43.0358 
 743   0.0000       1.586042        43.1584 
 744   0.0000       1.589449        43.2511 
 745   0.0000       1.594845        43.3979 
 746   0.0000       1.595643        43.4197 
 747   0.0000       1.598961        43.5099 
 748   0.0000       1.601844        43.5884 
 749   0.0000       1.604701        43.6661 
 750   0.0000       1.606190        43.7067 
 751   0.0000       1.610618        43.8271 
 752   0.0000       1.614281        43.9268 
 753   0.0000       1.615376        43.9566 
 754   0.0000       1.619774        44.0763 
 755   0.0000       1.621966        44.1359 
 756   0.0000       1.624094        44.1938 
 757   0.0000       1.633717        44.4557 
 758   0.0000       1.635239        44.4971 
 759   0.0000       1.639128        44.6030 
 760   0.0000       1.640816        44.6489 
 761   0.0000       1.644703        44.7547 
 762   0.0000       1.646418        44.8013 
 763   0.0000       1.647327        44.8261 
 764   0.0000       1.650034        44.8997 
 765   0.0000       1.651556        44.9411 
 766   0.0000       1.655234        45.0412 
 767   0.0000       1.657311        45.0977 
 768   0.0000       1.658393        45.1272 
 769   0.0000       1.661461        45.2106 
 770   0.0000       1.661885        45.2222 
 771   0.0000       1.665074        45.3090 
 772   0.0000       1.666709        45.3535 
 773   0.0000       1.670396        45.4538 
 774   0.0000       1.673066        45.5265 
 775   0.0000       1.677857        45.6568 
 776   0.0000       1.680247        45.7219 
 777   0.0000       1.685905        45.8758 
 778   0.0000       1.692400        46.0525 
 779   0.0000       1.694549        46.1110 
 780   0.0000       1.697811        46.1998 
 781   0.0000       1.702777        46.3349 
 782   0.0000       1.704871        46.3919 
 783   0.0000       1.707477        46.4628 
 784   0.0000       1.713596        46.6293 
 785   0.0000       1.716761        46.7154 
 786   0.0000       1.718994        46.7762 
 787   0.0000       1.723872        46.9089 
 788   0.0000       1.726691        46.9857 
 789   0.0000       1.730962        47.1019 
 790   0.0000       1.733894        47.1817 
 791   0.0000       1.734607        47.2011 
 792   0.0000       1.737549        47.2811 
 793   0.0000       1.739339        47.3298 
 794   0.0000       1.746601        47.5274 
 795   0.0000       1.750705        47.6391 
 796   0.0000       1.751236        47.6536 
 797   0.0000       1.753549        47.7165 
 798   0.0000       1.755055        47.7575 
 799   0.0000       1.759498        47.8784 
 800   0.0000       1.766298        48.0634 
 801   0.0000       1.769642        48.1544 
 802   0.0000       1.770530        48.1786 
 803   0.0000       1.777900        48.3791 
 804   0.0000       1.779670        48.4273 
 805   0.0000       1.782919        48.5157 
 806   0.0000       1.787844        48.6497 
 807   0.0000       1.792419        48.7742 
 808   0.0000       1.793516        48.8041 
 809   0.0000       1.794267        48.8245 
 810   0.0000       1.799868        48.9769 
 811   0.0000       1.801413        49.0189 
 812   0.0000       1.806323        49.1525 
 813   0.0000       1.811943        49.3055 
 814   0.0000       1.819460        49.5100 
 815   0.0000       1.820728        49.5445 
 816   0.0000       1.822798        49.6009 
 817   0.0000       1.830047        49.7981 
 818   0.0000       1.836242        49.9667 
 819   0.0000       1.842853        50.1466 
 820   0.0000       1.848685        50.3053 
 821   0.0000       1.852487        50.4087 
 822   0.0000       1.854432        50.4617 
 823   0.0000       1.856539        50.5190 
 824   0.0000       1.860770        50.6341 
 825   0.0000       1.866740        50.7966 
 826   0.0000       1.867233        50.8100 
 827   0.0000       1.872454        50.9521 
 828   0.0000       1.875595        51.0375 
 829   0.0000       1.879643        51.1477 
 830   0.0000       1.883062        51.2407 
 831   0.0000       1.885316        51.3021 
 832   0.0000       1.888316        51.3837 
 833   0.0000       1.892451        51.4962 
 834   0.0000       1.895957        51.5916 
 835   0.0000       1.896942        51.6184 
 836   0.0000       1.905067        51.8395 
 837   0.0000       1.909683        51.9651 
 838   0.0000       1.917167        52.1688 
 839   0.0000       1.918779        52.2126 
 840   0.0000       1.921286        52.2808 
 841   0.0000       1.922590        52.3163 
 842   0.0000       1.926442        52.4211 
 843   0.0000       1.929490        52.5041 
 844   0.0000       1.940039        52.7911 
 845   0.0000       1.942573        52.8601 
 846   0.0000       1.950230        53.0684 
 847   0.0000       1.952483        53.1298 
 848   0.0000       1.956028        53.2262 
 849   0.0000       1.958620        53.2968 
 850   0.0000       1.968619        53.5689 
 851   0.0000       1.971380        53.6440 
 852   0.0000       1.979383        53.8618 
 853   0.0000       1.986091        54.0443 
 854   0.0000       1.989315        54.1320 
 855   0.0000       1.993981        54.2590 
 856   0.0000       1.996267        54.3212 
 857   0.0000       2.000409        54.4339 
 858   0.0000       2.009530        54.6821 
 859   0.0000       2.012546        54.7642 
 860   0.0000       2.018738        54.9326 
 861   0.0000       2.023192        55.0538 
 862   0.0000       2.025729        55.1229 
 863   0.0000       2.031781        55.2876 
 864   0.0000       2.038612        55.4734 
 865   0.0000       2.039757        55.5046 
 866   0.0000       2.045412        55.6585 
 867   0.0000       2.047943        55.7274 
 868   0.0000       2.050274        55.7908 
 869   0.0000       2.052704        55.8569 
 870   0.0000       2.055241        55.9259 
 871   0.0000       2.062902        56.1344 
 872   0.0000       2.064789        56.1858 
 873   0.0000       2.066469        56.2315 
 874   0.0000       2.070736        56.3476 
 875   0.0000       2.072037        56.3830 
 876   0.0000       2.075328        56.4726 
 877   0.0000       2.080326        56.6085 
 878   0.0000       2.087388        56.8007 
 879   0.0000       2.090518        56.8859 
 880   0.0000       2.093841        56.9763 
 881   0.0000       2.097074        57.0643 
 882   0.0000       2.098526        57.1038 
 883   0.0000       2.102666        57.2164 
 884   0.0000       2.108041        57.3627 
 885   0.0000       2.109939        57.4144 
 886   0.0000       2.115899        57.5765 
 887   0.0000       2.118310        57.6421 
 888   0.0000       2.119750        57.6813 
 889   0.0000       2.126906        57.8761 
 890   0.0000       2.128207        57.9115 
 891   0.0000       2.131941        58.0131 
 892   0.0000       2.136094        58.1261 
 893   0.0000       2.141277        58.2671 
 894   0.0000       2.143632        58.3312 
 895   0.0000       2.147980        58.4495 
 896   0.0000       2.153522        58.6003 
 897   0.0000       2.157841        58.7178 
 898   0.0000       2.160834        58.7993 
 899   0.0000       2.164252        58.8923 
 900   0.0000       2.170550        59.0637 
 901   0.0000       2.173586        59.1463 
 902   0.0000       2.174867        59.1811 
 903   0.0000       2.178793        59.2880 
 904   0.0000       2.181891        59.3723 
 905   0.0000       2.185079        59.4590 
 906   0.0000       2.187515        59.5253 
 907   0.0000       2.190234        59.5993 
 908   0.0000       2.196393        59.7669 
 909   0.0000       2.198266        59.8179 
 910   0.0000       2.204260        59.9810 
 911   0.0000       2.205363        60.0110 
 912   0.0000       2.207971        60.0819 
 913   0.0000       2.212343        60.2009 
 914   0.0000       2.214598        60.2623 
 915   0.0000       2.221220        60.4425 
 916   0.0000       2.225751        60.5658 
 917   0.0000       2.233447        60.7752 
 918   0.0000       2.237501        60.8855 
 919   0.0000       2.239368        60.9363 
 920   0.0000       2.247364        61.1539 
 921   0.0000       2.248415        61.1825 
 922   0.0000       2.261116        61.5281 
 923   0.0000       2.263645        61.5969 
 924   0.0000       2.269803        61.7645 
 925   0.0000       2.270004        61.7699 
 926   0.0000       2.276723        61.9528 
 927   0.0000       2.280120        62.0452 
 928   0.0000       2.287353        62.2420 
 929   0.0000       2.299131        62.5625 
 930   0.0000       2.301092        62.6159 
 931   0.0000       2.306014        62.7498 
 932   0.0000       2.310378        62.8686 
 933   0.0000       2.313538        62.9546 
 934   0.0000       2.316436        63.0334 
 935   0.0000       2.324719        63.2588 
 936   0.0000       2.334228        63.5176 
 937   0.0000       2.347364        63.8750 
 938   0.0000       2.356727        64.1298 
 939   0.0000       2.360909        64.2436 
 940   0.0000       2.368866        64.4601 
 941   0.0000       2.372278        64.5530 
 942   0.0000       2.380966        64.7894 
 943   0.0000       2.387603        64.9700 
 944   0.0000       2.392202        65.0951 
 945   0.0000       2.397846        65.2487 
 946   0.0000       2.399831        65.3027 
 947   0.0000       2.409598        65.5685 
 948   0.0000       2.412333        65.6429 
 949   0.0000       2.420418        65.8629 
 950   0.0000       2.425522        66.0018 
 951   0.0000       2.428464        66.0819 
 952   0.0000       2.433718        66.2248 
 953   0.0000       2.435131        66.2633 
 954   0.0000       2.442645        66.4677 
 955   0.0000       2.445792        66.5534 
 956   0.0000       2.453936        66.7750 
 957   0.0000       2.458593        66.9017 
 958   0.0000       2.460346        66.9494 
 959   0.0000       2.472772        67.2876 
 960   0.0000       2.475458        67.3606 
 961   0.0000       2.483804        67.5877 
 962   0.0000       2.488935        67.7274 
 963   0.0000       2.496822        67.9420 
 964   0.0000       2.499693        68.0201 
 965   0.0000       2.501414        68.0669 
 966   0.0000       2.507315        68.2275 
 967   0.0000       2.509406        68.2844 
 968   0.0000       2.520178        68.5775 
 969   0.0000       2.521945        68.6256 
 970   0.0000       2.528502        68.8040 
 971   0.0000       2.534555        68.9687 
 972   0.0000       2.537865        69.0588 
 973   0.0000       2.540810        69.1390 
 974   0.0000       2.546447        69.2923 
 975   0.0000       2.547306        69.3157 
 976   0.0000       2.550324        69.3979 
 977   0.0000       2.554818        69.5201 
 978   0.0000       2.559187        69.6390 
 979   0.0000       2.563318        69.7514 
 980   0.0000       2.568030        69.8796 
 981   0.0000       2.570129        69.9368 
 982   0.0000       2.578240        70.1575 
 983   0.0000       2.582964        70.2860 
 984   0.0000       2.586123        70.3720 
 985   0.0000       2.593371        70.5692 
 986   0.0000       2.597445        70.6801 
 987   0.0000       2.599499        70.7360 
 988   0.0000       2.605171        70.8903 
 989   0.0000       2.609491        71.0079 
 990   0.0000       2.613160        71.1077 
 991   0.0000       2.613761        71.1240 
 992   0.0000       2.616145        71.1889 
 993   0.0000       2.621690        71.3398 
 994   0.0000       2.626840        71.4800 
 995   0.0000       2.629080        71.5409 
 996   0.0000       2.630478        71.5790 
 997   0.0000       2.632650        71.6381 
 998   0.0000       2.634374        71.6850 
 999   0.0000       2.637142        71.7603 
 1000   0.0000       2.639504        71.8245 
 1001   0.0000       2.640755        71.8586 
 1002   0.0000       2.648690        72.0745 
 1003   0.0000       2.649308        72.0913 
 1004   0.0000       2.651660        72.1553 
 1005   0.0000       2.655024        72.2469 
 1006   0.0000       2.656144        72.2774 
 1007   0.0000       2.658142        72.3317 
 1008   0.0000       2.663864        72.4874 
 1009   0.0000       2.666669        72.5637 
 1010   0.0000       2.671486        72.6948 
 1011   0.0000       2.674196        72.7686 
 1012   0.0000       2.676650        72.8353 
 1013   0.0000       2.678302        72.8803 
 1014   0.0000       2.679196        72.9046 
 1015   0.0000       2.682951        73.0068 
 1016   0.0000       2.685864        73.0861 
 1017   0.0000       2.688374        73.1544 
 1018   0.0000       2.690656        73.2165 
 1019   0.0000       2.695507        73.3485 
 1020   0.0000       2.698446        73.4284 
 1021   0.0000       2.701893        73.5222 
 1022   0.0000       2.702271        73.5325 
 1023   0.0000       2.706054        73.6355 
 1024   0.0000       2.708434        73.7002 
 1025   0.0000       2.711048        73.7714 
 1026   0.0000       2.716005        73.9062 
 1027   0.0000       2.718088        73.9629 
 1028   0.0000       2.719272        73.9952 
 1029   0.0000       2.720615        74.0317 
 1030   0.0000       2.722158        74.0737 
 1031   0.0000       2.723271        74.1040 
 1032   0.0000       2.725249        74.1578 
 1033   0.0000       2.726073        74.1802 
 1034   0.0000       2.727547        74.2203 
 1035   0.0000       2.729906        74.2845 
 1036   0.0000       2.733996        74.3958 
 1037   0.0000       2.736046        74.4516 
 1038   0.0000       2.740075        74.5612 
 1039   0.0000       2.742992        74.6406 
 1040   0.0000       2.747258        74.7567 
 1041   0.0000       2.751729        74.8783 
 1042   0.0000       2.756073        74.9966 
 1043   0.0000       2.758093        75.0515 
 1044   0.0000       2.761035        75.1316 
 1045   0.0000       2.764178        75.2171 
 1046   0.0000       2.767582        75.3097 
 1047   0.0000       2.772142        75.4338 
 1048   0.0000       2.775084        75.5139 
 1049   0.0000       2.779234        75.6268 
 1050   0.0000       2.781649        75.6925 
 1051   0.0000       2.783988        75.7562 
 1052   0.0000       2.785660        75.8017 
 1053   0.0000       2.788011        75.8656 
 1054   0.0000       2.790215        75.9256 
 1055   0.0000       2.791046        75.9482 
 1056   0.0000       2.794533        76.0431 
 1057   0.0000       2.798172        76.1421 
 1058   0.0000       2.799071        76.1666 
 1059   0.0000       2.802269        76.2536 
 1060   0.0000       2.805380        76.3383 
 1061   0.0000       2.805512        76.3419 
 1062   0.0000       2.806964        76.3814 
 1063   0.0000       2.810676        76.4824 
 1064   0.0000       2.812302        76.5266 
 1065   0.0000       2.815193        76.6053 
 1066   0.0000       2.820188        76.7412 
 1067   0.0000       2.823255        76.8247 
 1068   0.0000       2.826666        76.9175 
 1069   0.0000       2.834960        77.1432 
 1070   0.0000       2.837324        77.2075 
 1071   0.0000       2.838127        77.2294 
 1072   0.0000       2.840724        77.3000 
 1073   0.0000       2.844620        77.4061 
 1074   0.0000       2.847432        77.4826 
 1075   0.0000       2.849684        77.5439 
 1076   0.0000       2.854387        77.6718 
 1077   0.0000       2.856439        77.7277 
 1078   0.0000       2.860826        77.8470 
 1079   0.0000       2.866531        78.0023 
 1080   0.0000       2.869581        78.0853 
 1081   0.0000       2.873281        78.1860 
 1082   0.0000       2.876438        78.2719 
 1083   0.0000       2.877143        78.2911 
 1084   0.0000       2.880032        78.3697 
 1085   0.0000       2.882569        78.4387 
 1086   0.0000       2.885119        78.5081 
 1087   0.0000       2.887387        78.5698 
 1088   0.0000       2.892121        78.6986 
 1089   0.0000       2.893614        78.7393 
 1090   0.0000       2.899194        78.8911 
 1091   0.0000       2.901774        78.9613 
 1092   0.0000       2.902083        78.9697 
 1093   0.0000       2.906684        79.0949 
 1094   0.0000       2.907259        79.1105 
 1095   0.0000       2.912928        79.2648 
 1096   0.0000       2.914960        79.3201 
 1097   0.0000       2.923822        79.5612 
 1098   0.0000       2.925819        79.6156 
 1099   0.0000       2.927339        79.6570 
 1100   0.0000       2.930086        79.7317 
 1101   0.0000       2.933647        79.8286 
 1102   0.0000       2.938374        79.9572 
 1103   0.0000       2.939707        79.9935 
 1104   0.0000       2.945650        80.1552 
 1105   0.0000       2.948508        80.2330 
 1106   0.0000       2.953870        80.3789 
 1107   0.0000       2.955028        80.4104 
 1108   0.0000       2.956159        80.4412 
 1109   0.0000       2.960083        80.5479 
 1110   0.0000       2.962634        80.6174 
 1111   0.0000       2.965943        80.7074 
 1112   0.0000       2.969448        80.8028 
 1113   0.0000       2.970998        80.8450 
 1114   0.0000       2.971993        80.8720 
 1115   0.0000       2.979285        81.0705 
 1116   0.0000       2.980302        81.0981 
 1117   0.0000       2.992757        81.4371 
 1118   0.0000       2.996032        81.5262 
 1119   0.0000       2.998847        81.6028 
 1120   0.0000       3.003932        81.7411 
 1121   0.0000       3.006490        81.8108 
 1122   0.0000       3.009326        81.8879 
 1123   0.0000       3.013042        81.9891 
 1124   0.0000       3.020274        82.1858 
 1125   0.0000       3.023237        82.2664 
 1126   0.0000       3.025502        82.3281 
 1127   0.0000       3.030974        82.4770 
 1128   0.0000       3.031421        82.4892 
 1129   0.0000       3.033146        82.5361 
 1130   0.0000       3.037003        82.6410 
 1131   0.0000       3.040855        82.7459 
 1132   0.0000       3.044523        82.8457 
 1133   0.0000       3.050068        82.9966 
 1134   0.0000       3.052778        83.0703 
 1135   0.0000       3.054382        83.1139 
 1136   0.0000       3.057294        83.1932 
 1137   0.0000       3.058953        83.2383 
 1138   0.0000       3.064558        83.3909 
 1139   0.0000       3.065357        83.4126 
 1140   0.0000       3.070984        83.5657 
 1141   0.0000       3.072321        83.6021 
 1142   0.0000       3.081947        83.8640 
 1143   0.0000       3.085910        83.9719 
 1144   0.0000       3.086395        83.9851 
 1145   0.0000       3.093571        84.1803 
 1146   0.0000       3.095839        84.2421 
 1147   0.0000       3.097235        84.2800 
 1148   0.0000       3.099116        84.3312 
 1149   0.0000       3.102238        84.4162 
 1150   0.0000       3.105027        84.4921 
 1151   0.0000       3.106200        84.5240 
 1152   0.0000       3.107312        84.5543 
 1153   0.0000       3.109446        84.6123 
 1154   0.0000       3.120169        84.9041 
 1155   0.0000       3.122386        84.9644 
 1156   0.0000       3.125093        85.0381 
 1157   0.0000       3.127934        85.1154 
 1158   0.0000       3.131924        85.2240 
 1159   0.0000       3.134546        85.2953 
 1160   0.0000       3.138257        85.3963 
 1161   0.0000       3.141177        85.4758 
 1162   0.0000       3.143394        85.5361 
 1163   0.0000       3.145639        85.5972 
 1164   0.0000       3.147116        85.6374 
 1165   0.0000       3.148623        85.6784 
 1166   0.0000       3.152901        85.7948 
 1167   0.0000       3.154674        85.8430 
 1168   0.0000       3.157972        85.9328 
 1169   0.0000       3.161520        86.0293 
 1170   0.0000       3.165017        86.1245 
 1171   0.0000       3.168606        86.2221 
 1172   0.0000       3.171938        86.3128 
 1173   0.0000       3.173332        86.3507 
 1174   0.0000       3.178453        86.4901 
 1175   0.0000       3.181370        86.5695 
 1176   0.0000       3.183195        86.6191 
 1177   0.0000       3.188194        86.7552 
 1178   0.0000       3.191279        86.8391 
 1179   0.0000       3.191855        86.8548 
 1180   0.0000       3.195651        86.9581 
 1181   0.0000       3.198187        87.0271 
 1182   0.0000       3.202296        87.1389 
 1183   0.0000       3.206849        87.2628 
 1184   0.0000       3.210624        87.3655 
 1185   0.0000       3.213196        87.4355 
 1186   0.0000       3.214547        87.4723 
 1187   0.0000       3.220613        87.6373 
 1188   0.0000       3.223123        87.7056 
 1189   0.0000       3.225565        87.7721 
 1190   0.0000       3.228485        87.8515 
 1191   0.0000       3.231771        87.9410 
 1192   0.0000       3.234298        88.0097 
 1193   0.0000       3.235375        88.0390 
 1194   0.0000       3.238380        88.1208 
 1195   0.0000       3.240702        88.1840 
 1196   0.0000       3.242171        88.2240 
 1197   0.0000       3.246616        88.3449 
 1198   0.0000       3.248877        88.4064 
 1199   0.0000       3.255737        88.5931 
 1200   0.0000       3.264325        88.8268 
 1201   0.0000       3.268007        88.9270 
 1202   0.0000       3.274492        89.1035 
 1203   0.0000       3.279775        89.2472 
 1204   0.0000       3.281227        89.2867 
 1205   0.0000       3.287461        89.4564 
 1206   0.0000       3.289596        89.5145 
 1207   0.0000       3.293761        89.6278 
 1208   0.0000       3.294651        89.6520 
 1209   0.0000       3.295117        89.6647 
 1210   0.0000       3.301492        89.8382 
 1211   0.0000       3.304046        89.9077 
 1212   0.0000       3.305926        89.9588 
 1213   0.0000       3.306918        89.9858 
 1214   0.0000       3.310255        90.0766 
 1215   0.0000       3.310468        90.0824 
 1216   0.0000       3.315200        90.2112 
 1217   0.0000       3.318379        90.2977 
 1218   0.0000       3.319031        90.3154 
 1219   0.0000       3.322480        90.4093 
 1220   0.0000       3.326686        90.5237 
 1221   0.0000       3.328092        90.5620 
 1222   0.0000       3.328783        90.5808 
 1223   0.0000       3.329602        90.6031 
 1224   0.0000       3.333257        90.7025 
 1225   0.0000       3.335643        90.7675 
 1226   0.0000       3.338736        90.8516 
 1227   0.0000       3.344958        91.0209 
 1228   0.0000       3.349007        91.1311 
 1229   0.0000       3.351203        91.1909 
 1230   0.0000       3.351826        91.2078 
 1231   0.0000       3.356559        91.3366 
 1232   0.0000       3.358312        91.3843 
 1233   0.0000       3.359471        91.4159 
 1234   0.0000       3.364962        91.5653 
 1235   0.0000       3.370125        91.7058 
 1236   0.0000       3.373350        91.7935 
 1237   0.0000       3.374625        91.8282 
 1238   0.0000       3.376065        91.8674 
 1239   0.0000       3.380466        91.9872 
 1240   0.0000       3.382035        92.0299 
 1241   0.0000       3.383427        92.0677 
 1242   0.0000       3.386609        92.1543 
 1243   0.0000       3.389421        92.2308 
 1244   0.0000       3.391602        92.2902 
 1245   0.0000       3.396960        92.4360 
 1246   0.0000       3.398377        92.4745 
 1247   0.0000       3.401580        92.5617 
 1248   0.0000       3.404752        92.6480 
 1249   0.0000       3.406722        92.7016 
 1250   0.0000       3.409584        92.7795 
 1251   0.0000       3.410427        92.8024 
 1252   0.0000       3.412299        92.8534 
 1253   0.0000       3.416725        92.9738 
 1254   0.0000       3.421105        93.0930 
 1255   0.0000       3.424676        93.1902 
 1256   0.0000       3.427310        93.2618 
 1257   0.0000       3.430740        93.3552 
 1258   0.0000       3.431144        93.3662 
 1259   0.0000       3.434405        93.4549 
 1260   0.0000       3.436952        93.5242 
 1261   0.0000       3.443286        93.6966 
 1262   0.0000       3.445490        93.7566 
 1263   0.0000       3.448872        93.8486 
 1264   0.0000       3.456500        94.0561 
 1265   0.0000       3.460885        94.1755 
 1266   0.0000       3.465403        94.2984 
 1267   0.0000       3.466498        94.3282 
 1268   0.0000       3.468946        94.3948 
 1269   0.0000       3.470970        94.4499 
 1270   0.0000       3.472888        94.5021 
 1271   0.0000       3.475382        94.5700 
 1272   0.0000       3.476554        94.6018 
 1273   0.0000       3.480226        94.7018 
 1274   0.0000       3.482167        94.7546 
 1275   0.0000       3.485845        94.8547 
 1276   0.0000       3.491781        95.0162 
 1277   0.0000       3.493984        95.0761 
 1278   0.0000       3.496140        95.1348 
 1279   0.0000       3.497418        95.1696 
 1280   0.0000       3.499393        95.2233 
 1281   0.0000       3.504481        95.3618 
 1282   0.0000       3.508063        95.4592 
 1283   0.0000       3.509211        95.4905 
 1284   0.0000       3.511012        95.5395 
 1285   0.0000       3.513625        95.6106 
 1286   0.0000       3.516262        95.6823 
 1287   0.0000       3.517001        95.7025 
 1288   0.0000       3.519585        95.7728 
 1289   0.0000       3.520524        95.7983 
 1290   0.0000       3.529165        96.0335 
 1291   0.0000       3.532929        96.1359 
 1292   0.0000       3.535558        96.2074 
 1293   0.0000       3.537312        96.2552 
 1294   0.0000       3.541208        96.3612 
 1295   0.0000       3.542737        96.4028 
 1296   0.0000       3.546938        96.5171 
 1297   0.0000       3.548824        96.5684 
 1298   0.0000       3.556546        96.7785 
 1299   0.0000       3.558692        96.8369 
 1300   0.0000       3.563912        96.9790 
 1301   0.0000       3.567525        97.0773 
 1302   0.0000       3.573347        97.2357 
 1303   0.0000       3.579339        97.3988 
 1304   0.0000       3.580692        97.4356 
 1305   0.0000       3.583431        97.5101 
 1306   0.0000       3.589871        97.6854 
 1307   0.0000       3.592021        97.7439 
 1308   0.0000       3.593219        97.7765 
 1309   0.0000       3.599820        97.9561 
 1310   0.0000       3.600911        97.9858 
 1311   0.0000       3.604707        98.0891 
 1312   0.0000       3.610121        98.2364 
 1313   0.0000       3.613237        98.3212 
 1314   0.0000       3.619293        98.4860 
 1315   0.0000       3.619401        98.4889 
 1316   0.0000       3.626984        98.6952 
 1317   0.0000       3.631035        98.8055 
 1318   0.0000       3.639121        99.0255 
 1319   0.0000       3.642636        99.1212 
 1320   0.0000       3.644025        99.1590 
 1321   0.0000       3.649285        99.3021 
 1322   0.0000       3.650913        99.3464 
 1323   0.0000       3.655532        99.4721 
 1324   0.0000       3.663727        99.6951 
 1325   0.0000       3.668155        99.8156 
 1326   0.0000       3.675579       100.0176 
 1327   0.0000       3.682014       100.1927 
 1328   0.0000       3.684805       100.2686 
 1329   0.0000       3.688357       100.3653 
 1330   0.0000       3.693532       100.5061 
 1331   0.0000       3.702971       100.7630 
 1332   0.0000       3.705100       100.8209 
 1333   0.0000       3.710648       100.9719 
 1334   0.0000       3.718958       101.1980 
 1335   0.0000       3.736961       101.6879 
 1336   0.0000       3.745288       101.9145 
 1337   0.0000       3.746401       101.9448 
 1338   0.0000       3.754032       102.1524 
 1339   0.0000       3.755431       102.1905 
 1340   0.0000       3.760645       102.3324 
 1341   0.0000       3.781745       102.9065 
 1342   0.0000       3.788066       103.0785 
 1343   0.0000       3.797969       103.3480 
 1344   0.0000       3.807618       103.6105 
 1345   0.0000       3.812051       103.7312 
 1346   0.0000       3.819560       103.9355 
 1347   0.0000       3.827240       104.1445 
 1348   0.0000       3.833403       104.3122 
 1349   0.0000       3.836143       104.3868 
 1350   0.0000       3.840780       104.5129 
 1351   0.0000       3.848946       104.7351 
 1352   0.0000       3.853612       104.8621 
 1353   0.0000       3.861199       105.0686 
 1354   0.0000       3.862698       105.1094 
 1355   0.0000       3.867658       105.2443 
 1356   0.0000       3.873496       105.4032 
 1357   0.0000       3.882651       105.6523 
 1358   0.0000       3.883326       105.6707 
 1359   0.0000       3.891630       105.8966 
 1360   0.0000       3.901528       106.1660 
 1361   0.0000       3.911459       106.4362 
 1362   0.0000       3.920586       106.6846 
 1363   0.0000       3.922625       106.7400 
 1364   0.0000       3.936319       107.1127 
 1365   0.0000       3.939382       107.1960 
 1366   0.0000       3.946786       107.3975 
 1367   0.0000       3.951226       107.5183 
 1368   0.0000       3.956372       107.6584 
 1369   0.0000       3.960661       107.7751 
 1370   0.0000       3.963785       107.8601 
 1371   0.0000       3.971825       108.0789 
 1372   0.0000       3.973852       108.1340 
 1373   0.0000       3.987095       108.4944 
 1374   0.0000       3.987543       108.5066 
 1375   0.0000       3.997382       108.7743 
 1376   0.0000       4.006798       109.0305 
 1377   0.0000       4.009256       109.0974 
 1378   0.0000       4.014852       109.2497 
 1379   0.0000       4.015202       109.2592 
 1380   0.0000       4.022676       109.4626 
 1381   0.0000       4.025399       109.5367 
 1382   0.0000       4.036244       109.8318 
 1383   0.0000       4.042893       110.0127 
 1384   0.0000       4.045104       110.0729 
 1385   0.0000       4.053702       110.3068 
 1386   0.0000       4.056821       110.3917 
 1387   0.0000       4.066352       110.6511 
 1388   0.0000       4.067853       110.6919 
 1389   0.0000       4.074077       110.8613 
 1390   0.0000       4.088169       111.2447 
 1391   0.0000       4.091485       111.3350 
 1392   0.0000       4.095736       111.4506 
 1393   0.0000       4.099555       111.5546 
 1394   0.0000       4.101490       111.6072 
 1395   0.0000       4.107281       111.7648 
 1396   0.0000       4.110497       111.8523 
 1397   0.0000       4.117174       112.0340 
 1398   0.0000       4.117550       112.0442 
 1399   0.0000       4.119261       112.0908 
 1400   0.0000       4.126567       112.2896 
 1401   0.0000       4.128070       112.3305 
 1402   0.0000       4.136444       112.5584 
 1403   0.0000       4.137564       112.5889 
 1404   0.0000       4.139885       112.6520 
 1405   0.0000       4.143289       112.7446 
 1406   0.0000       4.145023       112.7918 
 1407   0.0000       4.153382       113.0193 
 1408   0.0000       4.154171       113.0407 
 1409   0.0000       4.157088       113.1201 
 1410   0.0000       4.164132       113.3118 
 1411   0.0000       4.167841       113.4127 
 1412   0.0000       4.172029       113.5267 
 1413   0.0000       4.174998       113.6075 
 1414   0.0000       4.181774       113.7919 
 1415   0.0000       4.182721       113.8176 
 1416   0.0000       4.188240       113.9678 
 1417   0.0000       4.194951       114.1504 
 1418   0.0000       4.195149       114.1558 
 1419   0.0000       4.202672       114.3605 
 1420   0.0000       4.204185       114.4017 
 1421   0.0000       4.208157       114.5098 
 1422   0.0000       4.209739       114.5528 
 1423   0.0000       4.213885       114.6656 
 1424   0.0000       4.219380       114.8152 
 1425   0.0000       4.231790       115.1529 
 1426   0.0000       4.233896       115.2102 
 1427   0.0000       4.237667       115.3128 
 1428   0.0000       4.241611       115.4201 
 1429   0.0000       4.242451       115.4430 
 1430   0.0000       4.245427       115.5239 
 1431   0.0000       4.246239       115.5461 
 1432   0.0000       4.254240       115.7638 
 1433   0.0000       4.254382       115.7676 
 1434   0.0000       4.257672       115.8571 
 1435   0.0000       4.262496       115.9884 
 1436   0.0000       4.263909       116.0269 
 1437   0.0000       4.264341       116.0386 
 1438   0.0000       4.265431       116.0683 
 1439   0.0000       4.271970       116.2462 
 1440   0.0000       4.273330       116.2832 
 1441   0.0000       4.276007       116.3561 
 1442   0.0000       4.284654       116.5914 
 1443   0.0000       4.286323       116.6368 
 1444   0.0000       4.293429       116.8302 
 1445   0.0000       4.294954       116.8716 
 1446   0.0000       4.298219       116.9605 
 1447   0.0000       4.309366       117.2638 
 1448   0.0000       4.318736       117.5188 
 1449   0.0000       4.325804       117.7111 
 1450   0.0000       4.329641       117.8155 
 1451   0.0000       4.334738       117.9542 
 1452   0.0000       4.339497       118.0837 
 1453   0.0000       4.345067       118.2353 
 1454   0.0000       4.349685       118.3610 
 1455   0.0000       4.353038       118.4522 
 1456   0.0000       4.362425       118.7076 
 1457   0.0000       4.368533       118.8738 
 1458   0.0000       4.374207       119.0282 
 1459   0.0000       4.380415       119.1971 
 1460   0.0000       4.385163       119.3264 
 1461   0.0000       4.393551       119.5546 
 1462   0.0000       4.399720       119.7225 
 1463   0.0000       4.410637       120.0195 
 1464   0.0000       4.417304       120.2010 
 1465   0.0000       4.417906       120.2173 
 1466   0.0000       4.426587       120.4535 
 1467   0.0000       4.433303       120.6363 
 1468   0.0000       4.451175       121.1226 
 1469   0.0000       4.462266       121.4244 
 1470   0.0000       4.465119       121.5021 
 1471   0.0000       4.472416       121.7006 
 1472   0.0000       4.498520       122.4109 
 1473   0.0000       4.505416       122.5986 
 1474   0.0000       4.512762       122.7985 
 1475   0.0000       4.518708       122.9603 
 1476   0.0000       4.522174       123.0546 
 1477   0.0000       4.530222       123.2736 
 1478   0.0000       4.546990       123.7299 
 1479   0.0000       4.549393       123.7953 
 1480   0.0000       4.555408       123.9590 
 1481   0.0000       4.559873       124.0804 
 1482   0.0000       4.567008       124.2746 
 1483   0.0000       4.569091       124.3313 
 1484   0.0000       4.592268       124.9620 
 1485   0.0000       4.600078       125.1745 
 1486   0.0000       4.610729       125.4643 
 1487   0.0000       4.620277       125.7241 
 1488   0.0000       4.637565       126.1946 
 1489   0.0000       4.642958       126.3413 
 1490   0.0000       4.649840       126.5286 
 1491   0.0000       4.656991       126.7232 
 1492   0.0000       4.660551       126.8201 
 1493   0.0000       4.679334       127.3312 
 1494   0.0000       4.686935       127.5380 
 1495   0.0000       4.698796       127.8607 
 1496   0.0000       4.699758       127.8869 
 1497   0.0000       4.707952       128.1099 
 1498   0.0000       4.720799       128.4595 
 1499   0.0000       4.730126       128.7133 
 1500   0.0000       4.744824       129.1132 
 1501   0.0000       4.754106       129.3658 
 1502   0.0000       4.761400       129.5643 
 1503   0.0000       4.763488       129.6211 
 1504   0.0000       4.765323       129.6710 
 1505   0.0000       4.781418       130.1090 
 1506   0.0000       4.789081       130.3175 
 1507   0.0000       4.792632       130.4141 
 1508   0.0000       4.796248       130.5126 
 1509   0.0000       4.805622       130.7676 
 1510   0.0000       4.807189       130.8102 
 1511   0.0000       4.811985       130.9408 
 1512   0.0000       4.828461       131.3891 
 1513   0.0000       4.836847       131.6173 
 1514   0.0000       4.843493       131.7981 
 1515   0.0000       4.850928       132.0005 
 1516   0.0000       4.858031       132.1937 
 1517   0.0000       4.863164       132.3334 
 1518   0.0000       4.868741       132.4852 
 1519   0.0000       4.876732       132.7026 
 1520   0.0000       4.885937       132.9531 
 1521   0.0000       4.916174       133.7759 
 1522   0.0000       4.920861       133.9034 
 1523   0.0000       4.923926       133.9868 
 1524   0.0000       4.931806       134.2013 
 1525   0.0000       4.942380       134.4890 
 1526   0.0000       4.952058       134.7523 
 1527   0.0000       4.970203       135.2461 
 1528   0.0000       4.977817       135.4533 
 1529   0.0000       4.983636       135.6116 
 1530   0.0000       4.993389       135.8770 
 1531   0.0000       4.998880       136.0265 
 1532   0.0000       5.011528       136.3706 
 1533   0.0000       5.014293       136.4458 
 1534   0.0000       5.026787       136.7858 
 1535   0.0000       5.032960       136.9538 
 1536   0.0000       5.045432       137.2932 
 1537   0.0000       5.050419       137.4289 
 1538   0.0000       5.065215       137.8315 
 1539   0.0000       5.067505       137.8938 
 1540   0.0000       5.076951       138.1509 
 1541   0.0000       5.081928       138.2863 
 1542   0.0000       5.096694       138.6881 
 1543   0.0000       5.107886       138.9926 
 1544   0.0000       5.134414       139.7145 
 1545   0.0000       5.136014       139.7581 
 1546   0.0000       5.143597       139.9644 
 1547   0.0000       5.155060       140.2763 
 1548   0.0000       5.169262       140.6628 
 1549   0.0000       5.172032       140.7382 
 1550   0.0000       5.175107       140.8218 
 1551   0.0000       5.180478       140.9680 
 1552   0.0000       5.187740       141.1656 
 1553   0.0000       5.194458       141.3484 
 1554   0.0000       5.202623       141.5706 
 1555   0.0000       5.240986       142.6145 
 1556   0.0000       5.258044       143.0787 
 1557   0.0000       5.265731       143.2878 
 1558   0.0000       5.276973       143.5937 
 1559   0.0000       5.281800       143.7251 
 1560   0.0000       5.287818       143.8888 
 1561   0.0000       5.302931       144.3001 
 1562   0.0000       5.307270       144.4182 
 1563   0.0000       5.317748       144.7033 
 1564   0.0000       5.323780       144.8674 
 1565   0.0000       5.335017       145.1732 
 1566   0.0000       5.344878       145.4415 
 1567   0.0000       5.359232       145.8321 
 1568   0.0000       5.372432       146.1913 
 1569   0.0000       5.378047       146.3441 
 1570   0.0000       5.396975       146.8591 
 1571   0.0000       5.408713       147.1786 
 1572   0.0000       5.415032       147.3505 
 1573   0.0000       5.425720       147.6414 
 1574   0.0000       5.429055       147.7321 
 1575   0.0000       5.446562       148.2085 
 1576   0.0000       5.461376       148.6116 
 1577   0.0000       5.470401       148.8572 
 1578   0.0000       5.492654       149.4627 
 1579   0.0000       5.502689       149.7358 
 1580   0.0000       5.508384       149.8908 
 1581   0.0000       5.545421       150.8986 
 1582   0.0000       5.548910       150.9935 
 1583   0.0000       5.551396       151.0612 
 1584   0.0000       5.565443       151.4434 
 1585   0.0000       5.598634       152.3466 
 1586   0.0000       5.603289       152.4732 
 1587   0.0000       5.622818       153.0046 
 1588   0.0000       5.652367       153.8087 
 1589   0.0000       5.655051       153.8818 
 1590   0.0000       5.662942       154.0965 
 1591   0.0000       5.703772       155.2075 
 1592   0.0000       5.734616       156.0468 
 1593   0.0000       5.755436       156.6134 
 1594   0.0000       5.770645       157.0272 
 1595   0.0000       5.788245       157.5062 
 1596   0.0000       5.814389       158.2176 
 1597   0.0000       5.866951       159.6479 
 1598   0.0000       5.904897       160.6804 
 1599   0.0000       5.916949       161.0084 
 1600   0.0000       5.957866       162.1218 
 1601   0.0000       5.965476       162.3288 
 1602   0.0000       5.999592       163.2572 
 1603   0.0000       6.051105       164.6589 
 1604   0.0000       6.125555       166.6848 
 1605   0.0000       6.133931       166.9127 
 1606   0.0000       6.170343       167.9036 
 1607   0.0000       6.181753       168.2141 
 1608   0.0000       6.239253       169.7787 
 1609   0.0000       6.330689       172.2668 
 1610   0.0000       6.499672       176.8651 
 1611   0.0000       8.796108       239.3543 
 1612   0.0000       8.834991       240.4123 
 1613   0.0000       8.986662       244.5395 
 1614   0.0000       9.024969       245.5819 
 1615   0.0000       9.354917       254.5602 
 1616   0.0000       9.399561       255.7751 
 1617   0.0000       9.435442       256.7514 
 1618   0.0000       9.567914       260.3562 
 1619   0.0000       9.627813       261.9861 
 1620   0.0000      19.770171       537.9737 
 1621   0.0000      20.483827       557.3933 
 1622   0.0000      20.737244       564.2891 
 1623   0.0000      22.094801       601.2301 
 1624   0.0000      22.153900       602.8383 
 1625   0.0000      22.160115       603.0074 
 1626   0.0000      22.177270       603.4742 
 1627   0.0000      22.190509       603.8344 
 1628   0.0000      22.462133       611.2257 
 1629   0.0000      22.595730       614.8611 
 1630   0.0000      22.607187       615.1728 
 1631   0.0000      22.619630       615.5114 
 1632   0.0000      22.624204       615.6359 
 1633   0.0000      22.635975       615.9562 
 1634   0.0000      22.644801       616.1964 
 1635   0.0000      22.653550       616.4344 
 1636   0.0000      22.666095       616.7758 
 1637   0.0000      22.695276       617.5699 
 1638   0.0000      22.717337       618.1702 
 1639   0.0000      22.717977       618.1876 
 1640   0.0000      22.721373       618.2800 
 1641   0.0000      22.744985       618.9225 
 1642   0.0000      22.767016       619.5220 
 1643   0.0000      22.777664       619.8118 
 1644   0.0000      22.786433       620.0504 
 1645   0.0000      22.804665       620.5465 
 1646   0.0000      22.813054       620.7748 
 1647   0.0000      22.860440       622.0642 
 1648   0.0000      22.868280       622.2775 
 1649   0.0000      22.881055       622.6252 
 1650   0.0000      22.884932       622.7307 
 1651   0.0000      22.886259       622.7668 
 1652   0.0000      22.921776       623.7332 
 1653   0.0000      22.926315       623.8567 
 1654   0.0000      22.997649       625.7978 
 1655   0.0000      23.123083       629.2111 
 1656   0.0000      23.187723       630.9700 
 1657   0.0000      23.248714       632.6297 
 1658   0.0000      23.263961       633.0446 
 1659   0.0000      23.277491       633.4127 
 1660   0.0000      23.300802       634.0471 
 1661   0.0000      23.314521       634.4204 
 1662   0.0000      23.325831       634.7281 
 1663   0.0000      23.571184       641.4045 
 1664   0.0000      23.840905       648.7440 
 1665   0.0000      33.206712       903.6006 
 1666   0.0000      33.273858       905.4277 
 1667   0.0000      33.320475       906.6962 

                    ********************************
                    * MULLIKEN POPULATION ANALYSIS *
                    ********************************

--------------------------------------------
MULLIKEN ATOMIC CHARGES AND SPIN POPULATIONS
--------------------------------------------
   0 C :    0.058309   -0.000062
   1 C :   -0.234426    0.000027
   2 C :   -0.112137   -0.000006
   3 C :    0.107749    0.000001
   4 C :   -0.144169    0.000011
   5 C :   -0.235057    0.000008
   6 S :   -0.084492    0.000001
   7 N :    0.051890    0.000529
   8 C :    0.090096    0.001155
   9 C :    0.169080   -0.000905
  10 C :    0.212544    0.000468
  11 C :    0.097790   -0.000379
  12 C :   -0.313661    0.006901
  13 C :   -0.038720   -0.000297
  14 C :   -0.181657    0.007228
  15 C :   -0.129777   -0.001065
  16 C :   -0.160846    0.000428
  17 C :   -0.125968   -0.000427
  18 C :    0.087558    0.000324
  19 C :   -0.550691   -0.000186
  20 N :    0.083632    0.288158
  21 C :    0.147855    0.020934
  22 C :   -0.009514    0.118641
  23 S :    0.157208    0.295286
  24 C :   -0.009055    0.118254
  25 C :    0.144192    0.020806
  26 N :   -0.039096   -0.000004
  27 C :    0.161653   -0.000006
  28 C :   -0.037002    0.000000
  29 S :   -0.010143    0.000002
  30 C :   -0.034989    0.000001
  31 C :    0.151405    0.000011
  32 C :   -0.148281    0.015866
  33 C :   -0.122037    0.017834
  34 C :   -0.116639    0.086891
  35 C :   -0.152562   -0.053191
  36 C :   -0.152582   -0.053144
  37 C :   -0.116934    0.086809
  38 C :   -0.122339    0.017639
  39 C :   -0.143779    0.016109
  40 C :   -0.139414   -0.000002
  41 C :   -0.151702    0.000002
  42 C :   -0.144077   -0.000002
  43 C :   -0.197760   -0.000003
  44 C :   -0.212799    0.000011
  45 C :   -0.139762   -0.000002
  46 C :   -0.154980    0.000002
  47 C :   -0.137234   -0.000001
  48 H :    0.149826   -0.000002
  49 H :    0.147735    0.000001
  50 H :    0.141092    0.000002
  51 H :    0.145166   -0.000003
  52 H :    0.137177   -0.000000
  53 H :    0.139586   -0.000584
  54 H :    0.140938   -0.000495
  55 H :    0.167746    0.000499
  56 H :    0.157152    0.000007
  57 H :    0.150612    0.000017
  58 H :    0.135505    0.000014
  59 H :    0.199661   -0.001563
  60 H :    0.165924   -0.000579
  61 H :    0.169504   -0.003897
  62 H :    0.164980    0.000994
  63 H :    0.165114    0.000994
  64 H :    0.169346   -0.003897
  65 H :    0.165702   -0.000563
  66 H :    0.197889   -0.001599
  67 H :    0.136326    0.000000
  68 H :    0.129833   -0.000000
  69 H :    0.119398    0.000000
  70 H :    0.148641   -0.000001
  71 H :    0.151488    0.000003
  72 H :    0.120612    0.000000
  73 H :    0.130063   -0.000000
  74 H :    0.136308   -0.000000
Sum of atomic charges         :    1.0000000
Sum of atomic spin populations:    1.0000000

-----------------------------------------------------
MULLIKEN REDUCED ORBITAL CHARGES AND SPIN POPULATIONS
-----------------------------------------------------
CHARGE
  0 C s       :     3.238059  s :     3.238059
      pz      :     0.886321  p :     2.540216
      px      :     0.614833
      py      :     1.039062
      dz2     :     0.025649  d :     0.150620
      dxz     :     0.060549
      dyz     :     0.023427
      dx2y2   :     0.018704
      dxy     :     0.022290
      f0      :     0.003072  f :     0.012795
      f+1     :     0.001726
      f-1     :     0.001195
      f+2     :     0.002561
      f-2     :     0.001067
      f+3     :     0.001687
      f-3     :     0.001487
  1 C s       :     3.284383  s :     3.284383
      pz      :     0.969807  p :     2.864980
      px      :     0.944288
      py      :     0.950885
      dz2     :     0.011660  d :     0.077718
      dxz     :     0.026538
      dyz     :     0.009506
      dx2y2   :     0.007621
      dxy     :     0.022394
      f0      :     0.001314  f :     0.007344
      f+1     :     0.001057
      f-1     :     0.000732
      f+2     :     0.001489
      f-2     :     0.000567
      f+3     :     0.000552
      f-3     :     0.001633
  2 C s       :     3.209348  s :     3.209348
      pz      :     0.945707  p :     2.818225
      px      :     0.893488
      py      :     0.979029
      dz2     :     0.012486  d :     0.077110
      dxz     :     0.027390
      dyz     :     0.009394
      dx2y2   :     0.009052
      dxy     :     0.018788
      f0      :     0.001407  f :     0.007454
      f+1     :     0.001128
      f-1     :     0.000753
      f+2     :     0.001510
      f-2     :     0.000528
      f+3     :     0.000537
      f-3     :     0.001592
  3 C s       :     3.142006  s :     3.142006
      pz      :     0.831104  p :     2.611973
      px      :     0.874212
      py      :     0.906657
      dz2     :     0.030425  d :     0.129014
      dxz     :     0.027786
      dyz     :     0.021671
      dx2y2   :     0.016665
      dxy     :     0.032466
      f0      :     0.002059  f :     0.009259
      f+1     :     0.001175
      f-1     :     0.001130
      f+2     :     0.001700
      f-2     :     0.001019
      f+3     :     0.000942
      f-3     :     0.001234
  4 C s       :     3.168124  s :     3.168124
      pz      :     0.953576  p :     2.889090
      px      :     0.945859
      py      :     0.989654
      dz2     :     0.013122  d :     0.079657
      dxz     :     0.027361
      dyz     :     0.008755
      dx2y2   :     0.011533
      dxy     :     0.018887
      f0      :     0.001358  f :     0.007298
      f+1     :     0.001161
      f-1     :     0.000705
      f+2     :     0.001476
      f-2     :     0.000498
      f+3     :     0.000517
      f-3     :     0.001583
  5 C s       :     3.276934  s :     3.276934
      pz      :     0.960794  p :     2.872850
      px      :     0.957889
      py      :     0.954167
      dz2     :     0.011583  d :     0.077943
      dxz     :     0.026587
      dyz     :     0.009897
      dx2y2   :     0.007520
      dxy     :     0.022357
      f0      :     0.001314  f :     0.007331
      f+1     :     0.001041
      f-1     :     0.000774
      f+2     :     0.001446
      f-2     :     0.000559
      f+3     :     0.000554
      f-3     :     0.001643
  6 S s       :     5.760982  s :     5.760982
      pz      :     3.243447  p :    10.191875
      px      :     3.090469
      py      :     3.857959
      dz2     :     0.046316  d :     0.120322
      dxz     :     0.017497
      dyz     :     0.006213
      dx2y2   :     0.029899
      dxy     :     0.020397
      f0      :     0.002830  f :     0.011314
      f+1     :     0.001384
      f-1     :     0.000884
      f+2     :     0.001181
      f-2     :     0.000122
      f+3     :     0.002809
      f-3     :     0.002104
  7 N s       :     3.425684  s :     3.425684
      pz      :     1.539850  p :     3.426773
      px      :     0.891218
      py      :     0.995705
      dz2     :     0.005811  d :     0.090579
      dxz     :     0.014329
      dyz     :     0.015897
      dx2y2   :     0.027087
      dxy     :     0.027455
      f0      :     0.000857  f :     0.005074
      f+1     :     0.000695
      f-1     :     0.000514
      f+2     :     0.000318
      f-2     :     0.000544
      f+3     :     0.000763
      f-3     :     0.001382
  8 C s       :     3.052080  s :     3.052080
      pz      :     0.931342  p :     2.690216
      px      :     0.911171
      py      :     0.847703
      dz2     :     0.004129  d :     0.153073
      dxz     :     0.030194
      dyz     :     0.041473
      dx2y2   :     0.032784
      dxy     :     0.044494
      f0      :     0.002345  f :     0.014535
      f+1     :     0.000809
      f-1     :     0.001090
      f+2     :     0.001205
      f-2     :     0.002205
      f+3     :     0.003242
      f-3     :     0.003640
  9 C s       :     3.163050  s :     3.163050
      pz      :     0.976108  p :     2.537604
      px      :     0.846979
      py      :     0.714517
      dz2     :     0.005989  d :     0.119580
      dxz     :     0.019544
      dyz     :     0.031308
      dx2y2   :     0.026997
      dxy     :     0.035742
      f0      :     0.001914  f :     0.010686
      f+1     :     0.000624
      f-1     :     0.000723
      f+2     :     0.001189
      f-2     :     0.000978
      f+3     :     0.003099
      f-3     :     0.002159
 10 C s       :     3.206532  s :     3.206532
      pz      :     0.992925  p :     2.450984
      px      :     0.797379
      py      :     0.660680
      dz2     :     0.006443  d :     0.119230
      dxz     :     0.022350
      dyz     :     0.026526
      dx2y2   :     0.029324
      dxy     :     0.034588
      f0      :     0.001945  f :     0.010709
      f+1     :     0.000604
      f-1     :     0.000751
      f+2     :     0.001118
      f-2     :     0.001039
      f+3     :     0.003100
      f-3     :     0.002152
 11 C s       :     3.051075  s :     3.051075
      pz      :     0.945110  p :     2.688183
      px      :     0.905259
      py      :     0.837814
      dz2     :     0.004434  d :     0.148571
      dxz     :     0.028991
      dyz     :     0.040524
      dx2y2   :     0.029159
      dxy     :     0.045463
      f0      :     0.002338  f :     0.014381
      f+1     :     0.000806
      f-1     :     0.001085
      f+2     :     0.001290
      f-2     :     0.002106
      f+3     :     0.003275
      f-3     :     0.003481
 12 C s       :     3.406798  s :     3.406798
      pz      :     0.966343  p :     2.820861
      px      :     0.998933
      py      :     0.855585
      dz2     :     0.005844  d :     0.078775
      dxz     :     0.006647
      dyz     :     0.026982
      dx2y2   :     0.026207
      dxy     :     0.013095
      f0      :     0.001518  f :     0.007227
      f+1     :     0.000617
      f-1     :     0.000460
      f+2     :     0.000483
      f-2     :     0.000953
      f+3     :     0.001712
      f-3     :     0.001484
 13 C s       :     3.236608  s :     3.236608
      pz      :     1.135272  p :     2.638545
      px      :     0.747714
      py      :     0.755559
      dz2     :     0.011762  d :     0.150815
      dxz     :     0.024721
      dyz     :     0.026074
      dx2y2   :     0.049047
      dxy     :     0.039211
      f0      :     0.001939  f :     0.012752
      f+1     :     0.000942
      f-1     :     0.000918
      f+2     :     0.001157
      f-2     :     0.001087
      f+3     :     0.003378
      f-3     :     0.003329
 14 C s       :     3.300466  s :     3.300466
      pz      :     0.978057  p :     2.798460
      px      :     0.838285
      py      :     0.982118
      dz2     :     0.005786  d :     0.075345
      dxz     :     0.025794
      dyz     :     0.007101
      dx2y2   :     0.025921
      dxy     :     0.010743
      f0      :     0.001587  f :     0.007386
      f+1     :     0.000491
      f-1     :     0.000620
      f+2     :     0.000451
      f-2     :     0.001051
      f+3     :     0.001593
      f-3     :     0.001594
 15 C s       :     3.217300  s :     3.217300
      pz      :     0.989212  p :     2.831572
      px      :     0.976770
      py      :     0.865589
      dz2     :     0.005225  d :     0.073813
      dxz     :     0.006830
      dyz     :     0.020806
      dx2y2   :     0.024189
      dxy     :     0.016764
      f0      :     0.001533  f :     0.007092
      f+1     :     0.000617
      f-1     :     0.000460
      f+2     :     0.000405
      f-2     :     0.000852
      f+3     :     0.001678
      f-3     :     0.001547
 16 C s       :     3.243359  s :     3.243359
      pz      :     1.003232  p :     2.836715
      px      :     0.988901
      py      :     0.844582
      dz2     :     0.005409  d :     0.073706
      dxz     :     0.006702
      dyz     :     0.020532
      dx2y2   :     0.025031
      dxy     :     0.016032
      f0      :     0.001547  f :     0.007066
      f+1     :     0.000618
      f-1     :     0.000452
      f+2     :     0.000433
      f-2     :     0.000794
      f+3     :     0.001721
      f-3     :     0.001502
 17 C s       :     3.243205  s :     3.243205
      pz      :     0.917123  p :     2.799132
      px      :     0.886690
      py      :     0.995320
      dz2     :     0.005560  d :     0.076196
      dxz     :     0.023970
      dyz     :     0.007163
      dx2y2   :     0.026135
      dxy     :     0.013369
      f0      :     0.001586  f :     0.007434
      f+1     :     0.000466
      f-1     :     0.000604
      f+2     :     0.000424
      f-2     :     0.001042
      f+3     :     0.001646
      f-3     :     0.001667
 18 C s       :     3.208302  s :     3.208302
      pz      :     1.016574  p :     2.528115
      px      :     0.783531
      py      :     0.728010
      dz2     :     0.009871  d :     0.162841
      dxz     :     0.022784
      dyz     :     0.025744
      dx2y2   :     0.071297
      dxy     :     0.033145
      f0      :     0.001867  f :     0.013185
      f+1     :     0.000861
      f-1     :     0.000841
      f+2     :     0.001118
      f-2     :     0.001149
      f+3     :     0.003643
      f-3     :     0.003706
 19 C s       :     3.605056  s :     3.605056
      pz      :     0.982069  p :     2.856793
      px      :     0.982479
      py      :     0.892245
      dz2     :     0.006665  d :     0.081599
      dxz     :     0.007536
      dyz     :     0.025789
      dx2y2   :     0.023348
      dxy     :     0.018262
      f0      :     0.001521  f :     0.007242
      f+1     :     0.000622
      f-1     :     0.000461
      f+2     :     0.000456
      f-2     :     0.000936
      f+3     :     0.001785
      f-3     :     0.001461
 20 N s       :     3.436940  s :     3.436940
      pz      :     0.993041  p :     3.382905
      px      :     1.191830
      py      :     1.198034
      dz2     :     0.021465  d :     0.091585
      dxz     :     0.023345
      dyz     :     0.023369
      dx2y2   :     0.012592
      dxy     :     0.010814
      f0      :     0.001137  f :     0.004939
      f+1     :     0.000761
      f-1     :     0.000753
      f+2     :     0.000398
      f-2     :     0.000798
      f+3     :     0.000545
      f-3     :     0.000546
 21 C s       :     3.072569  s :     3.072569
      pz      :     0.778026  p :     2.616182
      px      :     0.938902
      py      :     0.899254
      dz2     :     0.034523  d :     0.150005
      dxz     :     0.035429
      dyz     :     0.038202
      dx2y2   :     0.027461
      dxy     :     0.014389
      f0      :     0.003124  f :     0.013389
      f+1     :     0.001992
      f-1     :     0.002232
      f+2     :     0.001576
      f-2     :     0.002166
      f+3     :     0.001120
      f-3     :     0.001179
 22 C s       :     3.221841  s :     3.221841
      pz      :     0.834736  p :     2.657123
      px      :     0.905563
      py      :     0.916824
      dz2     :     0.023254  d :     0.121008
      dxz     :     0.030725
      dyz     :     0.028606
      dx2y2   :     0.025366
      dxy     :     0.013057
      f0      :     0.001950  f :     0.009542
      f+1     :     0.001409
      f-1     :     0.001129
      f+2     :     0.000918
      f-2     :     0.001690
      f+3     :     0.001220
      f-3     :     0.001227
 23 S s       :     5.775680  s :     5.775680
      pz      :     2.958659  p :     9.852739
      px      :     3.440720
      py      :     3.453360
      dz2     :     0.036388  d :     0.195264
      dxz     :     0.059903
      dyz     :     0.058808
      dx2y2   :     0.023466
      dxy     :     0.016698
      f0      :     0.002799  f :     0.019109
      f+1     :     0.003514
      f-1     :     0.003438
      f+2     :     0.003283
      f-2     :     0.004206
      f+3     :     0.000947
      f-3     :     0.000922
 24 C s       :     3.223557  s :     3.223557
      pz      :     0.831422  p :     2.654963
      px      :     0.905569
      py      :     0.917972
      dz2     :     0.023838  d :     0.120990
      dxz     :     0.028277
      dyz     :     0.030348
      dx2y2   :     0.025396
      dxy     :     0.013130
      f0      :     0.001997  f :     0.009545
      f+1     :     0.001133
      f-1     :     0.001353
      f+2     :     0.000929
      f-2     :     0.001691
      f+3     :     0.001285
      f-3     :     0.001158
 25 C s       :     3.071863  s :     3.071863
      pz      :     0.787559  p :     2.620312
      px      :     0.881491
      py      :     0.951262
      dz2     :     0.033349  d :     0.150235
      dxz     :     0.038574
      dyz     :     0.036489
      dx2y2   :     0.027661
      dxy     :     0.014163
      f0      :     0.003096  f :     0.013398
      f+1     :     0.002221
      f-1     :     0.001919
      f+2     :     0.001625
      f-2     :     0.002219
      f+3     :     0.001245
      f-3     :     0.001074
 26 N s       :     3.430329  s :     3.430329
      pz      :     0.983858  p :     3.521740
      px      :     1.205335
      py      :     1.332547
      dz2     :     0.020629  d :     0.082312
      dxz     :     0.020809
      dyz     :     0.018444
      dx2y2   :     0.011617
      dxy     :     0.010813
      f0      :     0.000984  f :     0.004716
      f+1     :     0.000758
      f-1     :     0.000600
      f+2     :     0.000335
      f-2     :     0.000811
      f+3     :     0.000613
      f-3     :     0.000615
 27 C s       :     3.090853  s :     3.090853
      pz      :     0.798242  p :     2.575599
      px      :     0.885189
      py      :     0.892168
      dz2     :     0.030460  d :     0.158628
      dxz     :     0.033918
      dyz     :     0.044165
      dx2y2   :     0.030216
      dxy     :     0.019869
      f0      :     0.002653  f :     0.013267
      f+1     :     0.002060
      f-1     :     0.001842
      f+2     :     0.001782
      f-2     :     0.002455
      f+3     :     0.000804
      f-3     :     0.001673
 28 C s       :     3.233258  s :     3.233258
      pz      :     0.874631  p :     2.668051
      px      :     0.926875
      py      :     0.866545
      dz2     :     0.024259  d :     0.126316
      dxz     :     0.024774
      dyz     :     0.031808
      dx2y2   :     0.021589
      dxy     :     0.023886
      f0      :     0.001855  f :     0.009378
      f+1     :     0.000859
      f-1     :     0.001218
      f+2     :     0.001193
      f-2     :     0.001928
      f+3     :     0.000745
      f-3     :     0.001580
 29 S s       :     5.734059  s :     5.734059
      pz      :     2.921537  p :    10.093725
      px      :     3.853796
      py      :     3.318392
      dz2     :     0.037074  d :     0.165345
      dxz     :     0.023421
      dyz     :     0.071552
      dx2y2   :     0.017316
      dxy     :     0.015982
      f0      :     0.002269  f :     0.017014
      f+1     :     0.001183
      f-1     :     0.004978
      f+2     :     0.004284
      f-2     :     0.002489
      f+3     :     0.000847
      f-3     :     0.000965
 30 C s       :     3.228235  s :     3.228235
      pz      :     0.855123  p :     2.670966
      px      :     0.950669
      py      :     0.865175
      dz2     :     0.023687  d :     0.126406
      dxz     :     0.027238
      dyz     :     0.033670
      dx2y2   :     0.020398
      dxy     :     0.021414
      f0      :     0.001893  f :     0.009382
      f+1     :     0.000971
      f-1     :     0.001406
      f+2     :     0.001123
      f-2     :     0.001703
      f+3     :     0.000691
      f-3     :     0.001595
 31 C s       :     3.094736  s :     3.094736
      pz      :     0.772779  p :     2.582443
      px      :     0.920174
      py      :     0.889490
      dz2     :     0.030892  d :     0.158171
      dxz     :     0.035131
      dyz     :     0.046352
      dx2y2   :     0.028086
      dxy     :     0.017712
      f0      :     0.002864  f :     0.013244
      f+1     :     0.002069
      f-1     :     0.002181
      f+2     :     0.001679
      f-2     :     0.002080
      f+3     :     0.000704
      f-3     :     0.001668
 32 C s       :     3.219539  s :     3.219539
      pz      :     0.846738  p :     2.844931
      px      :     1.004492
      py      :     0.993702
      dz2     :     0.018533  d :     0.076497
      dxz     :     0.021942
      dyz     :     0.019961
      dx2y2   :     0.006358
      dxy     :     0.009703
      f0      :     0.001734  f :     0.007314
      f+1     :     0.001346
      f-1     :     0.001145
      f+2     :     0.000964
      f-2     :     0.000979
      f+3     :     0.000596
      f-3     :     0.000549
 33 C s       :     3.241572  s :     3.241572
      pz      :     0.978239  p :     2.795549
      px      :     0.916752
      py      :     0.900559
      dz2     :     0.014725  d :     0.077717
      dxz     :     0.019934
      dyz     :     0.016692
      dx2y2   :     0.017285
      dxy     :     0.009082
      f0      :     0.001421  f :     0.007198
      f+1     :     0.001269
      f-1     :     0.000887
      f+2     :     0.000362
      f-2     :     0.001314
      f+3     :     0.000908
      f-3     :     0.001037
 34 C s       :     3.231321  s :     3.231321
      pz      :     0.978481  p :     2.801408
      px      :     0.905245
      py      :     0.917681
      dz2     :     0.018021  d :     0.076736
      dxz     :     0.013455
      dyz     :     0.016594
      dx2y2   :     0.018803
      dxy     :     0.009863
      f0      :     0.001440  f :     0.007175
      f+1     :     0.000783
      f-1     :     0.001122
      f+2     :     0.000613
      f-2     :     0.001218
      f+3     :     0.000981
      f-3     :     0.001017
 35 C s       :     3.243358  s :     3.243358
      pz      :     0.877297  p :     2.822646
      px      :     0.979332
      py      :     0.966018
      dz2     :     0.023067  d :     0.078961
      dxz     :     0.018009
      dyz     :     0.020091
      dx2y2   :     0.005831
      dxy     :     0.011963
      f0      :     0.001809  f :     0.007596
      f+1     :     0.001341
      f-1     :     0.001220
      f+2     :     0.001028
      f-2     :     0.000966
      f+3     :     0.000656
      f-3     :     0.000576
 36 C s       :     3.243139  s :     3.243139
      pz      :     0.879091  p :     2.822869
      px      :     0.966855
      py      :     0.976924
      dz2     :     0.022371  d :     0.078977
      dxz     :     0.020418
      dyz     :     0.018794
      dx2y2   :     0.005720
      dxy     :     0.011675
      f0      :     0.001846  f :     0.007597
      f+1     :     0.001229
      f-1     :     0.001287
      f+2     :     0.001055
      f-2     :     0.000967
      f+3     :     0.000567
      f-3     :     0.000645
 37 C s       :     3.231306  s :     3.231306
      pz      :     0.976289  p :     2.801725
      px      :     0.919129
      py      :     0.906308
      dz2     :     0.017710  d :     0.076728
      dxz     :     0.017303
      dyz     :     0.013698
      dx2y2   :     0.018383
      dxy     :     0.009634
      f0      :     0.001467  f :     0.007175
      f+1     :     0.001149
      f-1     :     0.000787
      f+2     :     0.000571
      f-2     :     0.001215
      f+3     :     0.001068
      f-3     :     0.000916
 38 C s       :     3.240777  s :     3.240777
      pz      :     0.980820  p :     2.796679
      px      :     0.902696
      py      :     0.913163
      dz2     :     0.015068  d :     0.077687
      dxz     :     0.016637
      dyz     :     0.018922
      dx2y2   :     0.017745
      dxy     :     0.009316
      f0      :     0.001437  f :     0.007196
      f+1     :     0.000868
      f-1     :     0.001215
      f+2     :     0.000386
      f-2     :     0.001318
      f+3     :     0.001101
      f-3     :     0.000870
 39 C s       :     3.220177  s :     3.220177
      pz      :     0.839091  p :     2.839797
      px      :     1.002311
      py      :     0.998395
      dz2     :     0.019036  d :     0.076490
      dxz     :     0.019626
      dyz     :     0.021703
      dx2y2   :     0.006317
      dxy     :     0.009807
      f0      :     0.001756  f :     0.007314
      f+1     :     0.001173
      f-1     :     0.001315
      f+2     :     0.000968
      f-2     :     0.000951
      f+3     :     0.000550
      f-3     :     0.000601
 40 C s       :     3.224921  s :     3.224921
      pz      :     0.899179  p :     2.823188
      px      :     0.954985
      py      :     0.969024
      dz2     :     0.027694  d :     0.083760
      dxz     :     0.021328
      dyz     :     0.017415
      dx2y2   :     0.006629
      dxy     :     0.010694
      f0      :     0.001764  f :     0.007545
      f+1     :     0.001044
      f-1     :     0.001339
      f+2     :     0.001079
      f-2     :     0.001117
      f+3     :     0.000720
      f-3     :     0.000483
 41 C s       :     3.226151  s :     3.226151
      pz      :     0.959687  p :     2.842157
      px      :     0.963721
      py      :     0.918749
      dz2     :     0.016557  d :     0.076178
      dxz     :     0.014228
      dyz     :     0.016330
      dx2y2   :     0.017466
      dxy     :     0.011597
      f0      :     0.001378  f :     0.007216
      f+1     :     0.000985
      f-1     :     0.000854
      f+2     :     0.000547
      f-2     :     0.001354
      f+3     :     0.000556
      f-3     :     0.001541
 42 C s       :     3.235290  s :     3.235290
      pz      :     0.945922  p :     2.823434
      px      :     0.950088
      py      :     0.927424
      dz2     :     0.013476  d :     0.078052
      dxz     :     0.014041
      dyz     :     0.023235
      dx2y2   :     0.017990
      dxy     :     0.009309
      f0      :     0.001410  f :     0.007302
      f+1     :     0.000864
      f-1     :     0.001247
      f+2     :     0.000668
      f-2     :     0.001076
      f+3     :     0.000528
      f-3     :     0.001511
 43 C s       :     3.211458  s :     3.211458
      pz      :     0.865872  p :     2.905210
      px      :     1.000848
      py      :     1.038490
      dz2     :     0.018604  d :     0.073768
      dxz     :     0.021185
      dyz     :     0.019041
      dx2y2   :     0.005297
      dxy     :     0.009642
      f0      :     0.001693  f :     0.007324
      f+1     :     0.001081
      f-1     :     0.001316
      f+2     :     0.001019
      f-2     :     0.001046
      f+3     :     0.000687
      f-3     :     0.000481
 44 C s       :     3.215638  s :     3.215638
      pz      :     0.876042  p :     2.916120
      px      :     0.991481
      py      :     1.048598
      dz2     :     0.020973  d :     0.073722
      dxz     :     0.017872
      dyz     :     0.017691
      dx2y2   :     0.005937
      dxy     :     0.011249
      f0      :     0.001666  f :     0.007319
      f+1     :     0.000972
      f-1     :     0.001204
      f+2     :     0.001051
      f-2     :     0.001251
      f+3     :     0.000736
      f-3     :     0.000440
 45 C s       :     3.232400  s :     3.232400
      pz      :     0.951654  p :     2.821828
      px      :     0.943209
      py      :     0.926965
      dz2     :     0.014075  d :     0.078228
      dxz     :     0.011718
      dyz     :     0.022795
      dx2y2   :     0.019896
      dxy     :     0.009744
      f0      :     0.001419  f :     0.007307
      f+1     :     0.000659
      f-1     :     0.001128
      f+2     :     0.000821
      f-2     :     0.001239
      f+3     :     0.000568
      f-3     :     0.001472
 46 C s       :     3.227476  s :     3.227476
      pz      :     0.959167  p :     2.844216
      px      :     0.966771
      py      :     0.918278
      dz2     :     0.015716  d :     0.076075
      dxz     :     0.015742
      dyz     :     0.015822
      dx2y2   :     0.017066
      dxy     :     0.011729
      f0      :     0.001357  f :     0.007214
      f+1     :     0.001013
      f-1     :     0.000723
      f+2     :     0.000506
      f-2     :     0.001570
      f+3     :     0.000585
      f-3     :     0.001460
 47 C s       :     3.224444  s :     3.224444
      pz      :     0.902898  p :     2.821327
      px      :     0.950521
      py      :     0.967909
      dz2     :     0.028889  d :     0.083912
      dxz     :     0.019189
      dyz     :     0.016378
      dx2y2   :     0.007521
      dxy     :     0.011935
      f0      :     0.001732  f :     0.007551
      f+1     :     0.000966
      f-1     :     0.001188
      f+2     :     0.001077
      f-2     :     0.001372
      f+3     :     0.000777
      f-3     :     0.000438
 48 H s       :     0.828281  s :     0.828281
      pz      :     0.011212  p :     0.021893
      px      :     0.005898
      py      :     0.004783
 49 H s       :     0.830094  s :     0.830094
      pz      :     0.011101  p :     0.022170
      px      :     0.006028
      py      :     0.005042
 50 H s       :     0.836664  s :     0.836664
      pz      :     0.011434  p :     0.022244
      px      :     0.005764
      py      :     0.005045
 51 H s       :     0.832953  s :     0.832953
      pz      :     0.011045  p :     0.021881
      px      :     0.006028
      py      :     0.004808
 52 H s       :     0.838968  s :     0.838968
      pz      :     0.013181  p :     0.023856
      px      :     0.003514
      py      :     0.007161
 53 H s       :     0.838391  s :     0.838391
      pz      :     0.004460  p :     0.022023
      px      :     0.013654
      py      :     0.003909
 54 H s       :     0.836794  s :     0.836794
      pz      :     0.004732  p :     0.022268
      px      :     0.003868
      py      :     0.013668
 55 H s       :     0.809896  s :     0.809896
      pz      :     0.004628  p :     0.022358
      px      :     0.013780
      py      :     0.003951
 56 H s       :     0.820594  s :     0.820594
      pz      :     0.004684  p :     0.022254
      px      :     0.013513
      py      :     0.004057
 57 H s       :     0.827219  s :     0.827219
      pz      :     0.004317  p :     0.022169
      px      :     0.003644
      py      :     0.014207
 58 H s       :     0.842616  s :     0.842616
      pz      :     0.004338  p :     0.021879
      px      :     0.013745
      py      :     0.003796
 59 H s       :     0.776587  s :     0.776587
      pz      :     0.003853  p :     0.023752
      px      :     0.009692
      py      :     0.010207
 60 H s       :     0.811961  s :     0.811961
      pz      :     0.010785  p :     0.022115
      px      :     0.006487
      py      :     0.004843
 61 H s       :     0.808270  s :     0.808270
      pz      :     0.012481  p :     0.022226
      px      :     0.004158
      py      :     0.005587
 62 H s       :     0.812674  s :     0.812674
      pz      :     0.003407  p :     0.022346
      px      :     0.009278
      py      :     0.009661
 63 H s       :     0.812541  s :     0.812541
      pz      :     0.003337  p :     0.022345
      px      :     0.009862
      py      :     0.009146
 64 H s       :     0.808427  s :     0.808427
      pz      :     0.012189  p :     0.022227
      px      :     0.005754
      py      :     0.004283
 65 H s       :     0.812186  s :     0.812186
      pz      :     0.011172  p :     0.022112
      px      :     0.004776
      py      :     0.006164
 66 H s       :     0.778402  s :     0.778402
      pz      :     0.003777  p :     0.023709
      px      :     0.010375
      py      :     0.009558
 67 H s       :     0.841617  s :     0.841617
      pz      :     0.003438  p :     0.022057
      px      :     0.007392
      py      :     0.011227
 68 H s       :     0.848090  s :     0.848090
      pz      :     0.011797  p :     0.022078
      px      :     0.005810
      py      :     0.004471
 69 H s       :     0.858740  s :     0.858740
      pz      :     0.010167  p :     0.021862
      px      :     0.004602
      py      :     0.007093
 70 H s       :     0.828180  s :     0.828180
      pz      :     0.003892  p :     0.023179
      px      :     0.007883
      py      :     0.011404
 71 H s       :     0.825359  s :     0.825359
      pz      :     0.003855  p :     0.023152
      px      :     0.008043
      py      :     0.011255
 72 H s       :     0.857524  s :     0.857524
      pz      :     0.010385  p :     0.021864
      px      :     0.004222
      py      :     0.007258
 73 H s       :     0.847857  s :     0.847857
      pz      :     0.010921  p :     0.022081
      px      :     0.006796
      py      :     0.004364
 74 H s       :     0.841633  s :     0.841633
      pz      :     0.003450  p :     0.022059
      px      :     0.007459
      py      :     0.011151

SPIN
  0 C s       :    -0.000046  s :    -0.000046
      pz      :     0.000013  p :    -0.000035
      px      :    -0.000035
      py      :    -0.000013
      dz2     :    -0.000000  d :     0.000018
      dxz     :     0.000018
      dyz     :     0.000001
      dx2y2   :     0.000000
      dxy     :    -0.000001
      f0      :     0.000001  f :     0.000001
      f+1     :     0.000000
      f-1     :     0.000000
      f+2     :     0.000001
      f-2     :     0.000000
      f+3     :    -0.000000
      f-3     :    -0.000000
  1 C s       :     0.000004  s :     0.000004
      pz      :     0.000003  p :     0.000021
      px      :     0.000009
      py      :     0.000008
      dz2     :     0.000000  d :     0.000002
      dxz     :     0.000000
      dyz     :     0.000000
      dx2y2   :     0.000001
      dxy     :    -0.000000
      f0      :    -0.000000  f :    -0.000000
      f+1     :     0.000000
      f-1     :    -0.000000
      f+2     :    -0.000000
      f-2     :     0.000000
      f+3     :     0.000000
      f-3     :    -0.000000
  2 C s       :    -0.000004  s :    -0.000004
      pz      :     0.000001  p :    -0.000002
      px      :    -0.000001
      py      :    -0.000002
      dz2     :     0.000000  d :     0.000000
      dxz     :     0.000000
      dyz     :     0.000000
      dx2y2   :     0.000000
      dxy     :     0.000000
      f0      :     0.000000  f :     0.000000
      f+1     :     0.000000
      f-1     :     0.000000
      f+2     :     0.000000
      f-2     :     0.000000
      f+3     :     0.000000
      f-3     :     0.000000
  3 C s       :    -0.000000  s :    -0.000000
      pz      :    -0.000000  p :     0.000002
      px      :    -0.000000
      py      :     0.000002
      dz2     :    -0.000000  d :    -0.000000
      dxz     :     0.000000
      dyz     :    -0.000000
      dx2y2   :    -0.000000
      dxy     :    -0.000000
      f0      :    -0.000000  f :    -0.000000
      f+1     :    -0.000000
      f-1     :    -0.000000
      f+2     :     0.000000
      f-2     :    -0.000000
      f+3     :    -0.000000
      f-3     :    -0.000000
  4 C s       :     0.000006  s :     0.000006
      pz      :    -0.000000  p :     0.000004
      px      :     0.000007
      py      :    -0.000002
      dz2     :     0.000000  d :     0.000000
      dxz     :     0.000000
      dyz     :     0.000000
      dx2y2   :     0.000000
      dxy     :     0.000000
      f0      :     0.000000  f :     0.000000
      f+1     :     0.000000
      f-1     :     0.000000
      f+2     :     0.000000
      f-2     :     0.000000
      f+3     :     0.000000
      f-3     :     0.000000
  5 C s       :    -0.000011  s :    -0.000011
      pz      :     0.000011  p :     0.000020
      px      :     0.000007
      py      :     0.000003
      dz2     :    -0.000000  d :    -0.000001
      dxz     :     0.000000
      dyz     :     0.000000
      dx2y2   :    -0.000001
      dxy     :    -0.000000
      f0      :     0.000000  f :     0.000000
      f+1     :     0.000000
      f-1     :     0.000000
      f+2     :    -0.000000
      f-2     :     0.000000
      f+3     :     0.000000
      f-3     :     0.000000
  6 S s       :     0.000000  s :     0.000000
      pz      :     0.000000  p :     0.000000
      px      :    -0.000000
      py      :     0.000001
      dz2     :    -0.000000  d :     0.000000
      dxz     :    -0.000000
      dyz     :     0.000000
      dx2y2   :     0.000000
      dxy     :     0.000000
      f0      :    -0.000000  f :     0.000000
      f+1     :    -0.000000
      f-1     :     0.000000
      f+2     :    -0.000000
      f-2     :    -0.000000
      f+3     :    -0.000000
      f-3     :     0.000000
  7 N s       :     0.000021  s :     0.000021
      pz      :     0.000443  p :     0.000493
      px      :     0.000019
      py      :     0.000032
      dz2     :    -0.000001  d :     0.000014
      dxz     :     0.000001
      dyz     :     0.000011
      dx2y2   :     0.000002
      dxy     :     0.000001
      f0      :    -0.000000  f :    -0.000000
      f+1     :    -0.000000
      f-1     :    -0.000000
      f+2     :     0.000000
      f-2     :     0.000000
      f+3     :    -0.000000
      f-3     :     0.000000
  8 C s       :     0.000254  s :     0.000254
      pz      :     0.001374  p :     0.000951
      px      :    -0.000285
      py      :    -0.000138
      dz2     :     0.000000  d :    -0.000046
      dxz     :    -0.000014
      dyz     :    -0.000027
      dx2y2   :     0.000009
      dxy     :    -0.000014
      f0      :    -0.000002  f :    -0.000003
      f+1     :    -0.000001
      f-1     :    -0.000001
      f+2     :    -0.000002
      f-2     :     0.000002
      f+3     :    -0.000000
      f-3     :     0.000001
  9 C s       :     0.000303  s :     0.000303
      pz      :    -0.001095  p :    -0.001433
      px      :    -0.000101
      py      :    -0.000237
      dz2     :     0.000036  d :     0.000206
      dxz     :     0.000056
      dyz     :     0.000012
      dx2y2   :    -0.000003
      dxy     :     0.000104
      f0      :     0.000002  f :     0.000018
      f+1     :     0.000001
      f-1     :     0.000001
      f+2     :     0.000001
      f-2     :     0.000003
      f+3     :     0.000006
      f-3     :     0.000003
 10 C s       :     0.000094  s :     0.000094
      pz      :     0.000388  p :     0.000413
      px      :    -0.000245
      py      :     0.000269
      dz2     :    -0.000006  d :    -0.000037
      dxz     :    -0.000004
      dyz     :    -0.000033
      dx2y2   :     0.000007
      dxy     :    -0.000000
      f0      :    -0.000000  f :    -0.000002
      f+1     :    -0.000000
      f-1     :     0.000000
      f+2     :    -0.000001
      f-2     :    -0.000000
      f+3     :     0.000000
      f-3     :     0.000000
 11 C s       :    -0.000054  s :    -0.000054
      pz      :    -0.000343  p :    -0.000362
      px      :    -0.000006
      py      :    -0.000013
      dz2     :    -0.000002  d :     0.000032
      dxz     :     0.000018
      dyz     :     0.000007
      dx2y2   :    -0.000003
      dxy     :     0.000013
      f0      :     0.000001  f :     0.000004
      f+1     :     0.000000
      f-1     :     0.000000
      f+2     :     0.000000
      f-2     :     0.000001
      f+3     :     0.000001
      f-3     :     0.000000
 12 C s       :    -0.001024  s :    -0.001024
      pz      :     0.002485  p :     0.007558
      px      :     0.002162
      py      :     0.002911
      dz2     :     0.000202  d :     0.000368
      dxz     :    -0.000007
      dyz     :    -0.000006
      dx2y2   :    -0.000062
      dxy     :     0.000241
      f0      :    -0.000001  f :    -0.000002
      f+1     :    -0.000000
      f-1     :     0.000002
      f+2     :     0.000002
      f-2     :    -0.000000
      f+3     :     0.000001
      f-3     :    -0.000006
 13 C s       :     0.000270  s :     0.000270
      pz      :    -0.002685  p :    -0.006399
      px      :    -0.001473
      py      :    -0.002242
      dz2     :    -0.000049  d :     0.005323
      dxz     :    -0.000017
      dyz     :    -0.000023
      dx2y2   :     0.005697
      dxy     :    -0.000286
      f0      :    -0.000005  f :     0.000509
      f+1     :     0.000002
      f-1     :     0.000003
      f+2     :     0.000003
      f-2     :     0.000011
      f+3     :     0.000250
      f-3     :     0.000244
 14 C s       :    -0.000205  s :    -0.000205
      pz      :     0.002241  p :     0.007076
      px      :     0.003780
      py      :     0.001054
      dz2     :     0.000221  d :     0.000359
      dxz     :    -0.000019
      dyz     :    -0.000008
      dx2y2   :    -0.000013
      dxy     :     0.000179
      f0      :    -0.000000  f :    -0.000002
      f+1     :     0.000002
      f-1     :    -0.000000
      f+2     :     0.000003
      f-2     :    -0.000001
      f+3     :    -0.000005
      f-3     :     0.000001
 15 C s       :    -0.000204  s :    -0.000204
      pz      :    -0.001512  p :    -0.001146
      px      :     0.000508
      py      :    -0.000142
      dz2     :     0.000031  d :     0.000269
      dxz     :     0.000008
      dyz     :     0.000053
      dx2y2   :     0.000096
      dxy     :     0.000082
      f0      :     0.000003  f :     0.000016
      f+1     :     0.000001
      f-1     :     0.000001
      f+2     :     0.000001
      f-2     :     0.000003
      f+3     :     0.000003
      f-3     :     0.000003
 16 C s       :     0.000099  s :     0.000099
      pz      :     0.000283  p :     0.000346
      px      :     0.000010
      py      :     0.000053
      dz2     :    -0.000002  d :    -0.000015
      dxz     :    -0.000001
      dyz     :    -0.000014
      dx2y2   :     0.000003
      dxy     :    -0.000002
      f0      :    -0.000000  f :    -0.000001
      f+1     :    -0.000000
      f-1     :    -0.000000
      f+2     :    -0.000000
      f-2     :    -0.000001
      f+3     :    -0.000000
      f-3     :     0.000000
 17 C s       :    -0.000044  s :    -0.000044
      pz      :    -0.000341  p :    -0.000394
      px      :    -0.000018
      py      :    -0.000035
      dz2     :     0.000001  d :     0.000010
      dxz     :     0.000008
      dyz     :     0.000001
      dx2y2   :    -0.000001
      dxy     :     0.000001
      f0      :     0.000000  f :     0.000001
      f+1     :     0.000000
      f-1     :     0.000000
      f+2     :     0.000000
      f-2     :     0.000000
      f+3     :     0.000000
      f-3     :     0.000000
 18 C s       :     0.000016  s :     0.000016
      pz      :     0.000241  p :     0.000321
      px      :     0.000033
      py      :     0.000047
      dz2     :    -0.000001  d :    -0.000012
      dxz     :    -0.000007
      dyz     :    -0.000006
      dx2y2   :     0.000000
      dxy     :     0.000002
      f0      :    -0.000000  f :    -0.000001
      f+1     :    -0.000000
      f-1     :    -0.000000
      f+2     :    -0.000001
      f-2     :    -0.000000
      f+3     :     0.000000
      f-3     :    -0.000000
 19 C s       :     0.000046  s :     0.000046
      pz      :    -0.000296  p :    -0.000246
      px      :    -0.000032
      py      :     0.000082
      dz2     :     0.000002  d :     0.000012
      dxz     :     0.000002
      dyz     :     0.000010
      dx2y2   :     0.000003
      dxy     :    -0.000004
      f0      :     0.000000  f :     0.000002
      f+1     :     0.000000
      f-1     :     0.000000
      f+2     :     0.000000
      f-2     :     0.000000
      f+3     :    -0.000000
      f-3     :     0.000000
 20 N s       :     0.013582  s :     0.013582
      pz      :     0.018658  p :     0.275760
      px      :     0.127745
      py      :     0.129357
      dz2     :     0.000138  d :    -0.000740
      dxz     :    -0.000196
      dyz     :    -0.000202
      dx2y2   :     0.000013
      dxy     :    -0.000493
      f0      :    -0.000051  f :    -0.000444
      f+1     :    -0.000066
      f-1     :    -0.000067
      f+2     :    -0.000010
      f-2     :    -0.000073
      f+3     :    -0.000088
      f-3     :    -0.000089
 21 C s       :    -0.002763  s :    -0.002763
      pz      :    -0.002957  p :     0.014237
      px      :     0.009956
      py      :     0.007238
      dz2     :     0.000255  d :     0.008999
      dxz     :     0.002940
      dyz     :     0.001178
      dx2y2   :     0.004717
      dxy     :    -0.000090
      f0      :     0.000023  f :     0.000459
      f+1     :     0.000102
      f-1     :     0.000058
      f+2     :     0.000212
      f-2     :    -0.000027
      f+3     :     0.000065
      f-3     :     0.000026
 22 C s       :     0.014608  s :     0.014608
      pz      :     0.000643  p :     0.102352
      px      :     0.049854
      py      :     0.051855
      dz2     :     0.000144  d :     0.001863
      dxz     :    -0.000840
      dyz     :    -0.000402
      dx2y2   :     0.003135
      dxy     :    -0.000175
      f0      :    -0.000032  f :    -0.000181
      f+1     :    -0.000012
      f-1     :    -0.000030
      f+2     :     0.000065
      f-2     :    -0.000053
      f+3     :    -0.000073
      f-3     :    -0.000045
 23 S s       :     0.007693  s :     0.007693
      pz      :     0.011256  p :     0.286349
      px      :     0.132329
      py      :     0.142764
      dz2     :     0.001017  d :     0.001684
      dxz     :    -0.000709
      dyz     :    -0.000799
      dx2y2   :     0.001180
      dxy     :     0.000994
      f0      :     0.000008  f :    -0.000439
      f+1     :    -0.000050
      f-1     :    -0.000056
      f+2     :     0.000015
      f-2     :    -0.000212
      f+3     :    -0.000068
      f-3     :    -0.000076
 24 C s       :     0.014445  s :     0.014445
      pz      :     0.000229  p :     0.102123
      px      :     0.049138
      py      :     0.052756
      dz2     :     0.000174  d :     0.001866
      dxz     :    -0.000305
      dyz     :    -0.000783
      dx2y2   :     0.003010
      dxy     :    -0.000231
      f0      :    -0.000030  f :    -0.000181
      f+1     :    -0.000025
      f-1     :    -0.000012
      f+2     :     0.000057
      f-2     :    -0.000054
      f+3     :    -0.000041
      f-3     :    -0.000075
 25 C s       :    -0.002594  s :    -0.002594
      pz      :    -0.002830  p :     0.013920
      px      :     0.004584
      py      :     0.012166
      dz2     :     0.000204  d :     0.009019
      dxz     :     0.000870
      dyz     :     0.002974
      dx2y2   :     0.004991
      dxy     :    -0.000020
      f0      :     0.000018  f :     0.000460
      f+1     :     0.000052
      f-1     :     0.000093
      f+2     :     0.000243
      f-2     :    -0.000023
      f+3     :     0.000030
      f-3     :     0.000047
 26 N s       :    -0.000001  s :    -0.000001
      pz      :    -0.000005  p :    -0.000007
      px      :    -0.000001
      py      :    -0.000001
      dz2     :     0.000000  d :     0.000004
      dxz     :     0.000002
      dyz     :     0.000002
      dx2y2   :     0.000000
      dxy     :     0.000000
      f0      :     0.000000  f :     0.000000
      f+1     :     0.000000
      f-1     :     0.000000
      f+2     :    -0.000000
      f-2     :     0.000000
      f+3     :     0.000000
      f-3     :     0.000000
 27 C s       :    -0.000001  s :    -0.000001
      pz      :     0.000002  p :    -0.000005
      px      :    -0.000002
      py      :    -0.000005
      dz2     :    -0.000000  d :    -0.000000
      dxz     :     0.000000
      dyz     :    -0.000000
      dx2y2   :     0.000000
      dxy     :    -0.000000
      f0      :     0.000000  f :     0.000000
      f+1     :     0.000000
      f-1     :     0.000000
      f+2     :     0.000000
      f-2     :     0.000000
      f+3     :     0.000000
      f-3     :     0.000000
 28 C s       :    -0.000000  s :    -0.000000
      pz      :     0.000000  p :     0.000000
      px      :     0.000001
      py      :    -0.000001
      dz2     :     0.000000  d :     0.000000
      dxz     :     0.000000
      dyz     :     0.000000
      dx2y2   :    -0.000000
      dxy     :     0.000000
      f0      :     0.000000  f :     0.000000
      f+1     :     0.000000
      f-1     :    -0.000000
      f+2     :    -0.000000
      f-2     :     0.000000
      f+3     :    -0.000000
      f-3     :    -0.000000
 29 S s       :     0.000000  s :     0.000000
      pz      :     0.000000  p :     0.000002
      px      :     0.000002
      py      :    -0.000000
      dz2     :     0.000000  d :     0.000000
      dxz     :     0.000000
      dyz     :     0.000000
      dx2y2   :     0.000000
      dxy     :     0.000000
      f0      :     0.000000  f :     0.000000
      f+1     :     0.000000
      f-1     :     0.000000
      f+2     :    -0.000000
      f-2     :     0.000000
      f+3     :     0.000000
      f-3     :    -0.000000
 30 C s       :     0.000001  s :     0.000001
      pz      :    -0.000000  p :     0.000001
      px      :     0.000001
      py      :    -0.000000
      dz2     :     0.000000  d :     0.000000
      dxz     :     0.000000
      dyz     :     0.000000
      dx2y2   :    -0.000000
      dxy     :     0.000000
      f0      :     0.000000  f :     0.000000
      f+1     :     0.000000
      f-1     :    -0.000000
      f+2     :    -0.000000
      f-2     :     0.000000
      f+3     :     0.000000
      f-3     :    -0.000000
 31 C s       :     0.000000  s :     0.000000
      pz      :     0.000003  p :     0.000011
      px      :     0.000000
      py      :     0.000008
      dz2     :    -0.000000  d :    -0.000000
      dxz     :     0.000000
      dyz     :    -0.000000
      dx2y2   :     0.000000
      dxy     :    -0.000000
      f0      :     0.000000  f :     0.000000
      f+1     :     0.000000
      f-1     :     0.000000
      f+2     :     0.000000
      f-2     :     0.000000
      f+3     :     0.000000
      f-3     :     0.000000
 32 C s       :    -0.004532  s :    -0.004532
      pz      :    -0.000887  p :     0.019445
      px      :     0.010416
      py      :     0.009916
      dz2     :    -0.000057  d :     0.000884
      dxz     :     0.000144
      dyz     :     0.000770
      dx2y2   :     0.000154
      dxy     :    -0.000128
      f0      :    -0.000011  f :     0.000069
      f+1     :    -0.000015
      f-1     :     0.000004
      f+2     :     0.000111
      f-2     :    -0.000018
      f+3     :     0.000012
      f-3     :    -0.000013
 33 C s       :     0.003632  s :     0.003632
      pz      :    -0.000076  p :     0.011553
      px      :     0.005882
      py      :     0.005747
      dz2     :     0.000198  d :     0.002530
      dxz     :     0.000667
      dyz     :     0.000145
      dx2y2   :     0.001523
      dxy     :    -0.000002
      f0      :     0.000009  f :     0.000119
      f+1     :     0.000009
      f-1     :     0.000018
      f+2     :     0.000000
      f-2     :    -0.000009
      f+3     :     0.000043
      f-3     :     0.000050
 34 C s       :     0.005135  s :     0.005135
      pz      :     0.005541  p :     0.082129
      px      :     0.038267
      py      :     0.038322
      dz2     :     0.000116  d :    -0.000196
      dxz     :    -0.000150
      dyz     :    -0.000088
      dx2y2   :     0.000139
      dxy     :    -0.000213
      f0      :    -0.000021  f :    -0.000178
      f+1     :    -0.000012
      f-1     :    -0.000037
      f+2     :    -0.000028
      f-2     :    -0.000036
      f+3     :    -0.000030
      f-3     :    -0.000014
 35 C s       :    -0.009274  s :    -0.009274
      pz      :    -0.006979  p :    -0.047587
      px      :    -0.020441
      py      :    -0.020168
      dz2     :    -0.000080  d :     0.003264
      dxz     :     0.001686
      dyz     :     0.001396
      dx2y2   :     0.000131
      dxy     :     0.000131
      f0      :     0.000018  f :     0.000407
      f+1     :     0.000065
      f-1     :     0.000028
      f+2     :     0.000241
      f-2     :     0.000016
      f+3     :     0.000014
      f-3     :     0.000024
 36 C s       :    -0.009245  s :    -0.009245
      pz      :    -0.006819  p :    -0.047566
      px      :    -0.019481
      py      :    -0.021267
      dz2     :    -0.000105  d :     0.003261
      dxz     :     0.001348
      dyz     :     0.001707
      dx2y2   :     0.000177
      dxy     :     0.000133
      f0      :     0.000018  f :     0.000407
      f+1     :     0.000029
      f-1     :     0.000059
      f+2     :     0.000244
      f-2     :     0.000017
      f+3     :     0.000026
      f-3     :     0.000014
 37 C s       :     0.005106  s :     0.005106
      pz      :     0.005216  p :     0.082081
      px      :     0.036553
      py      :     0.040312
      dz2     :     0.000098  d :    -0.000200
      dxz     :    -0.000067
      dyz     :    -0.000140
      dx2y2   :     0.000128
      dxy     :    -0.000219
      f0      :    -0.000021  f :    -0.000178
      f+1     :    -0.000037
      f-1     :    -0.000014
      f+2     :    -0.000028
      f-2     :    -0.000036
      f+3     :    -0.000009
      f-3     :    -0.000032
 38 C s       :     0.003713  s :     0.003713
      pz      :    -0.000070  p :     0.011273
      px      :     0.005075
      py      :     0.006268
      dz2     :     0.000198  d :     0.002534
      dxz     :     0.000121
      dyz     :     0.000598
      dx2y2   :     0.001596
      dxy     :     0.000022
      f0      :     0.000008  f :     0.000120
      f+1     :     0.000016
      f-1     :     0.000011
      f+2     :     0.000001
      f-2     :    -0.000008
      f+3     :     0.000057
      f-3     :     0.000036
 39 C s       :    -0.004596  s :    -0.004596
      pz      :    -0.001379  p :     0.019782
      px      :     0.009964
      py      :     0.011197
      dz2     :    -0.000070  d :     0.000854
      dxz     :     0.000712
      dyz     :     0.000228
      dx2y2   :     0.000123
      dxy     :    -0.000138
      f0      :    -0.000012  f :     0.000068
      f+1     :     0.000004
      f-1     :    -0.000017
      f+2     :     0.000119
      f-2     :    -0.000018
      f+3     :    -0.000013
      f-3     :     0.000006
 40 C s       :    -0.000001  s :    -0.000001
      pz      :     0.000000  p :    -0.000001
      px      :    -0.000001
      py      :    -0.000001
      dz2     :     0.000000  d :     0.000000
      dxz     :     0.000000
      dyz     :     0.000000
      dx2y2   :    -0.000000
      dxy     :     0.000000
      f0      :     0.000000  f :     0.000000
      f+1     :     0.000000
      f-1     :     0.000000
      f+2     :     0.000000
      f-2     :     0.000000
      f+3     :     0.000000
      f-3     :     0.000000
 41 C s       :     0.000000  s :     0.000000
      pz      :     0.000001  p :     0.000002
      px      :     0.000001
      py      :     0.000000
      dz2     :     0.000000  d :    -0.000000
      dxz     :     0.000000
      dyz     :     0.000000
      dx2y2   :    -0.000000
      dxy     :    -0.000000
      f0      :    -0.000000  f :    -0.000000
      f+1     :    -0.000000
      f-1     :     0.000000
      f+2     :    -0.000000
      f-2     :    -0.000000
      f+3     :    -0.000000
      f-3     :    -0.000000
 42 C s       :    -0.000001  s :    -0.000001
      pz      :    -0.000001  p :    -0.000002
      px      :    -0.000001
      py      :     0.000000
      dz2     :    -0.000000  d :     0.000000
      dxz     :     0.000000
      dyz     :     0.000000
      dx2y2   :     0.000000
      dxy     :     0.000000
      f0      :     0.000000  f :     0.000000
      f+1     :     0.000000
      f-1     :     0.000000
      f+2     :     0.000000
      f-2     :     0.000000
      f+3     :     0.000000
      f-3     :     0.000000
 43 C s       :     0.000001  s :     0.000001
      pz      :    -0.000005  p :    -0.000004
      px      :     0.000002
      py      :    -0.000001
      dz2     :    -0.000000  d :     0.000000
      dxz     :     0.000000
      dyz     :     0.000000
      dx2y2   :    -0.000000
      dxy     :    -0.000000
      f0      :     0.000000  f :     0.000000
      f+1     :     0.000000
      f-1     :     0.000000
      f+2     :    -0.000000
      f-2     :    -0.000000
      f+3     :     0.000000
      f-3     :    -0.000000
 44 C s       :     0.000001  s :     0.000001
      pz      :     0.000008  p :     0.000009
      px      :     0.000003
      py      :    -0.000002
      dz2     :    -0.000000  d :     0.000000
      dxz     :     0.000000
      dyz     :     0.000000
      dx2y2   :    -0.000000
      dxy     :     0.000000
      f0      :     0.000000  f :    -0.000000
      f+1     :    -0.000000
      f-1     :    -0.000000
      f+2     :    -0.000000
      f-2     :    -0.000000
      f+3     :    -0.000000
      f-3     :    -0.000000
 45 C s       :     0.000000  s :     0.000000
      pz      :    -0.000001  p :    -0.000002
      px      :    -0.000001
      py      :    -0.000001
      dz2     :    -0.000000  d :    -0.000000
      dxz     :     0.000000
      dyz     :     0.000000
      dx2y2   :     0.000000
      dxy     :     0.000000
      f0      :     0.000000  f :     0.000000
      f+1     :    -0.000000
      f-1     :     0.000000
      f+2     :    -0.000000
      f-2     :     0.000000
      f+3     :     0.000000
      f-3     :     0.000000
 46 C s       :    -0.000000  s :    -0.000000
      pz      :     0.000001  p :     0.000002
      px      :     0.000000
      py      :     0.000001
      dz2     :     0.000000  d :    -0.000000
      dxz     :    -0.000000
      dyz     :    -0.000000
      dx2y2   :    -0.000000
      dxy     :    -0.000000
      f0      :    -0.000000  f :    -0.000000
      f+1     :    -0.000000
      f-1     :    -0.000000
      f+2     :    -0.000000
      f-2     :    -0.000000
      f+3     :    -0.000000
      f-3     :    -0.000000
 47 C s       :    -0.000000  s :    -0.000000
      pz      :    -0.000000  p :    -0.000001
      px      :    -0.000001
      py      :    -0.000000
      dz2     :    -0.000000  d :     0.000000
      dxz     :    -0.000000
      dyz     :     0.000000
      dx2y2   :    -0.000000
      dxy     :     0.000000
      f0      :     0.000000  f :     0.000000
      f+1     :     0.000000
      f-1     :    -0.000000
      f+2     :     0.000000
      f-2     :     0.000000
      f+3     :     0.000000
      f-3     :     0.000000
 48 H s       :    -0.000002  s :    -0.000002
      pz      :     0.000000  p :     0.000000
      px      :    -0.000000
      py      :     0.000000
 49 H s       :     0.000001  s :     0.000001
      pz      :     0.000000  p :    -0.000000
      px      :     0.000000
      py      :    -0.000000
 50 H s       :     0.000002  s :     0.000002
      pz      :     0.000000  p :    -0.000000
      px      :    -0.000000
      py      :    -0.000000
 51 H s       :    -0.000003  s :    -0.000003
      pz      :     0.000000  p :     0.000000
      px      :    -0.000000
      py      :     0.000000
 52 H s       :    -0.000000  s :    -0.000000
      pz      :     0.000000  p :     0.000000
      px      :    -0.000000
      py      :     0.000000
 53 H s       :    -0.000609  s :    -0.000609
      pz      :     0.000011  p :     0.000025
      px      :     0.000006
      py      :     0.000008
 54 H s       :    -0.000515  s :    -0.000515
      pz      :     0.000010  p :     0.000020
      px      :     0.000005
      py      :     0.000005
 55 H s       :     0.000509  s :     0.000509
      pz      :    -0.000008  p :    -0.000010
      px      :    -0.000005
      py      :     0.000003
 56 H s       :     0.000006  s :     0.000006
      pz      :     0.000002  p :     0.000002
      px      :     0.000000
      py      :     0.000000
 57 H s       :     0.000019  s :     0.000019
      pz      :    -0.000002  p :    -0.000002
      px      :    -0.000000
      py      :    -0.000000
 58 H s       :     0.000016  s :     0.000016
      pz      :    -0.000001  p :    -0.000002
      px      :    -0.000000
      py      :    -0.000000
 59 H s       :    -0.001663  s :    -0.001663
      pz      :    -0.000013  p :     0.000100
      px      :     0.000049
      py      :     0.000063
 60 H s       :    -0.000660  s :    -0.000660
      pz      :     0.000005  p :     0.000081
      px      :     0.000041
      py      :     0.000036
 61 H s       :    -0.004378  s :    -0.004378
      pz      :     0.000043  p :     0.000481
      px      :     0.000217
      py      :     0.000221
 62 H s       :     0.001262  s :     0.001262
      pz      :    -0.000024  p :    -0.000267
      px      :    -0.000123
      py      :    -0.000121
 63 H s       :     0.001261  s :     0.001261
      pz      :    -0.000024  p :    -0.000268
      px      :    -0.000115
      py      :    -0.000129
 64 H s       :    -0.004378  s :    -0.004378
      pz      :     0.000040  p :     0.000481
      px      :     0.000212
      py      :     0.000229
 65 H s       :    -0.000642  s :    -0.000642
      pz      :     0.000005  p :     0.000080
      px      :     0.000035
      py      :     0.000039
 66 H s       :    -0.001698  s :    -0.001698
      pz      :    -0.000013  p :     0.000100
      px      :     0.000062
      py      :     0.000051
 67 H s       :     0.000000  s :     0.000000
      pz      :     0.000000  p :    -0.000000
      px      :    -0.000000
      py      :    -0.000000
 68 H s       :    -0.000000  s :    -0.000000
      pz      :     0.000000  p :     0.000000
      px      :     0.000000
      py      :     0.000000
 69 H s       :     0.000000  s :     0.000000
      pz      :    -0.000000  p :    -0.000000
      px      :    -0.000000
      py      :    -0.000000
 70 H s       :    -0.000002  s :    -0.000002
      pz      :     0.000000  p :     0.000000
      px      :     0.000000
      py      :    -0.000000
 71 H s       :     0.000002  s :     0.000002
      pz      :     0.000000  p :     0.000000
      px      :     0.000000
      py      :     0.000000
 72 H s       :     0.000000  s :     0.000000
      pz      :    -0.000000  p :    -0.000000
      px      :    -0.000000
      py      :    -0.000000
 73 H s       :    -0.000000  s :    -0.000000
      pz      :    -0.000000  p :     0.000000
      px      :     0.000000
      py      :     0.000000
 74 H s       :    -0.000000  s :    -0.000000
      pz      :    -0.000000  p :    -0.000000
      px      :    -0.000000
      py      :    -0.000000


                     *******************************
                     * LOEWDIN POPULATION ANALYSIS *
                     *******************************

-------------------------------------------
LOEWDIN ATOMIC CHARGES AND SPIN POPULATIONS
-------------------------------------------
   0 C :   -0.178712    0.000046
   1 C :   -0.097589    0.000013
   2 C :   -0.134401    0.000001
   3 C :   -0.382274    0.000001
   4 C :   -0.137520    0.000000
   5 C :   -0.100348    0.000017
   6 S :    0.395672    0.000001
   7 N :    0.331084    0.000463
   8 C :   -0.112105    0.000895
   9 C :   -0.068064    0.000178
  10 C :   -0.081704    0.000403
  11 C :   -0.111083   -0.000109
  12 C :   -0.067763    0.006134
  13 C :   -0.196436    0.012927
  14 C :   -0.115182    0.006041
  15 C :   -0.098336   -0.000082
  16 C :   -0.103122    0.000172
  17 C :   -0.075179   -0.000234
  18 C :   -0.177330    0.000124
  19 C :   -0.067682   -0.000175
  20 N :    0.363553    0.222838
  21 C :   -0.127065    0.053751
  22 C :   -0.316235    0.094699
  23 S :    0.898091    0.271509
  24 C :   -0.316310    0.094571
  25 C :   -0.127312    0.053675
  26 N :    0.280053    0.000013
  27 C :   -0.161276    0.000004
  28 C :   -0.330776    0.000001
  29 S :    0.692976    0.000001
  30 C :   -0.331392    0.000002
  31 C :   -0.160400    0.000005
  32 C :   -0.083080    0.022214
  33 C :   -0.093669    0.021328
  34 C :   -0.097121    0.062173
  35 C :   -0.123450   -0.013905
  36 C :   -0.123380   -0.013940
  37 C :   -0.097258    0.062101
  38 C :   -0.093947    0.021143
  39 C :   -0.083498    0.022336
  40 C :   -0.139009   -0.000001
  41 C :   -0.149783    0.000001
  42 C :   -0.145194   -0.000001
  43 C :   -0.125777    0.000002
  44 C :   -0.127082    0.000003
  45 C :   -0.144602   -0.000000
  46 C :   -0.149991    0.000001
  47 C :   -0.139217   -0.000001
  48 H :    0.158141   -0.000000
  49 H :    0.153500    0.000000
  50 H :    0.149582    0.000001
  51 H :    0.156474   -0.000000
  52 H :    0.048625    0.000000
  53 H :    0.161037   -0.000199
  54 H :    0.158920   -0.000198
  55 H :    0.160786    0.000277
  56 H :    0.157577    0.000007
  57 H :    0.162433   -0.000000
  58 H :    0.159940    0.000006
  59 H :    0.172536   -0.000222
  60 H :    0.161837   -0.000023
  61 H :    0.161663   -0.000096
  62 H :    0.160387   -0.000275
  63 H :    0.160397   -0.000276
  64 H :    0.161624   -0.000095
  65 H :    0.161691   -0.000022
  66 H :    0.172045   -0.000221
  67 H :    0.150538    0.000000
  68 H :    0.147014   -0.000000
  69 H :    0.145170    0.000000
  70 H :    0.152936    0.000000
  71 H :    0.152307    0.000000
  72 H :    0.145494    0.000000
  73 H :    0.147060    0.000000
  74 H :    0.150515    0.000000

----------------------------------------------------
LOEWDIN REDUCED ORBITAL CHARGES AND SPIN POPULATIONS
----------------------------------------------------
CHARGE
  0 C s       :     2.689186  s :     2.689186
      pz      :     1.067530  p :     2.830693
      px      :     0.845510
      py      :     0.917653
      dz2     :     0.146145  d :     0.583148
      dxz     :     0.191906
      dyz     :     0.081137
      dx2y2   :     0.095634
      dxy     :     0.068327
      f0      :     0.018911  f :     0.075685
      f+1     :     0.011057
      f-1     :     0.005790
      f+2     :     0.015590
      f-2     :     0.007639
      f+3     :     0.008475
      f-3     :     0.008223
  1 C s       :     2.752887  s :     2.752887
      pz      :     0.990624  p :     2.912044
      px      :     1.043597
      py      :     0.877823
      dz2     :     0.081578  d :     0.387855
      dxz     :     0.142815
      dyz     :     0.033618
      dx2y2   :     0.055743
      dxy     :     0.074100
      f0      :     0.009350  f :     0.044803
      f+1     :     0.007454
      f-1     :     0.004605
      f+2     :     0.008606
      f-2     :     0.003901
      f+3     :     0.004971
      f-3     :     0.005917
  2 C s       :     2.756374  s :     2.756374
      pz      :     0.998055  p :     2.950594
      px      :     1.053118
      py      :     0.899420
      dz2     :     0.083030  d :     0.383163
      dxz     :     0.146916
      dyz     :     0.031860
      dx2y2   :     0.056230
      dxy     :     0.065127
      f0      :     0.009595  f :     0.044271
      f+1     :     0.007256
      f-1     :     0.004398
      f+2     :     0.008726
      f-2     :     0.003360
      f+3     :     0.005077
      f-3     :     0.005859
  3 C s       :     2.769902  s :     2.769902
      pz      :     1.079504  p :     2.990465
      px      :     1.029557
      py      :     0.881403
      dz2     :     0.147866  d :     0.565155
      dxz     :     0.140547
      dyz     :     0.075536
      dx2y2   :     0.094880
      dxy     :     0.106326
      f0      :     0.013340  f :     0.056752
      f+1     :     0.009013
      f-1     :     0.006069
      f+2     :     0.010777
      f-2     :     0.007323
      f+3     :     0.004645
      f-3     :     0.005585
  4 C s       :     2.756844  s :     2.756844
      pz      :     0.994875  p :     2.951924
      px      :     1.050689
      py      :     0.906360
      dz2     :     0.085331  d :     0.384614
      dxz     :     0.145016
      dyz     :     0.030365
      dx2y2   :     0.057777
      dxy     :     0.066125
      f0      :     0.009447  f :     0.044139
      f+1     :     0.007304
      f-1     :     0.004249
      f+2     :     0.008752
      f-2     :     0.003475
      f+3     :     0.005039
      f-3     :     0.005873
  5 C s       :     2.752926  s :     2.752926
      pz      :     0.991813  p :     2.914373
      px      :     1.042487
      py      :     0.880073
      dz2     :     0.081269  d :     0.388296
      dxz     :     0.143315
      dyz     :     0.035468
      dx2y2   :     0.054478
      dxy     :     0.073766
      f0      :     0.009471  f :     0.044753
      f+1     :     0.007409
      f-1     :     0.004807
      f+2     :     0.008500
      f-2     :     0.003718
      f+3     :     0.004973
      f-3     :     0.005875
  6 S s       :     5.324424  s :     5.324424
      pz      :     3.219999  p :    10.056733
      px      :     3.083964
      py      :     3.752770
      dz2     :     0.065534  d :     0.194128
      dxz     :     0.037796
      dyz     :     0.007219
      dx2y2   :     0.048080
      dxy     :     0.035499
      f0      :     0.008168  f :     0.029042
      f+1     :     0.004092
      f-1     :     0.001753
      f+2     :     0.003670
      f-2     :     0.000190
      f+3     :     0.005949
      f-3     :     0.005221
  7 N s       :     2.822940  s :     2.822940
      pz      :     1.305889  p :     3.517463
      px      :     1.097469
      py      :     1.114105
      dz2     :     0.016694  d :     0.306467
      dxz     :     0.039364
      dyz     :     0.045743
      dx2y2   :     0.094127
      dxy     :     0.110540
      f0      :     0.001957  f :     0.022046
      f+1     :     0.002057
      f-1     :     0.001687
      f+2     :     0.001710
      f-2     :     0.003388
      f+3     :     0.002820
      f-3     :     0.008427
  8 C s       :     2.673234  s :     2.673234
      pz      :     0.841957  p :     2.745870
      px      :     0.948831
      py      :     0.955083
      dz2     :     0.041849  d :     0.611534
      dxz     :     0.087804
      dyz     :     0.118122
      dx2y2   :     0.170999
      dxy     :     0.192759
      f0      :     0.005311  f :     0.081467
      f+1     :     0.004668
      f-1     :     0.006258
      f+2     :     0.007900
      f-2     :     0.014502
      f+3     :     0.019746
      f-3     :     0.023082
  9 C s       :     2.671784  s :     2.671784
      pz      :     0.861746  p :     2.819469
      px      :     0.988411
      py      :     0.969313
      dz2     :     0.034363  d :     0.515112
      dxz     :     0.065458
      dyz     :     0.089190
      dx2y2   :     0.170229
      dxy     :     0.155872
      f0      :     0.004095  f :     0.061698
      f+1     :     0.004414
      f-1     :     0.004335
      f+2     :     0.008462
      f-2     :     0.006013
      f+3     :     0.020546
      f-3     :     0.013832
 10 C s       :     2.669689  s :     2.669689
      pz      :     0.882625  p :     2.836994
      px      :     0.996397
      py      :     0.957972
      dz2     :     0.034335  d :     0.513031
      dxz     :     0.073479
      dyz     :     0.078180
      dx2y2   :     0.175371
      dxy     :     0.151666
      f0      :     0.004070  f :     0.061989
      f+1     :     0.004419
      f-1     :     0.004426
      f+2     :     0.007964
      f-2     :     0.006537
      f+3     :     0.020716
      f-3     :     0.013857
 11 C s       :     2.673821  s :     2.673821
      pz      :     0.853048  p :     2.749773
      px      :     0.945546
      py      :     0.951180
      dz2     :     0.041863  d :     0.606822
      dxz     :     0.086604
      dyz     :     0.116385
      dx2y2   :     0.166040
      dxy     :     0.195931
      f0      :     0.005247  f :     0.080667
      f+1     :     0.004715
      f-1     :     0.006239
      f+2     :     0.008535
      f-2     :     0.013624
      f+3     :     0.020048
      f-3     :     0.022259
 12 C s       :     2.742123  s :     2.742123
      pz      :     0.878659  p :     2.895734
      px      :     0.996238
      py      :     1.020837
      dz2     :     0.026043  d :     0.384939
      dxz     :     0.018314
      dyz     :     0.090035
      dx2y2   :     0.142866
      dxy     :     0.107682
      f0      :     0.003344  f :     0.044967
      f+1     :     0.003372
      f-1     :     0.004395
      f+2     :     0.003870
      f-2     :     0.007247
      f+3     :     0.011661
      f-3     :     0.011079
 13 C s       :     2.690211  s :     2.690211
      pz      :     0.954489  p :     2.854170
      px      :     0.947907
      py      :     0.951774
      dz2     :     0.047300  d :     0.578529
      dxz     :     0.076267
      dyz     :     0.079147
      dx2y2   :     0.172145
      dxy     :     0.203669
      f0      :     0.005300  f :     0.073527
      f+1     :     0.005761
      f-1     :     0.005819
      f+2     :     0.008116
      f-2     :     0.007133
      f+3     :     0.020906
      f-3     :     0.020491
 14 C s       :     2.750672  s :     2.750672
      pz      :     0.894348  p :     2.928255
      px      :     1.034693
      py      :     0.999214
      dz2     :     0.026820  d :     0.391490
      dxz     :     0.091550
      dyz     :     0.017643
      dx2y2   :     0.151103
      dxy     :     0.104373
      f0      :     0.003320  f :     0.044766
      f+1     :     0.004528
      f-1     :     0.003293
      f+2     :     0.003435
      f-2     :     0.007406
      f+3     :     0.011543
      f-3     :     0.011242
 15 C s       :     2.747635  s :     2.747635
      pz      :     0.900009  p :     2.935089
      px      :     1.005348
      py      :     1.029732
      dz2     :     0.024569  d :     0.371533
      dxz     :     0.018965
      dyz     :     0.074407
      dx2y2   :     0.142748
      dxy     :     0.110844
      f0      :     0.003296  f :     0.044080
      f+1     :     0.003408
      f-1     :     0.004492
      f+2     :     0.003195
      f-2     :     0.006240
      f+3     :     0.012175
      f-3     :     0.011274
 16 C s       :     2.747349  s :     2.747349
      pz      :     0.906793  p :     2.942072
      px      :     1.006954
      py      :     1.028326
      dz2     :     0.024730  d :     0.369577
      dxz     :     0.017807
      dyz     :     0.071488
      dx2y2   :     0.145935
      dxy     :     0.109618
      f0      :     0.003262  f :     0.044124
      f+1     :     0.003461
      f-1     :     0.004504
      f+2     :     0.003336
      f-2     :     0.005897
      f+3     :     0.012451
      f-3     :     0.011213
 17 C s       :     2.754052  s :     2.754052
      pz      :     0.851968  p :     2.892699
      px      :     1.040238
      py      :     1.000494
      dz2     :     0.027188  d :     0.384568
      dxz     :     0.082235
      dyz     :     0.017090
      dx2y2   :     0.149298
      dxy     :     0.108756
      f0      :     0.003265  f :     0.043859
      f+1     :     0.004459
      f-1     :     0.003240
      f+2     :     0.002935
      f-2     :     0.006906
      f+3     :     0.011773
      f-3     :     0.011282
 18 C s       :     2.689870  s :     2.689870
      pz      :     0.882054  p :     2.817474
      px      :     0.963093
      py      :     0.972328
      dz2     :     0.042484  d :     0.593646
      dxz     :     0.071406
      dyz     :     0.077816
      dx2y2   :     0.207180
      dxy     :     0.194759
      f0      :     0.005207  f :     0.076341
      f+1     :     0.005553
      f-1     :     0.005656
      f+2     :     0.007579
      f-2     :     0.007822
      f+3     :     0.022499
      f-3     :     0.022023
 19 C s       :     2.745324  s :     2.745324
      pz      :     0.875099  p :     2.895792
      px      :     0.990962
      py      :     1.029731
      dz2     :     0.027947  d :     0.382308
      dxz     :     0.019761
      dyz     :     0.081009
      dx2y2   :     0.138312
      dxy     :     0.115280
      f0      :     0.003225  f :     0.044257
      f+1     :     0.003407
      f-1     :     0.004327
      f+2     :     0.003463
      f-2     :     0.006879
      f+3     :     0.011845
      f-3     :     0.011111
 20 N s       :     2.841352  s :     2.841352
      pz      :     1.129830  p :     3.471792
      px      :     1.170638
      py      :     1.171324
      dz2     :     0.079384  d :     0.302999
      dxz     :     0.075961
      dyz     :     0.075753
      dx2y2   :     0.036319
      dxy     :     0.035582
      f0      :     0.005743  f :     0.020305
      f+1     :     0.002497
      f-1     :     0.002420
      f+2     :     0.002285
      f-2     :     0.003736
      f+3     :     0.001807
      f-3     :     0.001817
 21 C s       :     2.688160  s :     2.688160
      pz      :     0.910327  p :     2.769097
      px      :     0.940155
      py      :     0.918616
      dz2     :     0.148137  d :     0.594136
      dxz     :     0.139165
      dyz     :     0.146979
      dx2y2   :     0.085047
      dxy     :     0.074808
      f0      :     0.018613  f :     0.075672
      f+1     :     0.011432
      f-1     :     0.011278
      f+2     :     0.010505
      f-2     :     0.013252
      f+3     :     0.005138
      f-3     :     0.005454
 22 C s       :     2.751674  s :     2.751674
      pz      :     1.015108  p :     2.965468
      px      :     0.972900
      py      :     0.977459
      dz2     :     0.113743  d :     0.543630
      dxz     :     0.142475
      dyz     :     0.131873
      dx2y2   :     0.084441
      dxy     :     0.071097
      f0      :     0.012405  f :     0.055464
      f+1     :     0.007785
      f-1     :     0.007202
      f+2     :     0.006526
      f-2     :     0.010477
      f+3     :     0.005614
      f-3     :     0.005456
 23 S s       :     5.142106  s :     5.142106
      pz      :     2.878942  p :     9.584077
      px      :     3.348790
      py      :     3.356344
      dz2     :     0.084285  d :     0.323409
      dxz     :     0.090543
      dyz     :     0.088530
      dx2y2   :     0.034476
      dxy     :     0.025575
      f0      :     0.009252  f :     0.052318
      f+1     :     0.009536
      f-1     :     0.009143
      f+2     :     0.009124
      f-2     :     0.011291
      f+3     :     0.002012
      f-3     :     0.001960
 24 C s       :     2.751632  s :     2.751632
      pz      :     1.014050  p :     2.965536
      px      :     0.981199
      py      :     0.970287
      dz2     :     0.115585  d :     0.543665
      dxz     :     0.134118
      dyz     :     0.139900
      dx2y2   :     0.083796
      dxy     :     0.070266
      f0      :     0.012582  f :     0.055476
      f+1     :     0.007264
      f-1     :     0.007425
      f+2     :     0.006680
      f-2     :     0.010612
      f+3     :     0.005368
      f-3     :     0.005544
 25 C s       :     2.688128  s :     2.688128
      pz      :     0.915595  p :     2.769147
      px      :     0.919556
      py      :     0.933996
      dz2     :     0.146234  d :     0.594334
      dxz     :     0.149504
      dyz     :     0.138421
      dx2y2   :     0.085475
      dxy     :     0.074700
      f0      :     0.018728  f :     0.075704
      f+1     :     0.011182
      f-1     :     0.010816
      f+2     :     0.010741
      f-2     :     0.013579
      f+3     :     0.005474
      f-3     :     0.005184
 26 N s       :     2.840759  s :     2.840759
      pz      :     1.101491  p :     3.578269
      px      :     1.217075
      py      :     1.259702
      dz2     :     0.074543  d :     0.281217
      dxz     :     0.076721
      dyz     :     0.057511
      dx2y2   :     0.034080
      dxy     :     0.038362
      f0      :     0.004959  f :     0.019701
      f+1     :     0.002423
      f-1     :     0.002486
      f+2     :     0.002187
      f-2     :     0.003523
      f+3     :     0.002018
      f-3     :     0.002104
 27 C s       :     2.690191  s :     2.690191
      pz      :     0.909837  p :     2.784244
      px      :     0.880019
      py      :     0.994389
      dz2     :     0.135942  d :     0.610881
      dxz     :     0.130745
      dyz     :     0.161500
      dx2y2   :     0.098006
      dxy     :     0.084689
      f0      :     0.016395  f :     0.075959
      f+1     :     0.010475
      f-1     :     0.011844
      f+2     :     0.011599
      f-2     :     0.012658
      f+3     :     0.005923
      f-3     :     0.007064
 28 C s       :     2.752072  s :     2.752072
      pz      :     0.997738  p :     2.979464
      px      :     0.976840
      py      :     1.004885
      dz2     :     0.104986  d :     0.543451
      dxz     :     0.100156
      dyz     :     0.156659
      dx2y2   :     0.087203
      dxy     :     0.094447
      f0      :     0.011372  f :     0.055789
      f+1     :     0.006730
      f-1     :     0.007457
      f+2     :     0.006524
      f-2     :     0.011057
      f+3     :     0.005811
      f-3     :     0.006837
 29 S s       :     5.179090  s :     5.179090
      pz      :     2.862618  p :     9.798241
      px      :     3.653937
      py      :     3.281685
      dz2     :     0.074920  d :     0.282626
      dxz     :     0.040711
      dyz     :     0.109534
      dx2y2   :     0.025315
      dxy     :     0.032145
      f0      :     0.007482  f :     0.047068
      f+1     :     0.003267
      f-1     :     0.013978
      f+2     :     0.011147
      f-2     :     0.007221
      f+3     :     0.002242
      f-3     :     0.001730
 30 C s       :     2.752120  s :     2.752120
      pz      :     1.010593  p :     2.979284
      px      :     0.963412
      py      :     1.005278
      dz2     :     0.109814  d :     0.544172
      dxz     :     0.104951
      dyz     :     0.164834
      dx2y2   :     0.079263
      dxy     :     0.085310
      f0      :     0.012295  f :     0.055816
      f+1     :     0.006612
      f-1     :     0.008519
      f+2     :     0.006261
      f-2     :     0.010640
      f+3     :     0.005480
      f-3     :     0.006009
 31 C s       :     2.690152  s :     2.690152
      pz      :     0.903441  p :     2.784421
      px      :     0.887812
      py      :     0.993167
      dz2     :     0.143235  d :     0.609976
      dxz     :     0.131064
      dyz     :     0.168966
      dx2y2   :     0.089218
      dxy     :     0.077493
      f0      :     0.017490  f :     0.075852
      f+1     :     0.010576
      f-1     :     0.013166
      f+2     :     0.011262
      f-2     :     0.011931
      f+3     :     0.005365
      f-3     :     0.006062
 32 C s       :     2.747993  s :     2.747993
      pz      :     1.037271  p :     2.919436
      px      :     0.936102
      py      :     0.946062
      dz2     :     0.125642  d :     0.371929
      dxz     :     0.092024
      dyz     :     0.087820
      dx2y2   :     0.016226
      dxy     :     0.050218
      f0      :     0.011526  f :     0.043721
      f+1     :     0.007286
      f-1     :     0.006832
      f+2     :     0.007023
      f-2     :     0.007517
      f+3     :     0.001896
      f-3     :     0.001639
 33 C s       :     2.758650  s :     2.758650
      pz      :     1.022161  p :     2.904046
      px      :     0.933687
      py      :     0.948198
      dz2     :     0.083310  d :     0.386394
      dxz     :     0.099730
      dyz     :     0.092187
      dx2y2   :     0.058518
      dxy     :     0.052649
      f0      :     0.010680  f :     0.044578
      f+1     :     0.006649
      f-1     :     0.006300
      f+2     :     0.002616
      f-2     :     0.008469
      f+3     :     0.004987
      f-3     :     0.004877
 34 C s       :     2.759194  s :     2.759194
      pz      :     1.012161  p :     2.909616
      px      :     0.952186
      py      :     0.945268
      dz2     :     0.094973  d :     0.383547
      dxz     :     0.075686
      dyz     :     0.089005
      dx2y2   :     0.064839
      dxy     :     0.059044
      f0      :     0.010009  f :     0.044764
      f+1     :     0.005923
      f-1     :     0.005602
      f+2     :     0.004278
      f-2     :     0.008903
      f+3     :     0.004736
      f-3     :     0.005313
 35 C s       :     2.754862  s :     2.754862
      pz      :     1.051536  p :     2.934772
      px      :     0.946283
      py      :     0.936953
      dz2     :     0.140591  d :     0.388841
      dxz     :     0.089231
      dyz     :     0.088801
      dx2y2   :     0.015201
      dxy     :     0.055017
      f0      :     0.011761  f :     0.044975
      f+1     :     0.007754
      f-1     :     0.006718
      f+2     :     0.007259
      f-2     :     0.007661
      f+3     :     0.001943
      f-3     :     0.001878
 36 C s       :     2.754840  s :     2.754840
      pz      :     1.053982  p :     2.934657
      px      :     0.939077
      py      :     0.941598
      dz2     :     0.140715  d :     0.388899
      dxz     :     0.090442
      dyz     :     0.088704
      dx2y2   :     0.014767
      dxy     :     0.054270
      f0      :     0.012034  f :     0.044985
      f+1     :     0.006834
      f-1     :     0.007274
      f+2     :     0.007393
      f-2     :     0.007791
      f+3     :     0.001675
      f-3     :     0.001983
 37 C s       :     2.759151  s :     2.759151
      pz      :     1.014794  p :     2.909762
      px      :     0.949009
      py      :     0.945958
      dz2     :     0.092937  d :     0.383573
      dxz     :     0.094035
      dyz     :     0.076287
      dx2y2   :     0.063061
      dxy     :     0.057253
      f0      :     0.010448  f :     0.044771
      f+1     :     0.005810
      f-1     :     0.005752
      f+2     :     0.003902
      f-2     :     0.008872
      f+3     :     0.005242
      f-3     :     0.004745
 38 C s       :     2.758618  s :     2.758618
      pz      :     1.020397  p :     2.904298
      px      :     0.953567
      py      :     0.930334
      dz2     :     0.085210  d :     0.386448
      dxz     :     0.092408
      dyz     :     0.094689
      dx2y2   :     0.060076
      dxy     :     0.054063
      f0      :     0.010731  f :     0.044583
      f+1     :     0.006151
      f-1     :     0.006231
      f+2     :     0.002886
      f-2     :     0.008673
      f+3     :     0.004890
      f-3     :     0.005021
 39 C s       :     2.748046  s :     2.748046
      pz      :     1.036123  p :     2.919765
      px      :     0.949099
      py      :     0.934544
      dz2     :     0.127659  d :     0.371967
      dxz     :     0.088162
      dyz     :     0.090035
      dx2y2   :     0.015779
      dxy     :     0.050332
      f0      :     0.011732  f :     0.043719
      f+1     :     0.006990
      f-1     :     0.006919
      f+2     :     0.007068
      f-2     :     0.007560
      f+3     :     0.001483
      f-3     :     0.001966
 40 C s       :     2.756633  s :     2.756633
      pz      :     1.058630  p :     2.942049
      px      :     0.917184
      py      :     0.966236
      dz2     :     0.137858  d :     0.395351
      dxz     :     0.088653
      dyz     :     0.094947
      dx2y2   :     0.022732
      dxy     :     0.051160
      f0      :     0.011114  f :     0.044976
      f+1     :     0.005839
      f-1     :     0.008371
      f+2     :     0.007822
      f-2     :     0.007772
      f+3     :     0.003032
      f-3     :     0.001027
 41 C s       :     2.756499  s :     2.756499
      pz      :     1.000124  p :     2.959879
      px      :     0.942852
      py      :     1.016903
      dz2     :     0.092123  d :     0.388494
      dxz     :     0.069031
      dyz     :     0.098839
      dx2y2   :     0.067143
      dxy     :     0.061358
      f0      :     0.009617  f :     0.044911
      f+1     :     0.004799
      f-1     :     0.006847
      f+2     :     0.004501
      f-2     :     0.008566
      f+3     :     0.005262
      f-3     :     0.005319
 42 C s       :     2.756844  s :     2.756844
      pz      :     1.008303  p :     2.946575
      px      :     0.942468
      py      :     0.995805
      dz2     :     0.080841  d :     0.396842
      dxz     :     0.068619
      dyz     :     0.130149
      dx2y2   :     0.065471
      dxy     :     0.051762
      f0      :     0.010448  f :     0.044933
      f+1     :     0.005777
      f-1     :     0.007317
      f+2     :     0.003506
      f-2     :     0.007489
      f+3     :     0.004748
      f-3     :     0.005647
 43 C s       :     2.747245  s :     2.747245
      pz      :     1.044130  p :     2.956030
      px      :     0.947552
      py      :     0.964349
      dz2     :     0.127155  d :     0.378718
      dxz     :     0.082110
      dyz     :     0.098866
      dx2y2   :     0.021022
      dxy     :     0.049566
      f0      :     0.010934  f :     0.043784
      f+1     :     0.005498
      f-1     :     0.008526
      f+2     :     0.007559
      f-2     :     0.007362
      f+3     :     0.002916
      f-3     :     0.000990
 44 C s       :     2.747385  s :     2.747385
      pz      :     1.037270  p :     2.957730
      px      :     0.955973
      py      :     0.964488
      dz2     :     0.126017  d :     0.378208
      dxz     :     0.078065
      dyz     :     0.092054
      dx2y2   :     0.024731
      dxy     :     0.057341
      f0      :     0.009733  f :     0.043759
      f+1     :     0.006118
      f-1     :     0.008017
      f+2     :     0.007615
      f-2     :     0.007622
      f+3     :     0.003213
      f-3     :     0.001441
 45 C s       :     2.756943  s :     2.756943
      pz      :     0.997198  p :     2.945804
      px      :     0.955259
      py      :     0.993347
      dz2     :     0.078958  d :     0.396924
      dxz     :     0.062508
      dyz     :     0.124272
      dx2y2   :     0.074391
      dxy     :     0.056795
      f0      :     0.009796  f :     0.044931
      f+1     :     0.005475
      f-1     :     0.006405
      f+2     :     0.004268
      f-2     :     0.007963
      f+3     :     0.004804
      f-3     :     0.006219
 46 C s       :     2.756480  s :     2.756480
      pz      :     0.997060  p :     2.960315
      px      :     0.946273
      py      :     1.016982
      dz2     :     0.081839  d :     0.388287
      dxz     :     0.079139
      dyz     :     0.096236
      dx2y2   :     0.069002
      dxy     :     0.062071
      f0      :     0.009293  f :     0.044909
      f+1     :     0.005186
      f-1     :     0.006476
      f+2     :     0.004148
      f-2     :     0.008621
      f+3     :     0.005355
      f-3     :     0.005829
 47 C s       :     2.756655  s :     2.756655
      pz      :     1.049782  p :     2.941838
      px      :     0.925031
      py      :     0.967026
      dz2     :     0.134194  d :     0.395729
      dxz     :     0.085916
      dyz     :     0.089127
      dx2y2   :     0.028075
      dxy     :     0.058417
      f0      :     0.009703  f :     0.044995
      f+1     :     0.006557
      f-1     :     0.007854
      f+2     :     0.007897
      f-2     :     0.008104
      f+3     :     0.003400
      f-3     :     0.001481
 48 H s       :     0.783417  s :     0.783417
      pz      :     0.028252  p :     0.058442
      px      :     0.016361
      py      :     0.013829
 49 H s       :     0.787496  s :     0.787496
      pz      :     0.028191  p :     0.059004
      px      :     0.016369
      py      :     0.014445
 50 H s       :     0.791647  s :     0.791647
      pz      :     0.028483  p :     0.058771
      px      :     0.015834
      py      :     0.014454
 51 H s       :     0.785175  s :     0.785175
      pz      :     0.027810  p :     0.058351
      px      :     0.016626
      py      :     0.013915
 52 H s       :     0.877382  s :     0.877382
      pz      :     0.044950  p :     0.073993
      px      :     0.008410
      py      :     0.020632
 53 H s       :     0.779811  s :     0.779811
      pz      :     0.013641  p :     0.059152
      px      :     0.033429
      py      :     0.012082
 54 H s       :     0.781862  s :     0.781862
      pz      :     0.013968  p :     0.059218
      px      :     0.011785
      py      :     0.033465
 55 H s       :     0.778968  s :     0.778968
      pz      :     0.013604  p :     0.060246
      px      :     0.034424
      py      :     0.012219
 56 H s       :     0.782420  s :     0.782420
      pz      :     0.013843  p :     0.060002
      px      :     0.033706
      py      :     0.012454
 57 H s       :     0.778818  s :     0.778818
      pz      :     0.012530  p :     0.058750
      px      :     0.011205
      py      :     0.035015
 58 H s       :     0.781217  s :     0.781217
      pz      :     0.013451  p :     0.058843
      px      :     0.033599
      py      :     0.011793
 59 H s       :     0.763771  s :     0.763771
      pz      :     0.011454  p :     0.063693
      px      :     0.025494
      py      :     0.026745
 60 H s       :     0.779585  s :     0.779585
      pz      :     0.027169  p :     0.058578
      px      :     0.017549
      py      :     0.013860
 61 H s       :     0.779382  s :     0.779382
      pz      :     0.031180  p :     0.058956
      px      :     0.012260
      py      :     0.015516
 62 H s       :     0.780287  s :     0.780287
      pz      :     0.010452  p :     0.059326
      px      :     0.024024
      py      :     0.024851
 63 H s       :     0.780281  s :     0.780281
      pz      :     0.010302  p :     0.059322
      px      :     0.025304
      py      :     0.023716
 64 H s       :     0.779420  s :     0.779420
      pz      :     0.030514  p :     0.058956
      px      :     0.015910
      py      :     0.012532
 65 H s       :     0.779738  s :     0.779738
      pz      :     0.028042  p :     0.058571
      px      :     0.013734
      py      :     0.016795
 66 H s       :     0.764271  s :     0.764271
      pz      :     0.011289  p :     0.063684
      px      :     0.027222
      py      :     0.025173
 67 H s       :     0.790955  s :     0.790955
      pz      :     0.010585  p :     0.058507
      px      :     0.019558
      py      :     0.028364
 68 H s       :     0.794593  s :     0.794593
      pz      :     0.029210  p :     0.058393
      px      :     0.016038
      py      :     0.013145
 69 H s       :     0.797127  s :     0.797127
      pz      :     0.025416  p :     0.057703
      px      :     0.013322
      py      :     0.018965
 70 H s       :     0.785227  s :     0.785227
      pz      :     0.011763  p :     0.061838
      px      :     0.021325
      py      :     0.028750
 71 H s       :     0.785859  s :     0.785859
      pz      :     0.011755  p :     0.061834
      px      :     0.021647
      py      :     0.028432
 72 H s       :     0.796787  s :     0.796787
      pz      :     0.025884  p :     0.057719
      px      :     0.012514
      py      :     0.019320
 73 H s       :     0.794536  s :     0.794536
      pz      :     0.027286  p :     0.058405
      px      :     0.018210
      py      :     0.012909
 74 H s       :     0.790978  s :     0.790978
      pz      :     0.010621  p :     0.058506
      px      :     0.019691
      py      :     0.028194

SPIN
  0 C s       :    -0.000002  s :    -0.000002
      pz      :    -0.000003  p :    -0.000008
      px      :    -0.000011
      py      :     0.000006
      dz2     :     0.000001  d :     0.000048
      dxz     :     0.000045
      dyz     :     0.000001
      dx2y2   :     0.000003
      dxy     :    -0.000001
      f0      :     0.000004  f :     0.000008
      f+1     :     0.000000
      f-1     :     0.000000
      f+2     :     0.000004
      f-2     :     0.000000
      f+3     :     0.000000
      f-3     :     0.000000
  1 C s       :     0.000002  s :     0.000002
      pz      :     0.000002  p :     0.000010
      px      :     0.000003
      py      :     0.000005
      dz2     :    -0.000000  d :     0.000002
      dxz     :    -0.000000
      dyz     :     0.000000
      dx2y2   :     0.000002
      dxy     :    -0.000000
      f0      :    -0.000000  f :    -0.000000
      f+1     :     0.000000
      f-1     :    -0.000000
      f+2     :    -0.000000
      f-2     :    -0.000000
      f+3     :     0.000000
      f-3     :    -0.000000
  2 C s       :     0.000000  s :     0.000000
      pz      :    -0.000000  p :    -0.000001
      px      :     0.000001
      py      :    -0.000001
      dz2     :     0.000000  d :     0.000001
      dxz     :     0.000000
      dyz     :     0.000000
      dx2y2   :     0.000000
      dxy     :     0.000001
      f0      :     0.000000  f :     0.000000
      f+1     :     0.000000
      f-1     :     0.000000
      f+2     :     0.000000
      f-2     :     0.000000
      f+3     :     0.000000
      f-3     :     0.000000
  3 C s       :     0.000000  s :     0.000000
      pz      :     0.000000  p :     0.000002
      px      :     0.000000
      py      :     0.000001
      dz2     :    -0.000000  d :    -0.000000
      dxz     :     0.000000
      dyz     :    -0.000000
      dx2y2   :    -0.000000
      dxy     :    -0.000000
      f0      :     0.000000  f :    -0.000000
      f+1     :    -0.000000
      f-1     :    -0.000000
      f+2     :     0.000000
      f-2     :    -0.000000
      f+3     :    -0.000000
      f-3     :     0.000000
  4 C s       :    -0.000000  s :    -0.000000
      pz      :    -0.000000  p :    -0.000002
      px      :     0.000001
      py      :    -0.000002
      dz2     :     0.000000  d :     0.000002
      dxz     :     0.000001
      dyz     :     0.000000
      dx2y2   :     0.000000
      dxy     :     0.000000
      f0      :     0.000000  f :     0.000000
      f+1     :     0.000000
      f-1     :     0.000000
      f+2     :     0.000000
      f-2     :     0.000000
      f+3     :     0.000000
      f-3     :     0.000000
  5 C s       :     0.000004  s :     0.000004
      pz      :     0.000006  p :     0.000015
      px      :     0.000005
      py      :     0.000003
      dz2     :     0.000000  d :    -0.000001
      dxz     :    -0.000001
      dyz     :    -0.000000
      dx2y2   :    -0.000000
      dxy     :    -0.000000
      f0      :    -0.000000  f :    -0.000000
      f+1     :     0.000000
      f-1     :    -0.000000
      f+2     :    -0.000000
      f-2     :    -0.000000
      f+3     :    -0.000000
      f-3     :     0.000000
  6 S s       :     0.000000  s :     0.000000
      pz      :     0.000000  p :     0.000000
      px      :    -0.000000
      py      :     0.000000
      dz2     :    -0.000000  d :     0.000000
      dxz     :     0.000000
      dyz     :     0.000000
      dx2y2   :     0.000000
      dxy     :     0.000000
      f0      :     0.000000  f :     0.000000
      f+1     :     0.000000
      f-1     :     0.000000
      f+2     :     0.000000
      f-2     :    -0.000000
      f+3     :     0.000000
      f-3     :     0.000000
  7 N s       :     0.000009  s :     0.000009
      pz      :     0.000400  p :     0.000412
      px      :     0.000007
      py      :     0.000005
      dz2     :    -0.000001  d :     0.000038
      dxz     :     0.000007
      dyz     :     0.000033
      dx2y2   :    -0.000001
      dxy     :    -0.000000
      f0      :     0.000002  f :     0.000004
      f+1     :    -0.000000
      f-1     :    -0.000000
      f+2     :     0.000000
      f-2     :     0.000002
      f+3     :    -0.000000
      f-3     :    -0.000000
  8 C s       :     0.000023  s :     0.000023
      pz      :     0.000953  p :     0.000999
      px      :     0.000029
      py      :     0.000017
      dz2     :    -0.000005  d :    -0.000129
      dxz     :    -0.000059
      dyz     :    -0.000092
      dx2y2   :     0.000048
      dxy     :    -0.000021
      f0      :    -0.000003  f :     0.000002
      f+1     :    -0.000001
      f-1     :    -0.000001
      f+2     :    -0.000014
      f-2     :     0.000007
      f+3     :     0.000006
      f-3     :     0.000009
  9 C s       :     0.000034  s :     0.000034
      pz      :    -0.000746  p :    -0.000505
      px      :     0.000031
      py      :     0.000211
      dz2     :     0.000016  d :     0.000582
      dxz     :     0.000181
      dyz     :     0.000106
      dx2y2   :     0.000254
      dxy     :     0.000026
      f0      :     0.000007  f :     0.000067
      f+1     :     0.000002
      f-1     :     0.000002
      f+2     :     0.000005
      f-2     :     0.000024
      f+3     :     0.000019
      f-3     :     0.000007
 10 C s       :     0.000040  s :     0.000040
      pz      :     0.000254  p :     0.000494
      px      :     0.000039
      py      :     0.000201
      dz2     :     0.000005  d :    -0.000118
      dxz     :    -0.000020
      dyz     :    -0.000091
      dx2y2   :    -0.000008
      dxy     :    -0.000004
      f0      :    -0.000002  f :    -0.000013
      f+1     :    -0.000000
      f-1     :    -0.000000
      f+2     :    -0.000008
      f-2     :    -0.000002
      f+3     :     0.000001
      f-3     :    -0.000001
 11 C s       :    -0.000007  s :    -0.000007
      pz      :    -0.000237  p :    -0.000227
      px      :     0.000017
      py      :    -0.000007
      dz2     :     0.000002  d :     0.000108
      dxz     :     0.000052
      dyz     :     0.000031
      dx2y2   :     0.000006
      dxy     :     0.000017
      f0      :     0.000001  f :     0.000017
      f+1     :     0.000000
      f-1     :     0.000000
      f+2     :     0.000002
      f-2     :     0.000009
      f+3     :     0.000002
      f-3     :     0.000002
 12 C s       :     0.000780  s :     0.000780
      pz      :     0.001899  p :     0.005562
      px      :     0.000181
      py      :     0.003482
      dz2     :     0.000349  d :    -0.000121
      dxz     :    -0.000023
      dyz     :    -0.000171
      dx2y2   :    -0.000276
      dxy     :     0.000001
      f0      :    -0.000012  f :    -0.000088
      f+1     :     0.000001
      f-1     :    -0.000009
      f+2     :    -0.000011
      f-2     :    -0.000006
      f+3     :    -0.000006
      f-3     :    -0.000043
 13 C s       :    -0.001142  s :    -0.001142
      pz      :    -0.001636  p :    -0.007214
      px      :    -0.002824
      py      :    -0.002754
      dz2     :     0.000348  d :     0.017900
      dxz     :     0.000414
      dyz     :     0.000381
      dx2y2   :     0.015966
      dxy     :     0.000791
      f0      :     0.000044  f :     0.003384
      f+1     :     0.000111
      f-1     :     0.000115
      f+2     :     0.000026
      f-2     :     0.000101
      f+3     :     0.001519
      f-3     :     0.001468
 14 C s       :     0.000752  s :     0.000752
      pz      :     0.001653  p :     0.005526
      px      :     0.003684
      py      :     0.000189
      dz2     :     0.000323  d :    -0.000149
      dxz     :    -0.000191
      dyz     :    -0.000025
      dx2y2   :    -0.000288
      dxy     :     0.000032
      f0      :    -0.000011  f :    -0.000088
      f+1     :    -0.000010
      f-1     :     0.000001
      f+2     :    -0.000010
      f-2     :    -0.000010
      f+3     :    -0.000042
      f-3     :    -0.000006
 15 C s       :     0.000026  s :     0.000026
      pz      :    -0.001096  p :    -0.000783
      px      :     0.000279
      py      :     0.000034
      dz2     :     0.000026  d :     0.000608
      dxz     :     0.000057
      dyz     :     0.000177
      dx2y2   :     0.000336
      dxy     :     0.000013
      f0      :     0.000008  f :     0.000066
      f+1     :     0.000003
      f-1     :     0.000002
      f+2     :     0.000006
      f-2     :     0.000022
      f+3     :     0.000011
      f-3     :     0.000014
 16 C s       :     0.000009  s :     0.000009
      pz      :     0.000198  p :     0.000221
      px      :     0.000007
      py      :     0.000016
      dz2     :    -0.000001  d :    -0.000051
      dxz     :    -0.000007
      dyz     :    -0.000043
      dx2y2   :    -0.000001
      dxy     :     0.000001
      f0      :    -0.000001  f :    -0.000008
      f+1     :    -0.000000
      f-1     :    -0.000000
      f+2     :    -0.000002
      f-2     :    -0.000004
      f+3     :    -0.000000
      f-3     :    -0.000000
 17 C s       :    -0.000008  s :    -0.000008
      pz      :    -0.000257  p :    -0.000271
      px      :    -0.000008
      py      :    -0.000006
      dz2     :     0.000001  d :     0.000039
      dxz     :     0.000032
      dyz     :     0.000003
      dx2y2   :     0.000002
      dxy     :     0.000002
      f0      :     0.000001  f :     0.000006
      f+1     :     0.000000
      f-1     :     0.000000
      f+2     :     0.000001
      f-2     :     0.000003
      f+3     :     0.000000
      f-3     :     0.000000
 18 C s       :     0.000007  s :     0.000007
      pz      :     0.000163  p :     0.000178
      px      :     0.000007
      py      :     0.000008
      dz2     :    -0.000001  d :    -0.000054
      dxz     :    -0.000024
      dyz     :    -0.000025
      dx2y2   :    -0.000003
      dxy     :    -0.000002
      f0      :    -0.000001  f :    -0.000007
      f+1     :    -0.000000
      f-1     :    -0.000000
      f+2     :    -0.000004
      f-2     :    -0.000001
      f+3     :    -0.000000
      f-3     :    -0.000000
 19 C s       :    -0.000009  s :    -0.000009
      pz      :    -0.000219  p :    -0.000240
      px      :    -0.000009
      py      :    -0.000011
      dz2     :     0.000002  d :     0.000064
      dxz     :     0.000009
      dyz     :     0.000031
      dx2y2   :     0.000017
      dxy     :     0.000005
      f0      :     0.000001  f :     0.000009
      f+1     :     0.000000
      f-1     :     0.000000
      f+2     :     0.000001
      f-2     :     0.000003
      f+3     :     0.000002
      f-3     :     0.000001
 20 N s       :     0.006962  s :     0.006962
      pz      :     0.009412  p :     0.220149
      px      :     0.104343
      py      :     0.106394
      dz2     :    -0.000704  d :    -0.004491
      dxz     :    -0.001588
      dyz     :    -0.001621
      dx2y2   :     0.000199
      dxy     :    -0.000778
      f0      :    -0.000023  f :     0.000218
      f+1     :     0.000137
      f-1     :     0.000137
      f+2     :    -0.000108
      f-2     :    -0.000003
      f+3     :     0.000044
      f-3     :     0.000034
 21 C s       :    -0.000762  s :    -0.000762
      pz      :    -0.002788  p :     0.014773
      px      :     0.009383
      py      :     0.008177
      dz2     :     0.002278  d :     0.034953
      dxz     :     0.011380
      dyz     :     0.006904
      dx2y2   :     0.013998
      dxy     :     0.000394
      f0      :     0.000368  f :     0.004787
      f+1     :     0.001358
      f-1     :     0.000714
      f+2     :     0.001700
      f-2     :     0.000084
      f+3     :     0.000326
      f-3     :     0.000237
 22 C s       :     0.002132  s :     0.002132
      pz      :     0.002737  p :     0.080002
      px      :     0.038046
      py      :     0.039219
      dz2     :     0.000129  d :     0.012234
      dxz     :    -0.000188
      dyz     :     0.002310
      dx2y2   :     0.010233
      dxy     :    -0.000252
      f0      :    -0.000058  f :     0.000332
      f+1     :    -0.000080
      f-1     :     0.000183
      f+2     :     0.000545
      f-2     :    -0.000069
      f+3     :    -0.000063
      f-3     :    -0.000127
 23 S s       :     0.004194  s :     0.004194
      pz      :     0.008269  p :     0.250132
      px      :     0.116341
      py      :     0.125522
      dz2     :     0.001382  d :     0.014902
      dxz     :    -0.000296
      dyz     :    -0.000433
      dx2y2   :     0.013429
      dxy     :     0.000820
      f0      :     0.000239  f :     0.002280
      f+1     :     0.000518
      f-1     :     0.000585
      f+2     :     0.000146
      f-2     :     0.000026
      f+3     :     0.000435
      f-3     :     0.000332
 24 C s       :     0.002129  s :     0.002129
      pz      :     0.002565  p :     0.079875
      px      :     0.037148
      py      :     0.040161
      dz2     :     0.000263  d :     0.012237
      dxz     :     0.002416
      dyz     :     0.000229
      dx2y2   :     0.009768
      dxy     :    -0.000438
      f0      :    -0.000042  f :     0.000330
      f+1     :     0.000214
      f-1     :    -0.000045
      f+2     :     0.000510
      f-2     :    -0.000098
      f+3     :    -0.000130
      f-3     :    -0.000080
 25 C s       :    -0.000764  s :    -0.000764
      pz      :    -0.002734  p :     0.014622
      px      :     0.007685
      py      :     0.009671
      dz2     :     0.002162  d :     0.035027
      dxz     :     0.006430
      dyz     :     0.011017
      dx2y2   :     0.014904
      dxy     :     0.000514
      f0      :     0.000322  f :     0.004791
      f+1     :     0.000625
      f-1     :     0.001298
      f+2     :     0.001904
      f-2     :     0.000107
      f+3     :     0.000265
      f-3     :     0.000270
 26 N s       :    -0.000001  s :    -0.000001
      pz      :    -0.000000  p :     0.000000
      px      :    -0.000001
      py      :     0.000002
      dz2     :     0.000000  d :     0.000012
      dxz     :     0.000006
      dyz     :     0.000005
      dx2y2   :     0.000000
      dxy     :     0.000000
      f0      :     0.000000  f :     0.000001
      f+1     :     0.000000
      f-1     :     0.000000
      f+2     :     0.000000
      f-2     :     0.000000
      f+3     :     0.000000
      f-3     :     0.000000
 27 C s       :     0.000001  s :     0.000001
      pz      :     0.000001  p :     0.000002
      px      :     0.000001
      py      :     0.000000
      dz2     :    -0.000000  d :     0.000000
      dxz     :     0.000000
      dyz     :     0.000000
      dx2y2   :     0.000000
      dxy     :     0.000000
      f0      :    -0.000000  f :     0.000000
      f+1     :     0.000000
      f-1     :     0.000000
      f+2     :     0.000000
      f-2     :    -0.000000
      f+3     :    -0.000000
      f-3     :     0.000000
 28 C s       :     0.000000  s :     0.000000
      pz      :     0.000000  p :     0.000001
      px      :     0.000001
      py      :     0.000000
      dz2     :    -0.000000  d :     0.000000
      dxz     :     0.000000
      dyz     :     0.000000
      dx2y2   :    -0.000000
      dxy     :     0.000000
      f0      :     0.000000  f :     0.000000
      f+1     :     0.000000
      f-1     :    -0.000000
      f+2     :    -0.000000
      f-2     :     0.000000
      f+3     :    -0.000000
      f-3     :    -0.000000
 29 S s       :     0.000000  s :     0.000000
      pz      :     0.000000  p :     0.000001
      px      :     0.000001
      py      :    -0.000000
      dz2     :     0.000000  d :     0.000000
      dxz     :     0.000000
      dyz     :     0.000000
      dx2y2   :     0.000000
      dxy     :     0.000000
      f0      :     0.000000  f :     0.000000
      f+1     :     0.000000
      f-1     :     0.000000
      f+2     :    -0.000000
      f-2     :     0.000000
      f+3     :     0.000000
      f-3     :    -0.000000
 30 C s       :     0.000000  s :     0.000000
      pz      :     0.000000  p :     0.000001
      px      :     0.000001
      py      :     0.000000
      dz2     :     0.000000  d :     0.000000
      dxz     :     0.000000
      dyz     :     0.000000
      dx2y2   :    -0.000000
      dxy     :    -0.000000
      f0      :     0.000000  f :     0.000000
      f+1     :    -0.000000
      f-1     :    -0.000000
      f+2     :    -0.000000
      f-2     :     0.000000
      f+3     :     0.000000
      f-3     :    -0.000000
 31 C s       :     0.000001  s :     0.000001
      pz      :     0.000002  p :     0.000003
      px      :    -0.000001
      py      :     0.000001
      dz2     :    -0.000000  d :     0.000001
      dxz     :     0.000000
      dyz     :     0.000001
      dx2y2   :     0.000000
      dxy     :     0.000000
      f0      :     0.000000  f :     0.000000
      f+1     :     0.000000
      f-1     :     0.000000
      f+2     :     0.000000
      f-2     :     0.000000
      f+3     :     0.000000
      f-3     :     0.000000
 32 C s       :     0.000318  s :     0.000318
      pz      :     0.000394  p :     0.018917
      px      :     0.009689
      py      :     0.008834
      dz2     :    -0.000213  d :     0.002513
      dxz     :     0.001207
      dyz     :     0.001538
      dx2y2   :     0.000186
      dxy     :    -0.000206
      f0      :    -0.000049  f :     0.000466
      f+1     :     0.000036
      f-1     :    -0.000040
      f+2     :     0.000545
      f-2     :    -0.000043
      f+3     :     0.000030
      f-3     :    -0.000011
 33 C s       :     0.000090  s :     0.000090
      pz      :     0.000337  p :     0.011572
      px      :     0.005858
      py      :     0.005377
      dz2     :     0.000491  d :     0.008765
      dxz     :     0.002543
      dyz     :     0.001153
      dx2y2   :     0.004449
      dxy     :     0.000130
      f0      :     0.000077  f :     0.000901
      f+1     :     0.000228
      f-1     :     0.000184
      f+2     :     0.000046
      f-2     :     0.000009
      f+3     :     0.000175
      f-3     :     0.000183
 34 C s       :     0.001609  s :     0.001609
      pz      :     0.002745  p :     0.062159
      px      :     0.029911
      py      :     0.029503
      dz2     :    -0.000209  d :    -0.001168
      dxz     :    -0.000214
      dyz     :    -0.000043
      dx2y2   :    -0.000420
      dxy     :    -0.000282
      f0      :    -0.000033  f :    -0.000427
      f+1     :     0.000011
      f-1     :    -0.000033
      f+2     :    -0.000149
      f-2     :    -0.000053
      f+3     :    -0.000105
      f-3     :    -0.000066
 35 C s       :    -0.001208  s :    -0.001208
      pz      :    -0.002828  p :    -0.028760
      px      :    -0.012959
      py      :    -0.012974
      dz2     :     0.001140  d :     0.013865
      dxz     :     0.005794
      dyz     :     0.005615
      dx2y2   :     0.000934
      dxy     :     0.000383
      f0      :     0.000064  f :     0.002197
      f+1     :     0.000259
      f-1     :     0.000170
      f+2     :     0.001536
      f-2     :     0.000036
      f+3     :     0.000094
      f-3     :     0.000038
 36 C s       :    -0.001207  s :    -0.001207
      pz      :    -0.002778  p :    -0.028775
      px      :    -0.012448
      py      :    -0.013549
      dz2     :     0.001039  d :     0.013846
      dxz     :     0.005380
      dyz     :     0.006081
      dx2y2   :     0.000979
      dxy     :     0.000367
      f0      :     0.000057  f :     0.002196
      f+1     :     0.000180
      f-1     :     0.000233
      f+2     :     0.001573
      f-2     :     0.000037
      f+3     :     0.000044
      f-3     :     0.000072
 37 C s       :     0.001609  s :     0.001609
      pz      :     0.002530  p :     0.062108
      px      :     0.028205
      py      :     0.031373
      dz2     :    -0.000213  d :    -0.001187
      dxz     :    -0.000033
      dyz     :    -0.000168
      dx2y2   :    -0.000477
      dxy     :    -0.000296
      f0      :    -0.000035  f :    -0.000430
      f+1     :    -0.000041
      f-1     :     0.000012
      f+2     :    -0.000152
      f-2     :    -0.000049
      f+3     :    -0.000067
      f-3     :    -0.000097
 38 C s       :     0.000085  s :     0.000085
      pz      :     0.000270  p :     0.011367
      px      :     0.005048
      py      :     0.006049
      dz2     :     0.000426  d :     0.008787
      dxz     :     0.001020
      dyz     :     0.002470
      dx2y2   :     0.004674
      dxy     :     0.000197
      f0      :     0.000063  f :     0.000904
      f+1     :     0.000168
      f-1     :     0.000244
      f+2     :     0.000063
      f-2     :     0.000013
      f+3     :     0.000202
      f-3     :     0.000151
 39 C s       :     0.000321  s :     0.000321
      pz      :     0.000263  p :     0.019092
      px      :     0.008449
      py      :     0.010381
      dz2     :    -0.000209  d :     0.002459
      dxz     :     0.001429
      dyz     :     0.001285
      dx2y2   :     0.000160
      dxy     :    -0.000206
      f0      :    -0.000057  f :     0.000463
      f+1     :    -0.000041
      f-1     :     0.000014
      f+2     :     0.000576
      f-2     :    -0.000038
      f+3     :    -0.000009
      f-3     :     0.000018
 40 C s       :     0.000000  s :     0.000000
      pz      :     0.000000  p :    -0.000001
      px      :    -0.000001
      py      :    -0.000000
      dz2     :     0.000000  d :     0.000000
      dxz     :     0.000000
      dyz     :     0.000000
      dx2y2   :     0.000000
      dxy     :     0.000000
      f0      :     0.000000  f :     0.000000
      f+1     :     0.000000
      f-1     :     0.000000
      f+2     :     0.000000
      f-2     :     0.000000
      f+3     :     0.000000
      f-3     :     0.000000
 41 C s       :     0.000000  s :     0.000000
      pz      :     0.000000  p :     0.000001
      px      :     0.000001
      py      :     0.000000
      dz2     :    -0.000000  d :    -0.000000
      dxz     :    -0.000000
      dyz     :     0.000000
      dx2y2   :    -0.000000
      dxy     :    -0.000000
      f0      :     0.000000  f :    -0.000000
      f+1     :    -0.000000
      f-1     :     0.000000
      f+2     :    -0.000000
      f-2     :    -0.000000
      f+3     :    -0.000000
      f-3     :    -0.000000
 42 C s       :    -0.000000  s :    -0.000000
      pz      :     0.000000  p :    -0.000001
      px      :    -0.000001
      py      :    -0.000000
      dz2     :     0.000000  d :     0.000000
      dxz     :     0.000000
      dyz     :     0.000000
      dx2y2   :     0.000000
      dxy     :     0.000000
      f0      :     0.000000  f :     0.000000
      f+1     :     0.000000
      f-1     :     0.000000
      f+2     :     0.000000
      f-2     :     0.000000
      f+3     :     0.000000
      f-3     :     0.000000
 43 C s       :     0.000000  s :     0.000000
      pz      :     0.000001  p :     0.000001
      px      :     0.000001
      py      :    -0.000000
      dz2     :    -0.000000  d :     0.000000
      dxz     :     0.000000
      dyz     :     0.000000
      dx2y2   :    -0.000000
      dxy     :     0.000000
      f0      :     0.000000  f :     0.000000
      f+1     :     0.000000
      f-1     :     0.000000
      f+2     :    -0.000000
      f-2     :     0.000000
      f+3     :    -0.000000
      f-3     :     0.000000
 44 C s       :     0.000000  s :     0.000000
      pz      :     0.000001  p :     0.000002
      px      :     0.000002
      py      :    -0.000001
      dz2     :    -0.000000  d :     0.000000
      dxz     :     0.000000
      dyz     :     0.000000
      dx2y2   :    -0.000000
      dxy     :     0.000000
      f0      :     0.000000  f :     0.000000
      f+1     :    -0.000000
      f-1     :     0.000000
      f+2     :    -0.000000
      f-2     :     0.000000
      f+3     :     0.000000
      f-3     :     0.000000
 45 C s       :    -0.000000  s :    -0.000000
      pz      :    -0.000000  p :    -0.000001
      px      :    -0.000001
      py      :    -0.000000
      dz2     :     0.000000  d :     0.000000
      dxz     :     0.000000
      dyz     :    -0.000000
      dx2y2   :     0.000000
      dxy     :     0.000000
      f0      :     0.000000  f :     0.000000
      f+1     :    -0.000000
      f-1     :    -0.000000
      f+2     :     0.000000
      f-2     :     0.000000
      f+3     :     0.000000
      f-3     :     0.000000
 46 C s       :     0.000000  s :     0.000000
      pz      :     0.000000  p :     0.000001
      px      :     0.000000
      py      :     0.000001
      dz2     :    -0.000000  d :    -0.000000
      dxz     :    -0.000000
      dyz     :     0.000000
      dx2y2   :    -0.000000
      dxy     :    -0.000000
      f0      :    -0.000000  f :    -0.000000
      f+1     :    -0.000000
      f-1     :     0.000000
      f+2     :    -0.000000
      f-2     :    -0.000000
      f+3     :    -0.000000
      f-3     :    -0.000000
 47 C s       :    -0.000000  s :    -0.000000
      pz      :    -0.000000  p :    -0.000001
      px      :    -0.000001
      py      :    -0.000000
      dz2     :     0.000000  d :     0.000000
      dxz     :     0.000000
      dyz     :     0.000000
      dx2y2   :     0.000000
      dxy     :     0.000000
      f0      :     0.000000  f :     0.000000
      f+1     :     0.000000
      f-1     :     0.000000
      f+2     :     0.000000
      f-2     :     0.000000
      f+3     :     0.000000
      f-3     :     0.000000
 48 H s       :    -0.000001  s :    -0.000001
      pz      :     0.000000  p :     0.000000
      px      :    -0.000000
      py      :     0.000000
 49 H s       :     0.000000  s :     0.000000
      pz      :    -0.000000  p :    -0.000000
      px      :     0.000000
      py      :    -0.000000
 50 H s       :     0.000001  s :     0.000001
      pz      :    -0.000000  p :    -0.000000
      px      :     0.000000
      py      :    -0.000000
 51 H s       :    -0.000001  s :    -0.000001
      pz      :     0.000000  p :     0.000000
      px      :    -0.000000
      py      :     0.000000
 52 H s       :    -0.000000  s :    -0.000000
      pz      :     0.000000  p :     0.000000
      px      :     0.000000
      py      :     0.000000
 53 H s       :    -0.000279  s :    -0.000279
      pz      :     0.000036  p :     0.000080
      px      :     0.000025
      py      :     0.000019
 54 H s       :    -0.000272  s :    -0.000272
      pz      :     0.000032  p :     0.000074
      px      :     0.000019
      py      :     0.000024
 55 H s       :     0.000310  s :     0.000310
      pz      :    -0.000025  p :    -0.000033
      px      :    -0.000014
      py      :     0.000006
 56 H s       :     0.000001  s :     0.000001
      pz      :     0.000005  p :     0.000006
      px      :     0.000001
      py      :     0.000000
 57 H s       :     0.000007  s :     0.000007
      pz      :    -0.000006  p :    -0.000008
      px      :    -0.000000
      py      :    -0.000001
 58 H s       :     0.000012  s :     0.000012
      pz      :    -0.000005  p :    -0.000006
      px      :    -0.000001
      py      :    -0.000000
 59 H s       :    -0.000658  s :    -0.000658
      pz      :    -0.000004  p :     0.000437
      px      :     0.000195
      py      :     0.000245
 60 H s       :    -0.000334  s :    -0.000334
      pz      :     0.000028  p :     0.000311
      px      :     0.000152
      py      :     0.000131
 61 H s       :    -0.001718  s :    -0.001718
      pz      :     0.000235  p :     0.001622
      px      :     0.000681
      py      :     0.000706
 62 H s       :     0.000533  s :     0.000533
      pz      :    -0.000063  p :    -0.000808
      px      :    -0.000370
      py      :    -0.000375
 63 H s       :     0.000533  s :     0.000533
      pz      :    -0.000061  p :    -0.000809
      px      :    -0.000362
      py      :    -0.000386
 64 H s       :    -0.001716  s :    -0.001716
      pz      :     0.000223  p :     0.001621
      px      :     0.000678
      py      :     0.000720
 65 H s       :    -0.000329  s :    -0.000329
      pz      :     0.000028  p :     0.000306
      px      :     0.000125
      py      :     0.000153
 66 H s       :    -0.000662  s :    -0.000662
      pz      :    -0.000005  p :     0.000442
      px      :     0.000244
      py      :     0.000203
 67 H s       :     0.000000  s :     0.000000
      pz      :     0.000000  p :    -0.000000
      px      :    -0.000000
      py      :    -0.000000
 68 H s       :    -0.000000  s :    -0.000000
      pz      :     0.000000  p :     0.000000
      px      :     0.000000
      py      :     0.000000
 69 H s       :     0.000000  s :     0.000000
      pz      :    -0.000000  p :    -0.000000
      px      :    -0.000000
      py      :    -0.000000
 70 H s       :    -0.000000  s :    -0.000000
      pz      :     0.000000  p :     0.000000
      px      :     0.000000
      py      :    -0.000000
 71 H s       :     0.000000  s :     0.000000
      pz      :     0.000000  p :     0.000000
      px      :     0.000000
      py      :     0.000000
 72 H s       :     0.000000  s :     0.000000
      pz      :    -0.000000  p :    -0.000000
      px      :    -0.000000
      py      :    -0.000000
 73 H s       :    -0.000000  s :    -0.000000
      pz      :     0.000000  p :     0.000000
      px      :     0.000000
      py      :     0.000000
 74 H s       :     0.000000  s :     0.000000
      pz      :    -0.000000  p :    -0.000000
      px      :    -0.000000
      py      :    -0.000000


                      *****************************
                      * MAYER POPULATION ANALYSIS *
                      *****************************

  NA   - Mulliken gross atomic population
  ZA   - Total nuclear charge
  QA   - Mulliken gross atomic charge
  VA   - Mayer's total valence
  BVA  - Mayer's bonded valence
  FA   - Mayer's free valence

  ATOM       NA         ZA         QA         VA         BVA        FA
  0 C      5.9417     6.0000     0.0583     3.6190     3.6190     0.0000
  1 C      6.2344     6.0000    -0.2344     4.0475     4.0475     0.0000
  2 C      6.1121     6.0000    -0.1121     3.8476     3.8476     0.0000
  3 C      5.8923     6.0000     0.1077     3.9341     3.9341     0.0000
  4 C      6.1442     6.0000    -0.1442     3.8771     3.8771     0.0000
  5 C      6.2351     6.0000    -0.2351     4.0369     4.0369    -0.0000
  6 S     16.0845    16.0000    -0.0845     2.2964     2.2964     0.0000
  7 N      6.9481     7.0000     0.0519     3.2002     3.2002     0.0000
  8 C      5.9099     6.0000     0.0901     3.9212     3.9212     0.0000
  9 C      5.8309     6.0000     0.1691     3.6270     3.6270     0.0000
 10 C      5.7875     6.0000     0.2125     3.4237     3.4237     0.0000
 11 C      5.9022     6.0000     0.0978     3.8868     3.8868     0.0000
 12 C      6.3137     6.0000    -0.3137     3.9900     3.9899     0.0001
 13 C      6.0387     6.0000    -0.0387     3.5082     3.5079     0.0003
 14 C      6.1817     6.0000    -0.1817     3.9795     3.9795     0.0001
 15 C      6.1298     6.0000    -0.1298     3.8429     3.8429     0.0000
 16 C      6.1608     6.0000    -0.1608     3.8805     3.8805     0.0000
 17 C      6.1260     6.0000    -0.1260     4.0243     4.0243     0.0000
 18 C      5.9124     6.0000     0.0876     3.6736     3.6736     0.0000
 19 C      6.5507     6.0000    -0.5507     3.8380     3.8380     0.0000
 20 N      6.9164     7.0000     0.0836     3.2182     3.1478     0.0704
 21 C      5.8521     6.0000     0.1479     3.8428     3.8385     0.0042
 22 C      6.0095     6.0000    -0.0095     3.9651     3.9513     0.0138
 23 S     15.8428    16.0000     0.1572     2.8394     2.7465     0.0929
 24 C      6.0091     6.0000    -0.0091     3.9628     3.9490     0.0138
 25 C      5.8558     6.0000     0.1442     3.8504     3.8462     0.0042
 26 N      7.0391     7.0000    -0.0391     2.9901     2.9901     0.0000
 27 C      5.8383     6.0000     0.1617     3.8156     3.8156     0.0000
 28 C      6.0370     6.0000    -0.0370     3.8936     3.8936     0.0000
 29 S     16.0101    16.0000    -0.0101     2.4691     2.4691     0.0000
 30 C      6.0350     6.0000    -0.0350     3.9022     3.9022     0.0000
 31 C      5.8486     6.0000     0.1514     3.8248     3.8248     0.0000
 32 C      6.1483     6.0000    -0.1483     3.8698     3.8688     0.0010
 33 C      6.1220     6.0000    -0.1220     3.9250     3.9243     0.0007
 34 C      6.1166     6.0000    -0.1166     3.9375     3.9312     0.0062
 35 C      6.1526     6.0000    -0.1526     3.8541     3.8524     0.0017
 36 C      6.1526     6.0000    -0.1526     3.8539     3.8522     0.0017
 37 C      6.1169     6.0000    -0.1169     3.9387     3.9324     0.0062
 38 C      6.1223     6.0000    -0.1223     3.9247     3.9240     0.0007
 39 C      6.1438     6.0000    -0.1438     3.8652     3.8642     0.0010
 40 C      6.1394     6.0000    -0.1394     3.8558     3.8558     0.0000
 41 C      6.1517     6.0000    -0.1517     3.9306     3.9306     0.0000
 42 C      6.1441     6.0000    -0.1441     3.9198     3.9198     0.0000
 43 C      6.1978     6.0000    -0.1978     3.8949     3.8949     0.0000
 44 C      6.2128     6.0000    -0.2128     3.9087     3.9087     0.0000
 45 C      6.1398     6.0000    -0.1398     3.9208     3.9208     0.0000
 46 C      6.1550     6.0000    -0.1550     3.9329     3.9329     0.0000
 47 C      6.1372     6.0000    -0.1372     3.8525     3.8525     0.0000
 48 H      0.8502     1.0000     0.1498     0.9772     0.9772     0.0000
 49 H      0.8523     1.0000     0.1477     0.9764     0.9764     0.0000
 50 H      0.8589     1.0000     0.1411     0.9668     0.9668     0.0000
 51 H      0.8548     1.0000     0.1452     0.9786     0.9786     0.0000
 52 H      0.8628     1.0000     0.1372     0.9752     0.9752     0.0000
 53 H      0.8604     1.0000     0.1396     0.9921     0.9921     0.0000
 54 H      0.8591     1.0000     0.1409     0.9835     0.9835     0.0000
 55 H      0.8323     1.0000     0.1677     0.9715     0.9715     0.0000
 56 H      0.8428     1.0000     0.1572     0.9734     0.9734     0.0000
 57 H      0.8494     1.0000     0.1506     0.9834     0.9834     0.0000
 58 H      0.8645     1.0000     0.1355     0.9904     0.9904     0.0000
 59 H      0.8003     1.0000     0.1997     0.9484     0.9484     0.0000
 60 H      0.8341     1.0000     0.1659     0.9657     0.9657     0.0000
 61 H      0.8305     1.0000     0.1695     0.9643     0.9643     0.0000
 62 H      0.8350     1.0000     0.1650     0.9682     0.9682     0.0000
 63 H      0.8349     1.0000     0.1651     0.9681     0.9681     0.0000
 64 H      0.8307     1.0000     0.1693     0.9644     0.9644     0.0000
 65 H      0.8343     1.0000     0.1657     0.9657     0.9657     0.0000
 66 H      0.8021     1.0000     0.1979     0.9507     0.9507     0.0000
 67 H      0.8637     1.0000     0.1363     0.9792     0.9792    -0.0000
 68 H      0.8702     1.0000     0.1298     0.9706     0.9706     0.0000
 69 H      0.8806     1.0000     0.1194     0.9730     0.9730     0.0000
 70 H      0.8514     1.0000     0.1486     0.9564     0.9564     0.0000
 71 H      0.8485     1.0000     0.1515     0.9537     0.9537     0.0000
 72 H      0.8794     1.0000     0.1206     0.9726     0.9726     0.0000
 73 H      0.8699     1.0000     0.1301     0.9707     0.9707     0.0000
 74 H      0.8637     1.0000     0.1363     0.9791     0.9791     0.0000

  Mayer bond orders larger than 0.100000
B(  0-C ,  1-C ) :   1.3966 B(  0-C ,  5-C ) :   1.3926 B(  0-C ,  7-N ) :   0.8114 
B(  1-C ,  2-C ) :   1.4557 B(  1-C , 48-H ) :   0.9735 B(  2-C ,  3-C ) :   1.3263 
B(  2-C , 49-H ) :   0.9579 B(  3-C ,  4-C ) :   1.3400 B(  3-C ,  6-S ) :   1.1544 
B(  4-C ,  5-C ) :   1.4337 B(  4-C , 50-H ) :   0.9502 B(  5-C , 51-H ) :   0.9676 
B(  6-S , 52-H ) :   0.9698 B(  7-N ,  8-C ) :   1.1740 B(  7-N , 11-C ) :   1.1118 
B(  8-C ,  9-C ) :   1.2589 B(  8-C , 15-C ) :   1.3251 B(  9-C , 10-C ) :   1.0872 
B(  9-C , 12-C ) :   1.2655 B(  9-C , 13-C ) :  -0.1009 B( 10-C , 11-C ) :   1.3057 
B( 10-C , 18-C ) :  -0.1105 B( 10-C , 19-C ) :   1.0731 B( 11-C , 16-C ) :   1.3216 
B( 12-C , 13-C ) :   1.5140 B( 12-C , 53-H ) :   0.9917 B( 13-C , 14-C ) :   1.4099 
B( 13-C , 20-N ) :   0.6400 B( 14-C , 15-C ) :   1.4223 B( 14-C , 54-H ) :   0.9945 
B( 15-C , 55-H ) :   0.9505 B( 16-C , 17-C ) :   1.4568 B( 16-C , 56-H ) :   0.9608 
B( 17-C , 18-C ) :   1.4315 B( 17-C , 57-H ) :   0.9704 B( 18-C , 19-C ) :   1.4990 
B( 18-C , 26-N ) :   0.7423 B( 19-C , 58-H ) :   1.0567 B( 20-N , 21-C ) :   1.1865 
B( 20-N , 25-C ) :   1.1866 B( 21-C , 22-C ) :   1.2191 B( 21-C , 32-C ) :   1.2841 
B( 22-C , 23-S ) :   1.2571 B( 22-C , 35-C ) :   1.2718 B( 23-S , 24-C ) :   1.2568 
B( 24-C , 25-C ) :   1.2189 B( 24-C , 36-C ) :   1.2711 B( 25-C , 39-C ) :   1.2870 
B( 26-N , 27-C ) :   1.0690 B( 26-N , 31-C ) :   1.0614 B( 27-C , 28-C ) :   1.2659 
B( 27-C , 44-C ) :   1.3721 B( 28-C , 29-S ) :   1.0893 B( 28-C , 47-C ) :   1.3626 
B( 29-S , 30-C ) :   1.0956 B( 30-C , 31-C ) :   1.2679 B( 30-C , 40-C ) :   1.3631 
B( 31-C , 43-C ) :   1.3768 B( 32-C , 33-C ) :   1.5257 B( 32-C , 59-H ) :   0.9260 
B( 33-C , 34-C ) :   1.3035 B( 33-C , 60-H ) :   0.9545 B( 34-C , 35-C ) :   1.5158 
B( 34-C , 61-H ) :   0.9582 B( 35-C , 62-H ) :   0.9479 B( 36-C , 37-C ) :   1.5164 
B( 36-C , 63-H ) :   0.9478 B( 37-C , 38-C ) :   1.3039 B( 37-C , 64-H ) :   0.9581 
B( 38-C , 39-C ) :   1.5257 B( 38-C , 65-H ) :   0.9539 B( 39-C , 66-H ) :   0.9258 
B( 40-C , 41-C ) :   1.4068 B( 40-C , 67-H ) :   0.9631 B( 41-C , 42-C ) :   1.4219 
B( 41-C , 68-H ) :   0.9730 B( 42-C , 43-C ) :   1.4161 B( 42-C , 69-H ) :   0.9747 
B( 43-C , 70-H ) :   0.9387 B( 44-C , 45-C ) :   1.4185 B( 44-C , 71-H ) :   0.9390 
B( 45-C , 46-C ) :   1.4230 B( 45-C , 72-H ) :   0.9742 B( 46-C , 47-C ) :   1.4059 
B( 46-C , 73-H ) :   0.9729 B( 47-C , 74-H ) :   0.9641 

-------
TIMINGS
-------

Total SCF time: 0 days 0 hours 5 min 5 sec 

Total time                  ....     305.575 sec
Sum of individual times     ....     293.575 sec  ( 96.1%)

Fock matrix formation       ....     248.701 sec  ( 81.4%)
  Split-RI-J                ....      14.912 sec  (  6.0% of F)
  Chain of spheres X        ....     211.338 sec  ( 85.0% of F)
  XC integration            ....      15.496 sec  (  6.2% of F)
    Basis function eval.    ....       1.030 sec  (  6.6% of XC)
    Density eval.           ....       7.518 sec  ( 48.5% of XC)
    XC-Functional eval.     ....       0.240 sec  (  1.5% of XC)
    XC-Potential eval.      ....       2.478 sec  ( 16.0% of XC)
Diagonalization             ....      11.820 sec  (  3.9%)
Density matrix formation    ....       0.859 sec  (  0.3%)
Population analysis         ....       6.499 sec  (  2.1%)
Initial guess               ....       7.842 sec  (  2.6%)
Orbital Transformation      ....       0.000 sec  (  0.0%)
Orbital Orthonormalization  ....       7.493 sec  (  2.5%)
DIIS solution               ....      10.132 sec  (  3.3%)
Grid generation             ....       7.723 sec  (  2.5%)

Maximum memory used throughout the entire SCF-calculation: 649.4 MB


-------------------------------------------------------------------------------
                          DFT DISPERSION CORRECTION                            
                                                                               
                                 DFTD4 V2.5                                    
-------------------------------------------------------------------------------
The CAM-B3LYP functional is recognized
Active option DFTDOPT                   ...         5   

Starting D4
-------------------------   ----------------
Dispersion correction           -0.123867320
-------------------------   ----------------


-------------------------   --------------------
FINAL SINGLE POINT ENERGY     -2975.187027552729
-------------------------   --------------------

                                *** OPTIMIZATION RUN DONE ***

                            ***************************************
                            *     ORCA property calculations      *
                            ***************************************

                                    ---------------------
                                    Active property flags
                                    ---------------------
   (+) Dipole Moment


------------------------------------------------------------------------------
                       ORCA ELECTRIC PROPERTIES CALCULATION
------------------------------------------------------------------------------

Dipole Moment Calculation                       ... on
Quadrupole Moment Calculation                   ... off
Polarizability Calculation                      ... off
GBWName                                         ... Combo6_Cf1tc_-0.43404_0.43404_ck0.gbw
Electron density                                ... Combo6_Cf1tc_-0.43404_0.43404_ck0.scfp
The origin for moment calculation is the CENTER OF MASS  = (-2.084639, -0.045195 -0.065561)

-------------
DIPOLE MOMENT
-------------
                                X             Y             Z
Electronic contribution:      2.40633      -5.29415       1.22453
Nuclear contribution   :     -1.52293      -2.27434      -1.47953
                        -----------------------------------------
Total Dipole Moment    :      0.88340      -7.56850      -0.25499
                        -----------------------------------------
Magnitude (a.u.)       :      7.62414
Magnitude (Debye)      :     19.37903



--------------------
Rotational spectrum 
--------------------
 
Rotational constants in cm-1:     0.001733     0.001249     0.000905 
Rotational constants in MHz :    51.965790    37.433606    27.118133 

 Dipole components along the rotational axes: 
x,y,z [a.u.] :    -7.554863     0.941249    -0.406991 
x,y,z [Debye]:   -19.202935     2.392465    -1.034488 

 
------------------------------------------------------------------------------
                      ORCA CHELPG CHARGES GENERATION
------------------------------------------------------------------------------

GBW file                           ... Combo6_Cf1tc_-0.43404_0.43404_ck0.gbw
Density                            ... Combo6_Cf1tc_-0.43404_0.43404_ck0.scfp

Reading the GBW file               ... done
Reading the density                ... done

Grid spacing                       ...     0.300000
Point Cut-Off                      ...     4.000000
Van-der-Waals Radii                ...        COSMO
Total charge                       ...            1


Number of points X direction       ...           69
Number of points Y direction       ...           72
Number of points Z direction       ...           58
Maximum number of possible points  ...       288144
Final number of points             ...        88692


CHELPG Charges            
--------------------------------
  0   C   :       0.668242
  1   C   :      -0.579548
  2   C   :       0.114820
  3   C   :      -0.159387
  4   C   :      -0.006918
  5   C   :      -0.439388
  6   S   :      -0.181544
  7   N   :      -0.265820
  8   C   :       0.165140
  9   C   :       0.032913
 10   C   :       0.013135
 11   C   :       0.181952
 12   C   :      -0.315425
 13   C   :       0.325004
 14   C   :      -0.225737
 15   C   :      -0.295103
 16   C   :      -0.366106
 17   C   :      -0.161042
 18   C   :       0.434391
 19   C   :      -0.329781
 20   N   :      -0.444505
 21   C   :       0.487737
 22   C   :      -0.028622
 23   S   :       0.059827
 24   C   :      -0.028686
 25   C   :       0.485100
 26   N   :      -0.577434
 27   C   :       0.489211
 28   C   :      -0.152870
 29   S   :      -0.081333
 30   C   :      -0.163932
 31   C   :       0.505467
 32   C   :      -0.420726
 33   C   :       0.040723
 34   C   :      -0.183726
 35   C   :      -0.126319
 36   C   :      -0.125654
 37   C   :      -0.179207
 38   C   :       0.032398
 39   C   :      -0.413941
 40   C   :       0.027020
 41   C   :      -0.299005
 42   C   :      -0.026624
 43   C   :      -0.428133
 44   C   :      -0.411790
 45   C   :      -0.033942
 46   C   :      -0.288383
 47   C   :       0.015092
 48   H   :       0.222623
 49   H   :       0.161044
 50   H   :       0.136355
 51   H   :       0.189227
 52   H   :       0.204284
 53   H   :       0.193472
 54   H   :       0.173377
 55   H   :       0.190706
 56   H   :       0.214708
 57   H   :       0.168201
 58   H   :       0.175621
 59   H   :       0.221476
 60   H   :       0.141267
 61   H   :       0.176866
 62   H   :       0.192477
 63   H   :       0.192226
 64   H   :       0.174492
 65   H   :       0.144758
 66   H   :       0.215827
 67   H   :       0.121141
 68   H   :       0.165434
 69   H   :       0.124857
 70   H   :       0.177534
 71   H   :       0.172456
 72   H   :       0.125715
 73   H   :       0.162970
 74   H   :       0.123349
--------------------------------
Total charge:     1.000000
--------------------------------

CHELPG charges calculated...

Timings for individual parts in CHELPG calculation:
Grid generation                 ...        0.040 sec (=   0.001 min)
Potential calculation           ...      259.972 sec (=   4.333 min)
Fit to the potential            ...        2.518 sec (=   0.042 min)
------------------------------------------------------------------------------


Timings for individual modules:

Sum of individual times         ...     2130.739 sec (=  35.512 min)
GTO integral calculation        ...       31.994 sec (=   0.533 min)   1.5 %
SCF iterations                  ...     1538.495 sec (=  25.642 min)  72.2 %
SCF Gradient evaluation         ...      296.223 sec (=   4.937 min)  13.9 %
Geometry relaxation             ...        1.274 sec (=   0.021 min)   0.1 %
CHELPG charge generation        ...      262.752 sec (=   4.379 min)  12.3 %
                             ****ORCA TERMINATED NORMALLY****
TOTAL RUN TIME: 0 days 0 hours 35 minutes 53 seconds 691 msec
