
                                 *****************
                                 * O   R   C   A *
                                 *****************

                                            #,                                       
                                            ###                                      
                                            ####                                     
                                            #####                                    
                                            ######                                   
                                           ########,                                 
                                     ,,################,,,,,                         
                               ,,#################################,,                 
                          ,,##########################################,,             
                       ,#########################################, ''#####,          
                    ,#############################################,,   '####,        
                  ,##################################################,,,,####,       
                ,###########''''           ''''###############################       
              ,#####''   ,,,,##########,,,,          '''####'''          '####       
            ,##' ,,,,###########################,,,                        '##       
           ' ,,###''''                  '''############,,,                           
         ,,##''                                '''############,,,,        ,,,,,,###''
      ,#''                                            '''#######################'''  
     '                                                          ''''####''''         
             ,#######,   #######,   ,#######,      ##                                
            ,#'     '#,  ##    ##  ,#'     '#,    #''#        ######   ,####,        
            ##       ##  ##   ,#'  ##            #'  '#       #        #'  '#        
            ##       ##  #######   ##           ,######,      #####,   #    #        
            '#,     ,#'  ##    ##  '#,     ,#' ,#      #,         ##   #,  ,#        
             '#######'   ##     ##  '#######'  #'      '#     #####' # '####'        



                  #######################################################
                  #                        -***-                        #
                  #          Department of theory and spectroscopy      #
                  #    Directorship and core code : Frank Neese         #
                  #        Max Planck Institute fuer Kohlenforschung    #
                  #                Kaiser Wilhelm Platz 1               #
                  #                 D-45470 Muelheim/Ruhr               #
                  #                      Germany                        #
                  #                                                     #
                  #                  All rights reserved                #
                  #                        -***-                        #
                  #######################################################


                         Program Version 5.0.3 -  RELEASE  -


 With contributions from (in alphabetic order):
   Daniel Aravena         : Magnetic Suceptibility
   Michael Atanasov       : Ab Initio Ligand Field Theory (pilot matlab implementation)
   Alexander A. Auer      : GIAO ZORA, VPT2 properties, NMR spectrum
   Ute Becker             : Parallelization
   Giovanni Bistoni       : ED, misc. LED, open-shell LED, HFLD
   Martin Brehm           : Molecular dynamics
   Dmytro Bykov           : SCF Hessian
   Vijay G. Chilkuri      : MRCI spin determinant printing, contributions to CSF-ICE
   Dipayan Datta          : RHF DLPNO-CCSD density
   Achintya Kumar Dutta   : EOM-CC, STEOM-CC
   Dmitry Ganyushin       : Spin-Orbit,Spin-Spin,Magnetic field MRCI
   Miquel Garcia          : C-PCM and meta-GGA Hessian, CC/C-PCM, Gaussian charge scheme
   Yang Guo               : DLPNO-NEVPT2, F12-NEVPT2, CIM, IAO-localization
   Andreas Hansen         : Spin unrestricted coupled pair/coupled cluster methods
   Benjamin Helmich-Paris : MC-RPA, TRAH-SCF, COSX integrals
   Lee Huntington         : MR-EOM, pCC
   Robert Izsak           : Overlap fitted RIJCOSX, COSX-SCS-MP3, EOM
   Marcus Kettner         : VPT2
   Christian Kollmar      : KDIIS, OOCD, Brueckner-CCSD(T), CCSD density, CASPT2, CASPT2-K
   Simone Kossmann        : Meta GGA functionals, TD-DFT gradient, OOMP2, MP2 Hessian
   Martin Krupicka        : Initial AUTO-CI
   Lucas Lang             : DCDCAS
   Marvin Lechner         : AUTO-CI (C++ implementation), FIC-MRCC
   Dagmar Lenk            : GEPOL surface, SMD
   Dimitrios Liakos       : Extrapolation schemes; Compound Job, initial MDCI parallelization
   Dimitrios Manganas     : Further ROCIS development; embedding schemes
   Dimitrios Pantazis     : SARC Basis sets
   Anastasios Papadopoulos: AUTO-CI, single reference methods and gradients
   Taras Petrenko         : DFT Hessian,TD-DFT gradient, ASA, ECA, R-Raman, ABS, FL, XAS/XES, NRVS
   Peter Pinski           : DLPNO-MP2, DLPNO-MP2 Gradient
   Christoph Reimann      : Effective Core Potentials
   Marius Retegan         : Local ZFS, SOC
   Christoph Riplinger    : Optimizer, TS searches, QM/MM, DLPNO-CCSD(T), (RO)-DLPNO pert. Triples
   Tobias Risthaus        : Range-separated hybrids, TD-DFT gradient, RPA, STAB
   Michael Roemelt        : Original ROCIS implementation
   Masaaki Saitow         : Open-shell DLPNO-CCSD energy and density
   Barbara Sandhoefer     : DKH picture change effects
   Avijit Sen             : IP-ROCIS
   Kantharuban Sivalingam : CASSCF convergence, NEVPT2, FIC-MRCI
   Bernardo de Souza      : ESD, SOC TD-DFT
   Georgi Stoychev        : AutoAux, RI-MP2 NMR, DLPNO-MP2 response
   Willem Van den Heuvel  : Paramagnetic NMR
   Boris Wezisla          : Elementary symmetry handling
   Frank Wennmohs         : Technical directorship


 We gratefully acknowledge several colleagues who have allowed us to
 interface, adapt or use parts of their codes:
   Stefan Grimme, W. Hujo, H. Kruse, P. Pracht,  : VdW corrections, initial TS optimization,
                  C. Bannwarth, S. Ehlert          DFT functionals, gCP, sTDA/sTD-DF
   Ed Valeev, F. Pavosevic, A. Kumar             : LibInt (2-el integral package), F12 methods
   Garnet Chan, S. Sharma, J. Yang, R. Olivares  : DMRG
   Ulf Ekstrom                                   : XCFun DFT Library
   Mihaly Kallay                                 : mrcc  (arbitrary order and MRCC methods)
   Jiri Pittner, Ondrej Demel                    : Mk-CCSD
   Frank Weinhold                                : gennbo (NPA and NBO analysis)
   Christopher J. Cramer and Donald G. Truhlar   : smd solvation model
   Lars Goerigk                                  : TD-DFT with DH, B97 family of functionals
   V. Asgeirsson, H. Jonsson                     : NEB implementation
   FAccTs GmbH                                   : IRC, NEB, NEB-TS, DLPNO-Multilevel, CI-OPT
                                                   MM, QMMM, 2- and 3-layer-ONIOM, Crystal-QMMM,
                                                   LR-CPCM, SF, NACMEs, symmetry and pop. for TD-DFT,
                                                   nearIR, NL-DFT gradient (VV10), updates on ESD,
                                                   ML-optimized integration grids
   S Lehtola, MJT Oliveira, MAL Marques          : LibXC Library
   Liviu Ungur et al                             : ANISO software


 Your calculation uses the libint2 library for the computation of 2-el integrals
 For citations please refer to: http://libint.valeyev.net

 Your ORCA version has been built with support for libXC version: 5.1.0
 For citations please refer to: https://tddft.org/programs/libxc/

 This ORCA versions uses:
   CBLAS   interface :  Fast vector & matrix operations
   LAPACKE interface :  Fast linear algebra routines
   SCALAPACK package :  Parallel linear algebra routines
   Shared memory     :  Shared parallel matrices
   BLAS/LAPACK       :  OpenBLAS 0.3.15  USE64BITINT DYNAMIC_ARCH NO_AFFINITY Prescott SINGLE_THREADED
        Core in use  :  Prescott
   Copyright (c) 2011-2014, The OpenBLAS Project


Your calculation utilizes the atom-pairwise dispersion correction
based on tight binding partial charges (D4)
Cite in your paper:
E.Caldeweyher, C.Bannwarth, S.Grimme, J.Chem.Phys., (2017), 147, 034112.
E.Caldeweyher, S.Ehlert, A.Hansen, H.Neugebauer, S.Grimme, J.Chem.Phys., (2018), in progress.
   

XCFun DFT library Copyright 2009-2010 Ulf Ekstrom and contributors.
See http://admol.org/xcfun for more information.
This is free software; see the source code for copying conditions.
There is ABSOLUTELY NO WARRANTY; not even for MERCHANTABILITY or FITNESS FOR A PARTICULAR PURPOSE.
For details see the documentation.
Scientific users of this library should cite U. Ekstrom, L. Visscher, R. Bast, A. J. Thorvaldsen and K. Ruud;
J.Chem.Theor.Comp. 2010, DOI: 10.1021/ct100117s
XCFun Version 0.99 

================================================================================

----- Orbital basis set information -----
Your calculation utilizes the basis: def2-TZVP
   F. Weigend and R. Ahlrichs, Phys. Chem. Chem. Phys. 7, 3297 (2005).

----- AuxJ basis set information -----
Your calculation utilizes the auxiliary basis: def2/J
   F. Weigend, Phys. Chem. Chem. Phys. 8, 1057 (2006).

================================================================================
                                        WARNINGS
                       Please study these warnings very carefully!
================================================================================


WARNING: Geometry Optimization
  ===> : Switching off AutoStart
         For restart on a previous wavefunction, please use MOREAD

INFO   : the flag for use of the SHARK integral package has been found!

================================================================================
                                       INPUT FILE
================================================================================
NAME = Combo62_Cf4tc_0.86808_-0.86808_ck-1.inp
|  1> ## Generated with Autochar
|  2> ! UKS OPT CAM-B3LYP D4 def2-TZVP  CHELPG
|  3> % pointcharges "pointcharges.pc"
|  4> %scf
|  5> 	SCFMode Direct
|  6> 	MaxIter 500
|  7> end
|  8> %pal
|  9> 	nprocs 36
| 10> end
| 11> %elprop
| 12>     Dipole true
| 13> end
| 14> %chelpg
| 15> 	GRID 0.3
| 16> 	RMAX 4
| 17> end
| 18> * xyz 1 2
| 19>  C -8.33382171 -1.15524472 0.73680728
| 20>  C -6.96309869 -1.18225128 0.61688729
| 21>  C -6.24664705 -0.00266596 0.44703362
| 22>  C -6.93371574 1.20281317 0.39529187
| 23>  C -8.30708553 1.22684577 0.50906919
| 24>  C -9.03210533 0.04968760 0.68439213
| 25>  C -4.77762128 -0.02133251 0.33021920
| 26>  N -4.14373660 1.13794311 0.28876403
| 27>  C -2.81378077 1.11016409 0.19755500
| 28>  N -2.12201399 -0.03706433 0.14339581
| 29>  C -2.84290411 -1.14008267 0.18165182
| 30>  N -4.16132067 -1.20601829 0.27480458
| 31>  C -2.10428519 -2.41944032 0.11655234
| 32>  C -2.78847207 -3.63997447 0.07389362
| 33>  C -2.10932076 -4.82227763 0.01976421
| 34>  C -0.69000333 -4.83441708 0.02857537
| 35>  C -0.00687533 -3.59087197 0.00951115
| 36>  C -0.70521980 -2.42135030 0.05982294
| 37>  C -2.08793191 2.36670162 0.15580386
| 38>  C -2.76073202 3.58551078 0.23033143
| 39>  C -2.08406120 4.77797073 0.18683204
| 40>  C -0.68764080 4.80600913 0.06065189
| 41>  C -0.00890022 3.57971995 0.00679681
| 42>  C -0.69850251 2.39463229 0.05257689
| 43>  C -10.51118308 0.05519636 0.81657380
| 44>  S -11.39470930 -1.27705615 1.10617091
| 45>  S -11.24317874 1.63193918 0.63343053
| 46>  N -0.00000000 6.00540689 -0.00000000
| 47>  C 1.41740057 6.03865689 0.12395187
| 48>  C 1.96718803 6.52326222 1.30365528
| 49>  S 0.89326043 7.13226581 2.56165542
| 50>  C -0.32562059 7.85883308 1.51520084
| 51>  C -0.64452582 7.23501324 0.31608758
| 52>  C -0.94850780 9.04733559 1.86395557
| 53>  C -1.88910215 9.60367683 1.01747344
| 54>  C -2.18121859 8.99915063 -0.19503051
| 55>  C -1.54688969 7.82411819 -0.55268675
| 56>  C 2.24389115 5.62503229 -0.90659139
| 57>  C 3.61564899 5.62997272 -0.73538242
| 58>  C 4.16355366 6.07750899 0.45658849
| 59>  C 3.34389344 6.54240371 1.46787463
| 60>  N 0.00000000 -6.00540689 0.00000000
| 61>  C 1.42211859 -6.05586277 -0.07885205
| 62>  C 1.98658789 -6.75831546 -1.13903566
| 63>  S 0.96928579 -7.62857223 -2.26980440
| 64>  C -0.27834010 -8.11136151 -1.13678263
| 65>  C -0.63707073 -7.27647900 -0.08264047
| 66>  C 2.22071350 -5.45765791 0.88564349
| 67>  C 3.59133240 -5.49780579 0.74864629
| 68>  C 4.16121125 -6.13513962 -0.34572142
| 69>  C 3.36774499 -6.77390051 -1.27662272
| 70>  C -0.91703988 -9.33609094 -1.27234498
| 71>  C -1.86289054 -9.72789953 -0.34691717
| 72>  C -2.16555389 -8.91703594 0.73871141
| 73>  C -1.55124791 -7.69127178 0.87575000
| 74>  H -8.88916741 -2.07075638 0.87443474
| 75>  H -6.43294535 -2.12148994 0.65936381
| 76>  H -6.38113346 2.12041797 0.26484013
| 77>  H -8.80991757 2.18202360 0.46619048
| 78>  H -3.86800286 -3.62492794 0.06848174
| 79>  H -2.65652295 -5.74661243 -0.05358375
| 80>  H 1.06634689 -3.56531671 -0.07019739
| 81>  H -0.19174986 -1.47214665 0.04328648
| 82>  H -3.83572167 3.58575058 0.33122180
| 83>  H -2.63697209 5.69973010 0.26363549
| 84>  H 1.06660733 3.56131297 -0.05841171
| 85>  H -0.15498417 1.46255231 0.01144554
| 86>  H -12.49534229 1.20154136 0.82651257
| 87>  H -0.68561325 9.53811715 2.79118955
| 88>  H -2.37783999 10.52758686 1.29430807
| 89>  H -2.89616691 9.45065128 -0.86865942
| 90>  H -1.75631789 7.34537759 -1.49949169
| 91>  H 1.80023768 5.28673037 -1.83305989
| 92>  H 4.25902237 5.29640174 -1.53772957
| 93>  H 5.23663079 6.09152325 0.58905999
| 94>  H 3.76806520 6.93528159 2.38191786
| 95>  H 1.76333240 -4.97405507 1.73724530
| 96>  H 4.21912631 -5.03974842 1.49941385
| 97>  H 5.23638796 -6.16361915 -0.45380331
| 98>  H 3.81485562 -7.31426893 -2.09945944
| 99>  H -0.64700527 -9.98994152 -2.09000694
|100>  H -2.34663309 -10.68871813 -0.45359883
|101>  H -2.87448120 -9.24786249 1.48413572
|102>  H -1.76570655 -7.05650005 1.72384957
|103>   
|104> *
|105> 
|106> 
|107>                          ****END OF INPUT****
================================================================================

                       *****************************
                       * Geometry Optimization Run *
                       *****************************

Geometry optimization settings:
Update method            Update   .... BFGS
Choice of coordinates    CoordSys .... Z-matrix Internals
Initial Hessian          InHess   .... Almoef's Model

Convergence Tolerances:
Energy Change            TolE     ....  5.0000e-06 Eh
Max. Gradient            TolMAXG  ....  3.0000e-04 Eh/bohr
RMS Gradient             TolRMSG  ....  1.0000e-04 Eh/bohr
Max. Displacement        TolMAXD  ....  4.0000e-03 bohr
RMS Displacement         TolRMSD  ....  2.0000e-03 bohr
Strict Convergence                ....  False
------------------------------------------------------------------------------
                        ORCA OPTIMIZATION COORDINATE SETUP
------------------------------------------------------------------------------

The optimization will be done in new redundant internal coordinates
Making redundant internal coordinates   ...  (new redundants) done
Evaluating the initial hessian          ...  (Almloef) done
Evaluating the coordinates              ...  done
Calculating the B-matrix                .... done
Calculating the G-matrix                .... done
Diagonalizing the G-matrix              .... done
Small eigenvalue found = 2.654e-04
Small eigenvalue found = 7.193e-04
Small eigenvalue found = 1.508e-03
Small eigenvalue found = 1.739e-03
Small eigenvalue found = 2.511e-03
Small eigenvalue found = 3.277e-03
Small eigenvalue found = 3.708e-03
Small eigenvalue found = 8.613e-03
Small eigenvalue found = 1.069e-02
Small eigenvalue found = 1.427e-02
Small eigenvalue found = 2.010e-02
Small eigenvalue found = 2.381e-02
Small eigenvalue found = 2.692e-02
The first mode is                       ....  227
The number of degrees of freedom        ....  246

    -----------------------------------------------------------------
                    Redundant Internal Coordinates


    -----------------------------------------------------------------
         Definition                    Initial Value    Approx d2E/dq
    -----------------------------------------------------------------
      1. B(C   1,C   0)                  1.3762         0.657231   
      2. B(C   2,C   1)                  1.3905         0.623580   
      3. B(C   3,C   2)                  1.3885         0.628259   
      4. B(C   4,C   3)                  1.3783         0.652274   
      5. B(C   5,C   4)                  1.3936         0.616610   
      6. B(C   5,C   0)                  1.3936         0.616516   
      7. B(C   6,C   2)                  1.4738         0.459273   
      8. B(N   7,C   6)                  1.3219         0.718633   
      9. B(C   8,N   7)                  1.3334         0.689011   
     10. B(N   9,C   8)                  1.3407         0.670583   
     11. B(C  10,N   9)                  1.3183         0.728351   
     12. B(N  11,C   6)                  1.3366         0.680996   
     13. B(N  11,C  10)                  1.3233         0.714852   
     14. B(C  12,C  10)                  1.4787         0.451050   
     15. B(C  13,C  12)                  1.3999         0.602549   
     16. B(C  14,C  13)                  1.3646         0.686010   
     17. B(C  15,C  14)                  1.4194         0.560839   
     18. B(C  16,C  15)                  1.4190         0.561751   
     19. B(C  17,C  16)                  1.3631         0.689734   
     20. B(C  17,C  12)                  1.4002         0.601782   
     21. B(C  18,C   8)                  1.4517         0.498048   
     22. B(C  19,C  18)                  1.3942         0.615298   
     23. B(C  20,C  19)                  1.3718         0.668087   
     24. B(C  21,C  20)                  1.4024         0.596996   
     25. B(C  22,C  21)                  1.4026         0.596467   
     26. B(C  23,C  22)                  1.3719         0.667780   
     27. B(C  23,C  18)                  1.3935         0.616727   
     28. B(C  24,C   5)                  1.4850         0.440758   
     29. B(S  25,C  24)                  1.6246         0.711523   
     30. B(S  26,C  24)                  1.7480         0.452223   
     31. B(N  27,C  21)                  1.3839         0.572351   
     32. B(C  28,N  27)                  1.4232         0.495347   
     33. B(C  29,C  28)                  1.3888         0.627521   
     34. B(S  30,C  29)                  1.7626         0.428590   
     35. B(C  31,S  30)                  1.7631         0.427756   
     36. B(C  32,C  31)                  1.3888         0.627591   
     37. B(C  32,N  27)                  1.4238         0.494221   
     38. B(C  33,C  31)                  1.3864         0.633071   
     39. B(C  34,C  33)                  1.3823         0.642712   
     40. B(C  35,C  34)                  1.3860         0.634084   
     41. B(C  36,C  35)                  1.3824         0.642518   
     42. B(C  36,C  32)                  1.3842         0.638197   
     43. B(C  37,C  28)                  1.3843         0.638098   
     44. B(C  38,C  37)                  1.3824         0.642463   
     45. B(C  39,C  38)                  1.3861         0.633804   
     46. B(C  40,C  39)                  1.3823         0.642794   
     47. B(C  40,C  29)                  1.3866         0.632655   
     48. B(N  41,C  15)                  1.3595         0.626031   
     49. B(C  42,N  41)                  1.4252         0.491725   
     50. B(C  43,C  42)                  1.3914         0.621542   
     51. B(S  44,C  43)                  1.7524         0.444967   
     52. B(C  45,S  44)                  1.7531         0.443800   
     53. B(C  46,C  45)                  1.3917         0.620822   
     54. B(C  46,N  41)                  1.4242         0.493549   
     55. B(C  47,C  42)                  1.3878         0.629978   
     56. B(C  48,C  47)                  1.3780         0.652876   
     57. B(C  49,C  48)                  1.3887         0.627697   
     58. B(C  50,C  49)                  1.3799         0.648365   
     59. B(C  50,C  43)                  1.3881         0.629217   
     60. B(C  51,C  45)                  1.3879         0.629627   
     61. B(C  52,C  51)                  1.3801         0.648034   
     62. B(C  53,C  52)                  1.3884         0.628447   
     63. B(C  54,C  46)                  1.3879         0.629619   
     64. B(C  54,C  53)                  1.3779         0.653160   
     65. B(H  55,C   0)                  1.0796         0.374140   
     66. B(H  56,C   1)                  1.0794         0.374443   
     67. B(H  57,C   3)                  1.0791         0.374872   
     68. B(H  58,C   4)                  1.0803         0.373166   
     69. B(H  59,C  13)                  1.0796         0.374056   
     70. B(H  60,C  14)                  1.0767         0.378181   
     71. B(H  61,C  16)                  1.0765         0.378435   
     72. B(H  62,C  17)                  1.0793         0.374521   
     73. B(H  63,C  19)                  1.0797         0.373968   
     74. B(H  64,C  20)                  1.0776         0.376865   
     75. B(H  65,C  22)                  1.0776         0.376828   
     76. B(H  66,C  23)                  1.0798         0.373907   
     77. B(H  67,S  26)                  1.3381         0.390308   
     78. B(H  68,C  33)                  1.0815         0.371458   
     79. B(H  69,C  34)                  1.0813         0.371857   
     80. B(H  70,C  35)                  1.0811         0.372066   
     81. B(H  71,C  36)                  1.0814         0.371616   
     82. B(H  72,C  37)                  1.0815         0.371536   
     83. B(H  73,C  38)                  1.0812         0.371953   
     84. B(H  74,C  39)                  1.0813         0.371776   
     85. B(H  75,C  40)                  1.0815         0.371454   
     86. B(H  76,C  47)                  1.0809         0.372373   
     87. B(H  77,C  48)                  1.0806         0.372817   
     88. B(H  78,C  49)                  1.0810         0.372245   
     89. B(H  79,C  50)                  1.0812         0.371949   
     90. B(H  80,C  51)                  1.0812         0.371921   
     91. B(H  81,C  52)                  1.0810         0.372205   
     92. B(H  82,C  53)                  1.0806         0.372762   
     93. B(H  83,C  54)                  1.0808         0.372433   
     94. A(C   1,C   0,H  55)          120.4520         0.358740   
     95. A(C   5,C   0,H  55)          118.7015         0.354864   
     96. A(C   1,C   0,C   5)          120.8465         0.438205   
     97. A(C   0,C   1,C   2)          120.4758         0.439107   
     98. A(C   0,C   1,H  56)          120.1890         0.358790   
     99. A(C   2,C   1,H  56)          119.3344         0.355599   
    100. A(C   3,C   2,C   6)          120.0844         0.412375   
    101. A(C   1,C   2,C   3)          119.0834         0.435552   
    102. A(C   1,C   2,C   6)          120.8312         0.411828   
    103. A(C   2,C   3,H  57)          119.3007         0.356120   
    104. A(C   4,C   3,H  57)          120.3595         0.358398   
    105. A(C   2,C   3,C   4)          120.3398         0.439099   
    106. A(C   3,C   4,H  58)          118.4204         0.358120   
    107. A(C   5,C   4,H  58)          120.6439         0.354717   
    108. A(C   3,C   4,C   5)          120.9343         0.437619   
    109. A(C   0,C   5,C   4)          118.3189         0.433199   
    110. A(C   4,C   5,C  24)          121.7524         0.408023   
    111. A(C   0,C   5,C  24)          119.9286         0.408012   
    112. A(N   7,C   6,N  11)          123.7045         0.447477   
    113. A(C   2,C   6,N   7)          117.9923         0.419620   
    114. A(C   2,C   6,N  11)          118.3031         0.415619   
    115. A(C   6,N   7,C   8)          117.5271         0.448428   
    116. A(N   7,C   8,N   9)          122.3591         0.442841   
    117. A(N   7,C   8,C  18)          118.8585         0.422548   
    118. A(N   9,C   8,C  18)          118.7824         0.420508   
    119. A(C   8,N   9,C  10)          115.6347         0.447316   
    120. A(N  11,C  10,C  12)          117.2346         0.417878   
    121. A(N   9,C  10,N  11)          126.0540         0.452539   
    122. A(N   9,C  10,C  12)          116.7113         0.419273   
    123. A(C   6,N  11,C  10)          114.7178         0.447049   
    124. A(C  10,C  12,C  17)          120.1363         0.407932   
    125. A(C  13,C  12,C  17)          119.0731         0.429537   
    126. A(C  10,C  12,C  13)          120.7678         0.408024   
    127. A(C  14,C  13,H  59)          120.6325         0.361356   
    128. A(C  12,C  13,H  59)          118.4700         0.353475   
    129. A(C  12,C  13,C  14)          120.8901         0.439785   
    130. A(C  13,C  14,C  15)          120.3210         0.434135   
    131. A(C  15,C  14,H  60)          120.0854         0.349863   
    132. A(C  13,C  14,H  60)          119.5774         0.362033   
    133. A(C  14,C  15,C  16)          118.2829         0.418873   
    134. A(C  16,C  15,N  41)          120.6802         0.424403   
    135. A(C  14,C  15,N  41)          120.9817         0.424280   
    136. A(C  15,C  16,C  17)          120.3172         0.434686   
    137. A(C  15,C  16,H  61)          120.1173         0.349998   
    138. A(C  17,C  16,H  61)          119.5472         0.362409   
    139. A(C  12,C  17,H  62)          118.3443         0.353474   
    140. A(C  12,C  17,C  16)          120.9688         0.440114   
    141. A(C  16,C  17,H  62)          120.6818         0.361767   
    142. A(C   8,C  18,C  19)          120.9211         0.416812   
    143. A(C  19,C  18,C  23)          117.8784         0.433060   
    144. A(C   8,C  18,C  23)          121.1980         0.416984   
    145. A(C  20,C  19,H  63)          119.5970         0.359714   
    146. A(C  18,C  19,H  63)          119.0557         0.354718   
    147. A(C  18,C  19,C  20)          121.3459         0.439346   
    148. A(C  19,C  20,H  64)          119.2228         0.360188   
    149. A(C  19,C  20,C  21)          120.7584         0.436959   
    150. A(C  21,C  20,H  64)          120.0143         0.353369   
    151. A(C  22,C  21,N  27)          121.0378         0.422158   
    152. A(C  20,C  21,N  27)          121.0680         0.422224   
    153. A(C  20,C  21,C  22)          117.8929         0.428142   
    154. A(C  23,C  22,H  65)          119.2707         0.360153   
    155. A(C  21,C  22,H  65)          120.0135         0.353310   
    156. A(C  21,C  22,C  23)          120.7111         0.436853   
    157. A(C  18,C  23,H  66)          119.1702         0.354847   
    158. A(C  22,C  23,H  66)          119.4321         0.359676   
    159. A(C  18,C  23,C  22)          121.3973         0.439493   
    160. A(S  25,C  24,S  26)          122.0487         0.468623   
    161. A(C   5,C  24,S  26)          114.2751         0.407280   
    162. A(C   5,C  24,S  25)          123.6762         0.441664   
    163. A(C  24,S  26,H  67)           94.9690         0.382893   
    164. A(C  28,N  27,C  32)          114.2877         0.395460   
    165. A(C  21,N  27,C  32)          120.9185         0.405649   
    166. A(C  21,N  27,C  28)          120.7508         0.405812   
    167. A(N  27,C  28,C  29)          118.4497         0.415163   
    168. A(C  29,C  28,C  37)          120.0186         0.437270   
    169. A(N  27,C  28,C  37)          121.5208         0.416400   
    170. A(C  28,C  29,S  30)          119.0530         0.429612   
    171. A(C  28,C  29,C  40)          119.8983         0.436595   
    172. A(S  30,C  29,C  40)          121.0403         0.430241   
    173. A(C  29,S  30,C  31)           98.0470         0.423239   
    174. A(C  32,C  31,C  33)          119.9398         0.436656   
    175. A(S  30,C  31,C  33)          120.9676         0.430142   
    176. A(S  30,C  31,C  32)          119.0848         0.429471   
    177. A(C  31,C  32,C  36)          120.0288         0.437291   
    178. A(N  27,C  32,C  36)          121.5536         0.416243   
    179. A(N  27,C  32,C  31)          118.4015         0.415004   
    180. A(C  31,C  33,H  68)          119.6996         0.356028   
    181. A(C  31,C  33,C  34)          119.7812         0.438534   
    182. A(C  34,C  33,H  68)          120.5151         0.356943   
    183. A(C  35,C  34,H  69)          120.0937         0.356190   
    184. A(C  33,C  34,H  69)          119.6494         0.357008   
    185. A(C  33,C  34,C  35)          120.2378         0.438661   
    186. A(C  36,C  35,H  70)          119.8170         0.357024   
    187. A(C  34,C  35,H  70)          120.1541         0.356224   
    188. A(C  34,C  35,C  36)          120.0248         0.438637   
    189. A(C  35,C  36,H  71)          120.9268         0.356951   
    190. A(C  32,C  36,H  71)          119.1656         0.356542   
    191. A(C  32,C  36,C  35)          119.9006         0.439149   
    192. A(C  28,C  37,H  72)          119.0975         0.356519   
    193. A(C  28,C  37,C  38)          119.9465         0.439130   
    194. A(C  38,C  37,H  72)          120.9491         0.356933   
    195. A(C  37,C  38,C  39)          119.9930         0.438595   
    196. A(C  39,C  38,H  73)          120.1695         0.356179   
    197. A(C  37,C  38,H  73)          119.8326         0.357001   
    198. A(C  38,C  39,C  40)          120.2213         0.438636   
    199. A(C  40,C  39,H  74)          119.6352         0.357003   
    200. A(C  38,C  39,H  74)          120.1198         0.356150   
    201. A(C  29,C  40,C  39)          119.8322         0.438492   
    202. A(C  39,C  40,H  75)          120.5250         0.356950   
    203. A(C  29,C  40,H  75)          119.6366         0.355988   
    204. A(C  42,N  41,C  46)          114.3022         0.394857   
    205. A(C  15,N  41,C  46)          122.8837         0.412040   
    206. A(C  15,N  41,C  42)          122.5556         0.411769   
    207. A(C  43,C  42,C  47)          120.9121         0.435510   
    208. A(N  41,C  42,C  47)          121.3660         0.414910   
    209. A(N  41,C  42,C  43)          117.6993         0.413917   
    210. A(S  44,C  43,C  50)          120.5367         0.432726   
    211. A(C  42,C  43,C  50)          119.0024         0.435415   
    212. A(C  42,C  43,S  44)          120.4553         0.431772   
    213. A(C  43,S  44,C  45)           97.6351         0.428909   
    214. A(C  46,C  45,C  51)          118.9942         0.435375   
    215. A(S  44,C  45,C  51)          120.4900         0.432572   
    216. A(S  44,C  45,C  46)          120.5144         0.431479   
    217. A(C  45,C  46,C  54)          120.8987         0.435374   
    218. A(N  41,C  46,C  54)          121.4196         0.415141   
    219. A(N  41,C  46,C  45)          117.6482         0.414104   
    220. A(C  42,C  47,C  48)          119.3873         0.439389   
    221. A(C  48,C  47,H  76)          120.8133         0.358046   
    222. A(C  42,C  47,H  76)          119.7975         0.355881   
    223. A(C  47,C  48,C  49)          119.9908         0.439101   
    224. A(C  49,C  48,H  77)          120.2420         0.355734   
    225. A(C  47,C  48,H  77)          119.7650         0.358119   
    226. A(C  48,C  49,C  50)          120.5365         0.438552   
    227. A(C  50,C  49,H  78)          119.4905         0.357604   
    228. A(C  48,C  49,H  78)          119.9365         0.355641   
    229. A(C  43,C  50,C  49)          120.0050         0.438744   
    230. A(C  49,C  50,H  79)          120.4624         0.357555   
    231. A(C  43,C  50,H  79)          119.5064         0.355739   
    232. A(C  45,C  51,C  52)          120.0285         0.438755   
    233. A(C  52,C  51,H  80)          120.4377         0.357520   
    234. A(C  45,C  51,H  80)          119.5099         0.355774   
    235. A(C  51,C  52,C  53)          120.5261         0.438606   
    236. A(C  53,C  52,H  81)          119.9145         0.355707   
    237. A(C  51,C  52,H  81)          119.5291         0.357566   
    238. A(C  52,C  53,C  54)          120.0074         0.439230   
    239. A(C  54,C  53,H  82)          119.7506         0.358136   
    240. A(C  52,C  53,H  82)          120.2388         0.355797   
    241. A(C  46,C  54,C  53)          119.3956         0.439378   
    242. A(C  53,C  54,H  83)          120.7989         0.358083   
    243. A(C  46,C  54,H  83)          119.8025         0.355856   
    244. D(H  56,C   1,C   0,C   5)    179.9784         0.030123   
    245. D(H  56,C   1,C   0,H  55)      0.0249         0.030123   
    246. D(C   2,C   1,C   0,H  55)   -179.6419         0.030123   
    247. D(C   2,C   1,C   0,C   5)      0.3116         0.030123   
    248. D(C   3,C   2,C   1,H  56)   -179.8962         0.026926   
    249. D(C   6,C   2,C   1,C   0)    179.4328         0.026926   
    250. D(C   3,C   2,C   1,C   0)     -0.2265         0.026926   
    251. D(C   6,C   2,C   1,H  56)     -0.2369         0.026926   
    252. D(C   4,C   3,C   2,C   1)     -0.0916         0.027358   
    253. D(C   4,C   3,C   2,C   6)   -179.7535         0.027358   
    254. D(H  57,C   3,C   2,C   1)    179.9232         0.027358   
    255. D(H  57,C   3,C   2,C   6)      0.2614         0.027358   
    256. D(H  58,C   4,C   3,C   2)    179.9024         0.029638   
    257. D(C   5,C   4,C   3,H  57)   -179.6856         0.029638   
    258. D(C   5,C   4,C   3,C   2)      0.3294         0.029638   
    259. D(H  58,C   4,C   3,H  57)     -0.1126         0.029638   
    260. D(C   4,C   5,C   0,C   1)     -0.0758         0.026283   
    261. D(C   0,C   5,C   4,H  58)   -179.8077         0.026292   
    262. D(C  24,C   5,C   4,C   3)    179.6547         0.026292   
    263. D(C  24,C   5,C   4,H  58)      0.0911         0.026292   
    264. D(C  24,C   5,C   0,H  55)     -0.0223         0.026283   
    265. D(C   0,C   5,C   4,C   3)     -0.2442         0.026292   
    266. D(C   4,C   5,C   0,H  55)    179.8785         0.026283   
    267. D(C  24,C   5,C   0,C   1)   -179.9766         0.026283   
    268. D(N  11,C   6,C   2,C   1)      5.7187         0.014369   
    269. D(N   7,C   6,C   2,C   3)      5.5015         0.014369   
    270. D(N  11,C   6,C   2,C   3)   -174.6254         0.014369   
    271. D(N   7,C   6,C   2,C   1)   -174.1543         0.014369   
    272. D(C   8,N   7,C   6,N  11)     -0.5723         0.038874   
    273. D(C   8,N   7,C   6,C   2)    179.2933         0.038874   
    274. D(N   9,C   8,N   7,C   6)      0.2407         0.035445   
    275. D(C  18,C   8,N   7,C   6)   -179.7374         0.035445   
    276. D(C  10,N   9,C   8,C  18)   -179.8029         0.033410   
    277. D(C  10,N   9,C   8,N   7)      0.2190         0.033410   
    278. D(C  12,C  10,N   9,C   8)    179.7039         0.040042   
    279. D(N  11,C  10,N   9,C   8)     -0.4142         0.040042   
    280. D(C   6,N  11,C  10,C  12)   -179.9975         0.038426   
    281. D(C  10,N  11,C   6,N   7)      0.3991         0.034551   
    282. D(C  10,N  11,C   6,C   2)   -179.4662         0.034551   
    283. D(C   6,N  11,C  10,N   9)      0.1211         0.038426   
    284. D(C  17,C  12,C  10,N  11)   -177.9785         0.013867   
    285. D(C  13,C  12,C  10,N  11)      3.7734         0.013867   
    286. D(C  13,C  12,C  10,N   9)   -176.3340         0.013867   
    287. D(C  17,C  12,C  10,N   9)      1.9142         0.013867   
    288. D(H  59,C  13,C  12,C  17)   -176.9896         0.025040   
    289. D(H  59,C  13,C  12,C  10)      1.2770         0.025040   
    290. D(C  14,C  13,C  12,C  17)      2.0259         0.025040   
    291. D(C  14,C  13,C  12,C  10)   -179.7075         0.025040   
    292. D(C  15,C  14,C  13,H  59)   -179.9383         0.033035   
    293. D(H  60,C  14,C  13,H  59)      1.5211         0.033035   
    294. D(C  15,C  14,C  13,C  12)      1.0675         0.033035   
    295. D(H  60,C  14,C  13,C  12)   -177.4731         0.033035   
    296. D(N  41,C  15,C  14,H  60)     -2.6906         0.021548   
    297. D(N  41,C  15,C  14,C  13)    178.7763         0.021548   
    298. D(C  16,C  15,C  14,C  13)     -3.9078         0.021548   
    299. D(C  16,C  15,C  14,H  60)    174.6253         0.021548   
    300. D(H  61,C  16,C  15,N  41)      2.6054         0.021621   
    301. D(H  61,C  16,C  15,C  14)   -174.7188         0.021621   
    302. D(C  17,C  16,C  15,N  41)   -178.9561         0.021621   
    303. D(C  17,C  16,C  15,C  14)      3.7197         0.021621   
    304. D(C  16,C  17,C  12,C  13)     -2.2186         0.024973   
    305. D(C  16,C  17,C  12,C  10)    179.5037         0.024973   
    306. D(H  62,C  17,C  12,C  10)     -1.3156         0.024973   
    307. D(H  62,C  17,C  16,H  61)     -1.4053         0.033424   
    308. D(H  62,C  17,C  16,C  15)   -179.8527         0.033424   
    309. D(C  12,C  17,C  16,H  61)    177.7563         0.033424   
    310. D(C  12,C  17,C  16,C  15)     -0.6911         0.033424   
    311. D(H  62,C  17,C  12,C  13)    176.9622         0.024973   
    312. D(C  23,C  18,C   8,N   9)      0.4190         0.016894   
    313. D(C  23,C  18,C   8,N   7)   -179.6020         0.016894   
    314. D(C  19,C  18,C   8,N   9)   -178.9857         0.016894   
    315. D(C  19,C  18,C   8,N   7)      0.9932         0.016894   
    316. D(H  63,C  19,C  18,C  23)   -178.7537         0.026174   
    317. D(H  63,C  19,C  18,C   8)      0.6702         0.026174   
    318. D(C  20,C  19,C  18,C  23)      0.8145         0.026174   
    319. D(C  20,C  19,C  18,C   8)   -179.7615         0.026174   
    320. D(H  64,C  20,C  19,H  63)      0.5731         0.031202   
    321. D(H  64,C  20,C  19,C  18)   -178.9928         0.031202   
    322. D(C  21,C  20,C  19,H  63)    179.7917         0.031202   
    323. D(C  21,C  20,C  19,C  18)      0.2257         0.031202   
    324. D(N  27,C  21,C  20,H  64)     -1.5704         0.024557   
    325. D(C  22,C  21,C  20,H  64)    178.0141         0.024557   
    326. D(C  22,C  21,C  20,C  19)     -1.1983         0.024557   
    327. D(N  27,C  21,C  20,C  19)    179.2172         0.024557   
    328. D(H  65,C  22,C  21,N  27)      1.5255         0.024511   
    329. D(H  65,C  22,C  21,C  20)   -178.0591         0.024511   
    330. D(C  23,C  22,C  21,N  27)   -179.2738         0.024511   
    331. D(C  23,C  22,C  21,C  20)      1.1415         0.024511   
    332. D(H  66,C  23,C  22,H  65)     -0.6834         0.031171   
    333. D(C  18,C  23,C  22,H  65)    179.0954         0.031171   
    334. D(C  18,C  23,C  22,C  21)     -0.1111         0.031171   
    335. D(H  66,C  23,C  18,C  19)    178.9075         0.026303   
    336. D(H  66,C  23,C  22,C  21)   -179.8900         0.031171   
    337. D(H  66,C  23,C  18,C   8)     -0.5147         0.026303   
    338. D(C  22,C  23,C  18,C  19)     -0.8719         0.026303   
    339. D(C  22,C  23,C  18,C   8)    179.7059         0.026303   
    340. D(S  26,C  24,C   5,C   4)      3.6077         0.013254   
    341. D(S  26,C  24,C   5,C   0)   -176.4951         0.013254   
    342. D(S  25,C  24,C   5,C   4)   -176.4033         0.013254   
    343. D(S  25,C  24,C   5,C   0)      3.4939         0.013254   
    344. D(H  67,S  26,C  24,S  25)      0.5384         0.004503   
    345. D(H  67,S  26,C  24,C   5)   -179.4724         0.004503   
    346. D(C  32,N  27,C  21,C  22)   -167.5095         0.026230   
    347. D(C  32,N  27,C  21,C  20)     12.0619         0.026230   
    348. D(C  28,N  27,C  21,C  22)    -11.4135         0.026230   
    349. D(C  28,N  27,C  21,C  20)    168.1579         0.026230   
    350. D(C  37,C  28,N  27,C  32)   -128.0171         0.019387   
    351. D(C  37,C  28,N  27,C  21)     74.4022         0.019387   
    352. D(C  29,C  28,N  27,C  32)     50.7868         0.019387   
    353. D(C  29,C  28,N  27,C  21)   -106.7939         0.019387   
    354. D(C  40,C  29,C  28,C  37)     -2.5601         0.027289   
    355. D(C  40,C  29,C  28,N  27)    178.6175         0.027289   
    356. D(S  30,C  29,C  28,C  37)    176.3966         0.027289   
    357. D(S  30,C  29,C  28,N  27)     -2.4259         0.027289   
    358. D(C  31,S  30,C  29,C  40)    143.1426         0.004185   
    359. D(C  31,S  30,C  29,C  28)    -35.8018         0.004185   
    360. D(C  33,C  31,S  30,C  29)   -142.9307         0.004174   
    361. D(C  32,C  31,S  30,C  29)     36.0519         0.004174   
    362. D(C  36,C  32,C  31,C  33)      2.3706         0.027296   
    363. D(C  36,C  32,C  31,S  30)   -176.6227         0.027296   
    364. D(N  27,C  32,C  31,C  33)   -179.0618         0.027296   
    365. D(N  27,C  32,C  31,S  30)      1.9450         0.027296   
    366. D(C  36,C  32,N  27,C  28)    128.0480         0.019297   
    367. D(C  36,C  32,N  27,C  21)    -74.4127         0.019297   
    368. D(C  31,C  32,N  27,C  28)    -50.4968         0.019297   
    369. D(C  31,C  32,N  27,C  21)    107.0426         0.019297   
    370. D(C  34,C  33,C  31,S  30)    179.2226         0.027806   
    371. D(H  68,C  33,C  31,C  32)   -179.0171         0.027806   
    372. D(H  68,C  33,C  31,S  30)     -0.0431         0.027806   
    373. D(C  34,C  33,C  31,C  32)      0.2486         0.027806   
    374. D(H  69,C  34,C  33,H  68)     -1.1011         0.028717   
    375. D(H  69,C  34,C  33,C  31)    179.6393         0.028717   
    376. D(C  35,C  34,C  33,H  68)    177.3127         0.028717   
    377. D(C  35,C  34,C  33,C  31)     -1.9469         0.028717   
    378. D(H  70,C  35,C  34,H  69)      0.1718         0.027900   
    379. D(H  70,C  35,C  34,C  33)   -178.2349         0.027900   
    380. D(C  36,C  35,C  34,H  69)    179.4350         0.027900   
    381. D(C  36,C  35,C  34,C  33)      1.0283         0.027900   
    382. D(H  71,C  36,C  35,H  70)     -0.1114         0.028698   
    383. D(H  71,C  36,C  35,C  34)   -179.3771         0.028698   
    384. D(C  32,C  36,C  35,H  70)   -179.1374         0.028698   
    385. D(C  32,C  36,C  35,C  34)      1.5969         0.028698   
    386. D(H  71,C  36,C  32,C  31)    177.6653         0.028288   
    387. D(H  71,C  36,C  32,N  27)     -0.8561         0.028288   
    388. D(C  35,C  36,C  32,C  31)     -3.2915         0.028288   
    389. D(C  35,C  36,C  32,N  27)    178.1871         0.028288   
    390. D(H  72,C  37,C  28,C  29)   -177.6205         0.028278   
    391. D(H  72,C  37,C  28,N  27)      1.1650         0.028278   
    392. D(C  38,C  37,C  28,C  29)      3.3236         0.028278   
    393. D(C  38,C  37,C  28,N  27)   -177.8910         0.028278   
    394. D(H  73,C  38,C  37,H  72)      0.3006         0.028693   
    395. D(H  73,C  38,C  37,C  28)    179.3388         0.028693   
    396. D(C  39,C  38,C  37,H  72)    179.4990         0.028693   
    397. D(C  39,C  38,C  37,C  28)     -1.4629         0.028693   
    398. D(H  74,C  39,C  38,H  73)     -0.1940         0.027874   
    399. D(H  74,C  39,C  38,C  37)   -179.3896         0.027874   
    400. D(C  40,C  39,C  38,H  73)    178.0261         0.027874   
    401. D(C  40,C  39,C  38,C  37)     -1.1695         0.027874   
    402. D(H  75,C  40,C  39,H  74)      1.0713         0.028724   
    403. D(H  75,C  40,C  39,C  38)   -177.1574         0.028724   
    404. D(C  29,C  40,C  39,H  74)   -179.8418         0.028724   
    405. D(C  29,C  40,C  39,C  38)      1.9294         0.028724   
    406. D(H  75,C  40,C  29,S  30)      0.0938         0.027767   
    407. D(H  75,C  40,C  29,C  28)    179.0292         0.027767   
    408. D(C  39,C  40,C  29,S  30)   -179.0012         0.027767   
    409. D(C  39,C  40,C  29,C  28)     -0.0658         0.027767   
    410. D(C  46,N  41,C  15,C  16)   -175.2071         0.031784   
    411. D(C  46,N  41,C  15,C  14)      2.0444         0.031784   
    412. D(C  42,N  41,C  15,C  16)     -1.3839         0.031784   
    413. D(C  42,N  41,C  15,C  14)    175.8676         0.031784   
    414. D(C  47,C  42,N  41,C  46)   -126.9924         0.019097   
    415. D(C  47,C  42,N  41,C  15)     58.6974         0.019097   
    416. D(C  43,C  42,N  41,C  46)     51.2928         0.019097   
    417. D(C  43,C  42,N  41,C  15)   -123.0174         0.019097   
    418. D(C  50,C  43,C  42,C  47)     -4.6136         0.026740   
    419. D(C  50,C  43,C  42,N  41)    177.0930         0.026740   
    420. D(S  44,C  43,C  42,C  47)    174.5314         0.026740   
    421. D(S  44,C  43,C  42,N  41)     -3.7621         0.026740   
    422. D(C  45,S  44,C  43,C  50)    145.2692         0.004403   
    423. D(C  45,S  44,C  43,C  42)    -33.8626         0.004403   
    424. D(C  51,C  45,S  44,C  43)   -145.1602         0.004387   
    425. D(C  46,C  45,S  44,C  43)     34.4059         0.004387   
    426. D(C  54,C  46,C  45,C  51)      4.4121         0.026674   
    427. D(C  54,C  46,C  45,S  44)   -175.1605         0.026674   
    428. D(N  41,C  46,C  45,C  51)   -177.6648         0.026674   
    429. D(N  41,C  46,C  45,S  44)      2.7626         0.026674   
    430. D(C  54,C  46,N  41,C  42)    127.2097         0.019243   
    431. D(C  54,C  46,N  41,C  15)    -58.5011         0.019243   
    432. D(C  45,C  46,N  41,C  42)    -50.7019         0.019243   
    433. D(C  45,C  46,N  41,C  15)    123.5873         0.019243   
    434. D(H  76,C  47,C  42,C  43)   -175.8534         0.027517   
    435. D(H  76,C  47,C  42,N  41)      2.3770         0.027517   
    436. D(C  48,C  47,C  42,C  43)      3.6495         0.027517   
    437. D(C  48,C  47,C  42,N  41)   -178.1201         0.027517   
    438. D(H  77,C  48,C  47,H  76)     -0.0943         0.029697   
    439. D(H  77,C  48,C  47,C  42)   -179.5921         0.029697   
    440. D(C  49,C  48,C  47,H  76)    179.3686         0.029697   
    441. D(C  49,C  48,C  47,C  42)     -0.1292         0.029697   
    442. D(H  78,C  49,C  48,H  77)     -0.7172         0.027306   
    443. D(H  78,C  49,C  48,C  47)    179.8225         0.027306   
    444. D(C  50,C  49,C  48,H  77)    177.0762         0.027306   
    445. D(C  50,C  49,C  48,C  47)     -2.3841         0.027306   
    446. D(H  79,C  50,C  49,H  78)      1.0654         0.029259   
    447. D(H  79,C  50,C  49,C  48)   -176.7378         0.029259   
    448. D(C  43,C  50,C  49,H  78)    179.1949         0.029259   
    449. D(C  43,C  50,C  49,C  48)      1.3917         0.029259   
    450. D(H  79,C  50,C  43,S  44)      1.0709         0.027447   
    451. D(H  79,C  50,C  43,C  42)   -179.7849         0.027447   
    452. D(C  49,C  50,C  43,S  44)   -177.0766         0.027447   
    453. D(C  49,C  50,C  43,C  42)      2.0676         0.027447   
    454. D(H  80,C  51,C  45,C  46)    179.8139         0.027485   
    455. D(H  80,C  51,C  45,S  44)     -0.6134         0.027485   
    456. D(C  52,C  51,C  45,C  46)     -1.9540         0.027485   
    457. D(C  52,C  51,C  45,S  44)    177.6187         0.027485   
    458. D(H  81,C  52,C  51,H  80)     -1.0403         0.029227   
    459. D(H  81,C  52,C  51,C  45)   -179.2558         0.029227   
    460. D(C  53,C  52,C  51,H  80)    176.9568         0.029227   
    461. D(C  53,C  52,C  51,C  45)     -1.2587         0.029227   
    462. D(H  82,C  53,C  52,H  81)      0.7282         0.027375   
    463. D(H  82,C  53,C  52,C  51)   -177.2613         0.027375   
    464. D(C  54,C  53,C  52,H  81)   -179.9238         0.027375   
    465. D(C  54,C  53,C  52,C  51)      2.0868         0.027375   
    466. D(H  83,C  54,C  53,H  82)      0.3152         0.029725   
    467. D(H  83,C  54,C  53,C  52)   -179.0360         0.029725   
    468. D(C  46,C  54,C  53,H  82)    179.6901         0.029725   
    469. D(C  46,C  54,C  53,C  52)      0.3388         0.029725   
    470. D(H  83,C  54,C  46,C  45)    175.7705         0.027484   
    471. D(H  83,C  54,C  46,N  41)     -2.0736         0.027484   
    472. D(C  53,C  54,C  46,C  45)     -3.6106         0.027484   
    473. D(C  53,C  54,C  46,N  41)    178.5453         0.027484   
    -----------------------------------------------------------------

Number of atoms                         .... 84
Number of degrees of freedom            .... 473

         *************************************************************
         *                GEOMETRY OPTIMIZATION CYCLE   1            *
         *************************************************************
---------------------------------
CARTESIAN COORDINATES (ANGSTROEM)
---------------------------------
  C     -8.333822   -1.155245    0.736807
  C     -6.963099   -1.182251    0.616887
  C     -6.246647   -0.002666    0.447034
  C     -6.933716    1.202813    0.395292
  C     -8.307086    1.226846    0.509069
  C     -9.032105    0.049688    0.684392
  C     -4.777621   -0.021333    0.330219
  N     -4.143737    1.137943    0.288764
  C     -2.813781    1.110164    0.197555
  N     -2.122014   -0.037064    0.143396
  C     -2.842904   -1.140083    0.181652
  N     -4.161321   -1.206018    0.274805
  C     -2.104285   -2.419440    0.116552
  C     -2.788472   -3.639974    0.073894
  C     -2.109321   -4.822278    0.019764
  C     -0.690003   -4.834417    0.028575
  C     -0.006875   -3.590872    0.009511
  C     -0.705220   -2.421350    0.059823
  C     -2.087932    2.366702    0.155804
  C     -2.760732    3.585511    0.230331
  C     -2.084061    4.777971    0.186832
  C     -0.687641    4.806009    0.060652
  C     -0.008900    3.579720    0.006797
  C     -0.698503    2.394632    0.052577
  C    -10.511183    0.055196    0.816574
  S    -11.394709   -1.277056    1.106171
  S    -11.243179    1.631939    0.633431
  N     -0.000000    6.005407   -0.000000
  C      1.417401    6.038657    0.123952
  C      1.967188    6.523262    1.303655
  S      0.893260    7.132266    2.561655
  C     -0.325621    7.858833    1.515201
  C     -0.644526    7.235013    0.316088
  C     -0.948508    9.047336    1.863956
  C     -1.889102    9.603677    1.017473
  C     -2.181219    8.999151   -0.195031
  C     -1.546890    7.824118   -0.552687
  C      2.243891    5.625032   -0.906591
  C      3.615649    5.629973   -0.735382
  C      4.163554    6.077509    0.456588
  C      3.343893    6.542404    1.467875
  N      0.000000   -6.005407    0.000000
  C      1.422119   -6.055863   -0.078852
  C      1.986588   -6.758315   -1.139036
  S      0.969286   -7.628572   -2.269804
  C     -0.278340   -8.111362   -1.136783
  C     -0.637071   -7.276479   -0.082640
  C      2.220713   -5.457658    0.885643
  C      3.591332   -5.497806    0.748646
  C      4.161211   -6.135140   -0.345721
  C      3.367745   -6.773901   -1.276623
  C     -0.917040   -9.336091   -1.272345
  C     -1.862891   -9.727900   -0.346917
  C     -2.165554   -8.917036    0.738711
  C     -1.551248   -7.691272    0.875750
  H     -8.889167   -2.070756    0.874435
  H     -6.432945   -2.121490    0.659364
  H     -6.381133    2.120418    0.264840
  H     -8.809918    2.182024    0.466190
  H     -3.868003   -3.624928    0.068482
  H     -2.656523   -5.746612   -0.053584
  H      1.066347   -3.565317   -0.070197
  H     -0.191750   -1.472147    0.043286
  H     -3.835722    3.585751    0.331222
  H     -2.636972    5.699730    0.263635
  H      1.066607    3.561313   -0.058412
  H     -0.154984    1.462552    0.011446
  H    -12.495342    1.201541    0.826513
  H     -0.685613    9.538117    2.791190
  H     -2.377840   10.527587    1.294308
  H     -2.896167    9.450651   -0.868659
  H     -1.756318    7.345378   -1.499492
  H      1.800238    5.286730   -1.833060
  H      4.259022    5.296402   -1.537730
  H      5.236631    6.091523    0.589060
  H      3.768065    6.935282    2.381918
  H      1.763332   -4.974055    1.737245
  H      4.219126   -5.039748    1.499414
  H      5.236388   -6.163619   -0.453803
  H      3.814856   -7.314269   -2.099459
  H     -0.647005   -9.989942   -2.090007
  H     -2.346633  -10.688718   -0.453599
  H     -2.874481   -9.247862    1.484136
  H     -1.765707   -7.056500    1.723850

----------------------------
CARTESIAN COORDINATES (A.U.)
----------------------------
  NO LB      ZA    FRAG     MASS         X           Y           Z
   0 C     6.0000    0    12.011  -15.748641   -2.183096    1.392364
   1 C     6.0000    0    12.011  -13.158350   -2.234131    1.165748
   2 C     6.0000    0    12.011  -11.804452   -0.005038    0.844771
   3 C     6.0000    0    12.011  -13.102824    2.272987    0.746993
   4 C     6.0000    0    12.011  -15.698117    2.318403    0.962001
   5 C     6.0000    0    12.011  -17.068205    0.093896    1.293314
   6 C     6.0000    0    12.011   -9.028396   -0.040313    0.624024
   7 N     7.0000    0    14.007   -7.830527    2.150401    0.545685
   8 C     6.0000    0    12.011   -5.317275    2.097906    0.373325
   9 N     7.0000    0    14.007   -4.010025   -0.070041    0.270979
  10 C     6.0000    0    12.011   -5.372310   -2.154444    0.343272
  11 N     7.0000    0    14.007   -7.863756   -2.279044    0.519305
  12 C     6.0000    0    12.011   -3.976523   -4.572080    0.220252
  13 C     6.0000    0    12.011   -5.269449   -6.878555    0.139639
  14 C     6.0000    0    12.011   -3.986039   -9.112784    0.037349
  15 C     6.0000    0    12.011   -1.303917   -9.135724    0.054000
  16 C     6.0000    0    12.011   -0.012992   -6.785765    0.017973
  17 C     6.0000    0    12.011   -1.332672   -4.575689    0.113049
  18 C     6.0000    0    12.011   -3.945619    4.472418    0.294427
  19 C     6.0000    0    12.011   -5.217027    6.775633    0.435263
  20 C     6.0000    0    12.011   -3.938305    9.029056    0.353061
  21 C     6.0000    0    12.011   -1.299453    9.082041    0.114615
  22 C     6.0000    0    12.011   -0.016819    6.764690    0.012844
  23 C     6.0000    0    12.011   -1.319978    4.525199    0.099356
  24 C     6.0000    0    12.011  -19.863257    0.104306    1.543101
  25 S    16.0000    0    32.060  -21.532880   -2.413286    2.090360
  26 S    16.0000    0    32.060  -21.246529    3.083918    1.197010
  27 N     7.0000    0    14.007   -0.000000   11.348574   -0.000000
  28 C     6.0000    0    12.011    2.678499   11.411408    0.234235
  29 C     6.0000    0    12.011    3.717447   12.327179    2.463551
  30 S    16.0000    0    32.060    1.688018   13.478029    4.840827
  31 C     6.0000    0    12.011   -0.615334   14.851042    2.863315
  32 C     6.0000    0    12.011   -1.217977   13.672194    0.597319
  33 C     6.0000    0    12.011   -1.792420   17.096987    3.522366
  34 C     6.0000    0    12.011   -3.569886   18.148319    1.922746
  35 C     6.0000    0    12.011   -4.121906   17.005930   -0.368554
  36 C     6.0000    0    12.011   -2.923198   14.785441   -1.044427
  37 C     6.0000    0    12.011    4.240340   10.629771   -1.713209
  38 C     6.0000    0    12.011    6.832586   10.639107   -1.389671
  39 C     6.0000    0    12.011    7.867976   11.484828    0.862827
  40 C     6.0000    0    12.011    6.319043   12.363351    2.773881
  41 N     7.0000    0    14.007    0.000000  -11.348574    0.000000
  42 C     6.0000    0    12.011    2.687415  -11.443922   -0.149009
  43 C     6.0000    0    12.011    3.754107  -12.771365   -2.152465
  44 S    16.0000    0    32.060    1.831685  -14.415912   -4.289309
  45 C     6.0000    0    12.011   -0.525987  -15.328252   -2.148208
  46 C     6.0000    0    12.011   -1.203889  -13.750553   -0.156168
  47 C     6.0000    0    12.011    4.196540  -10.313479    1.673624
  48 C     6.0000    0    12.011    6.786635  -10.389347    1.414736
  49 C     6.0000    0    12.011    7.863550  -11.593734   -0.653319
  50 C     6.0000    0    12.011    6.364116  -12.800817   -2.412467
  51 C     6.0000    0    12.011   -1.732954  -17.642655   -2.404384
  52 C     6.0000    0    12.011   -3.520353  -18.383066   -0.655578
  53 C     6.0000    0    12.011   -4.092304  -16.850756    1.395962
  54 C     6.0000    0    12.011   -2.931434  -14.534397    1.654928
  55 H     1.0000    0     1.008  -16.798092   -3.913162    1.652442
  56 H     1.0000    0     1.008  -12.156505   -4.009035    1.246017
  57 H     1.0000    0     1.008  -12.058595    4.007009    0.500475
  58 H     1.0000    0     1.008  -16.648331    4.123427    0.880972
  59 H     1.0000    0     1.008   -7.309466   -6.850121    0.129412
  60 H     1.0000    0     1.008   -5.020101  -10.859524   -0.101259
  61 H     1.0000    0     1.008    2.015104   -6.737472   -0.132654
  62 H     1.0000    0     1.008   -0.362355   -2.781954    0.081800
  63 H     1.0000    0     1.008   -7.248463    6.776087    0.625918
  64 H     1.0000    0     1.008   -4.983155   10.770929    0.498199
  65 H     1.0000    0     1.008    2.015596    6.729906   -0.110382
  66 H     1.0000    0     1.008   -0.292878    2.763823    0.021629
  67 H     1.0000    0     1.008  -23.612775    2.270584    1.561882
  68 H     1.0000    0     1.008   -1.295621   18.024429    5.274584
  69 H     1.0000    0     1.008   -4.493466   19.894256    2.445888
  70 H     1.0000    0     1.008   -5.472962   17.859143   -1.641528
  71 H     1.0000    0     1.008   -3.318960   13.880752   -2.833629
  72 H     1.0000    0     1.008    3.401956    9.990473   -3.463981
  73 H     1.0000    0     1.008    8.048386   10.008749   -2.905888
  74 H     1.0000    0     1.008    9.895798   11.511311    1.113162
  75 H     1.0000    0     1.008    7.120611   13.105783    4.501172
  76 H     1.0000    0     1.008    3.332215   -9.399602    3.282918
  77 H     1.0000    0     1.008    7.972993   -9.523744    2.833482
  78 H     1.0000    0     1.008    9.895339  -11.647552   -0.857564
  79 H     1.0000    0     1.008    7.209032  -13.821965   -3.967403
  80 H     1.0000    0     1.008   -1.222663  -18.878254   -3.949541
  81 H     1.0000    0     1.008   -4.434494  -20.198750   -0.857178
  82 H     1.0000    0     1.008   -5.431982  -17.475927    2.804610
  83 H     1.0000    0     1.008   -3.336702  -13.334853    3.257604

--------------------------------
INTERNAL COORDINATES (ANGSTROEM)
--------------------------------
 C      0   0   0     0.000000000000     0.00000000     0.00000000
 C      1   0   0     1.376223730301     0.00000000     0.00000000
 C      2   1   0     1.390530384001   120.47576915     0.00000000
 C      3   2   1     1.388495778293   119.08344943   359.77349197
 C      4   3   2     1.378284232114   120.33979955   359.90837661
 C      5   4   3     1.393590040464   120.93430998     0.32939755
 C      3   2   1     1.473781110522   120.83124849   179.43276664
 N      7   3   2     1.321910844870   117.99227012   185.84566870
 C      8   7   3     1.333369142757   117.52713380   179.29330223
 N      9   8   7     1.340748874111   122.35913998     0.24069487
 C     10   9   8     1.318254734788   115.63468946     0.21896321
 N     11  10   9     1.323346956910   126.05397237   359.58580917
 C     11  10   9     1.478699377119   116.71127895   179.70387183
 C     13  11  10     1.399869659816   120.76783352   183.66602528
 C     14  13  11     1.364557531601   120.89007921   180.29246652
 C     15  14  13     1.419396692221   120.32101585     1.06749707
 C     16  15  14     1.418954456448   118.28287072   356.09218288
 C     17  16  15     1.363083714081   120.31719642     3.71965907
 C      9   8   7     1.451718391959   118.85846426   180.26257362
 C     19   9   8     1.394170045298   120.92107696     0.99323594
 C     20  19   9     1.371763947596   121.34591231   180.23846535
 C     21  20  19     1.402389929964   120.75836424     0.22573279
 C     22  21  20     1.402631205116   117.89290467   358.80172455
 C     23  22  21     1.371889170444   120.71105026     1.14153212
 C      6   5   4     1.484982602883   121.75238925   179.65466352
 S     25   6   5     1.624617437414   123.67620353   183.59669132
 S     25   6   5     1.747992283743   114.27512245     3.60766251
 N     22  21  20     1.383865422748   121.06800533   179.21723813
 C     28  22  21     1.423198511949   120.75084668   168.15786939
 C     29  28  22     1.388815579047   118.44972940   253.20609903
 S     30  29  28     1.762603249434   119.05302969   357.57414250
 C     31  30  29     1.763133042840    98.04697989   324.19823962
 C     32  31  30     1.388785206145   119.08475924    36.05190122
 C     32  31  30     1.386418607187   120.96764353   217.06932426
 C     34  32  31     1.382304345282   119.78124338   179.22258420
 C     35  34  32     1.385983322328   120.23779305   358.05305931
 C     36  35  34     1.382386477957   120.02477184     1.02831914
 C     29  28  22     1.384265653437   121.52084126    74.40220520
 C     38  29  28     1.382409668245   119.94649861   182.10904197
 C     39  38  29     1.386103492045   119.99303357   358.53711597
 C     40  39  38     1.382269739917   120.22127007   358.83048738
 N     16  15  14     1.359462497572   120.98168165   178.77633630
 C     42  16  15     1.425196381429   122.55557709   175.86758999
 C     43  42  16     1.391421812120   117.69928523   236.98262583
 S     44  43  42     1.752395033021   120.45527406   356.23792855
 C     45  44  43     1.753109860099    97.63513350   326.13744183
 C     46  45  44     1.391737103010   120.51440995    34.40593960
 C     43  42  16     1.387751610154   121.36602369    58.69739102
 C     48  43  42     1.378033473510   119.38730135   181.87989611
 C     49  48  43     1.388739356118   119.99083833   359.87080680
 C     50  49  48     1.379920798703   120.53648690   357.61593890
 C     46  45  44     1.387903720154   120.48999045   214.83979932
 C     52  46  45     1.380059445727   120.02853951   177.61868306
 C     53  52  46     1.388414303705   120.52605049   358.74131334
 C     54  53  52     1.377914797131   120.00741205     2.08675366
 H      1   2   3     1.079588701243   120.45197208   180.35807431
 H      2   1   3     1.079368370438   120.18897913   179.66683864
 H      4   3   2     1.079056718445   119.30071537   179.92324422
 H      5   4   3     1.080297797436   118.42042751   179.90243942
 H     14  13  11     1.079649208340   118.46999362     1.27696836
 H     15  14  13     1.076663820544   119.57742914   182.52694749
 H     17  16  15     1.076481516871   120.11734883   185.28117209
 H     18  17  16     1.079311077941   120.68175051   180.14732512
 H     20  19   9     1.079713699029   119.05565134     0.67022712
 H     21  20  19     1.077612898213   119.22275977   181.00717025
 H     23  22  21     1.077639762676   120.01353146   181.94089015
 H     24  23  22     1.079757872389   119.43207168   180.11004689
 H     27  25   6     1.338071938866    94.96896644   180.52762639
 H     34  32  31     1.081546549032   119.69956839   359.95686246
 H     35  34  32     1.081254748961   119.64942603   179.63927330
 H     36  35  34     1.081101218947   120.15411802   181.76508782
 H     37  36  35     1.081430685459   120.92675527   180.62289004
 H     38  29  28     1.081489931535   119.09748809     1.16496634
 H     39  38  29     1.081184468027   119.83262346   179.33875125
 H     40  39  38     1.081313841919   120.11976526   180.61036586
 H     41  40  39     1.081549692286   120.52503979   182.84258893
 H     48  43  42     1.080876875638   119.79745623     2.37695362
 H     49  48  43     1.080552486829   119.76498706   180.40791933
 H     50  49  48     1.080970737949   119.93653369   179.82253242
 H     51  50  49     1.081187408627   120.46236336   183.26221855
 H     52  46  45     1.081207821094   119.50992802   359.38659833
 H     53  52  46     1.080999636155   119.52912794   180.74417394
 H     54  53  52     1.080593142208   120.23883429   182.73872261
 H     55  54  53     1.080833261013   120.79893030   180.96398319

---------------------------
INTERNAL COORDINATES (A.U.)
---------------------------
 C      0   0   0     0.000000000000     0.00000000     0.00000000
 C      1   0   0     2.600685949272     0.00000000     0.00000000
 C      2   1   0     2.627721606659   120.47576915     0.00000000
 C      3   2   1     2.623876759079   119.08344943   359.77349197
 C      4   3   2     2.604579733397   120.33979955   359.90837661
 C      5   4   3     2.633503519437   120.93430998     0.32939755
 C      3   2   1     2.785042680234   120.83124849   179.43276664
 N      7   3   2     2.498049470265   117.99227012   185.84566870
 C      8   7   3     2.519702515232   117.52713380   179.29330223
 N      9   8   7     2.533648186432   122.35913998     0.24069487
 C     10   9   8     2.491140423494   115.63468946     0.21896321
 N     11  10   9     2.500763328718   126.05397237   359.58580917
 C     11  10   9     2.794336857155   116.71127895   179.70387183
 C     13  11  10     2.645370280237   120.76783352   183.66602528
 C     14  13  11     2.578640028705   120.89007921   180.29246652
 C     15  14  13     2.682271023692   120.32101585     1.06749707
 C     16  15  14     2.681435319193   118.28287072   356.09218288
 C     17  16  15     2.575854917221   120.31719642     3.71965907
 C      9   8   7     2.743350184380   118.85846426   180.26257362
 C     19   9   8     2.634599569730   120.92107696     0.99323594
 C     20  19   9     2.592258181343   121.34591231   180.23846535
 C     21  20  19     2.650132900601   120.75836424     0.22573279
 C     22  21  20     2.650588844561   117.89290467   358.80172455
 C     23  22  21     2.592494818232   120.71105026     1.14153212
 C      6   5   4     2.806210433087   121.75238925   179.65466352
 S     25   6   5     3.070082029105   123.67620353   183.59669132
 S     25   6   5     3.303226700483   114.27512245     3.60766251
 N     22  21  20     2.615126655197   121.06800533   179.21723813
 C     28  22  21     2.689455421787   120.75084668   168.15786939
 C     29  28  22     2.624481094922   118.44972940   253.20609903
 S     30  29  28     3.330837424190   119.05302969   357.57414250
 C     31  30  29     3.331838588635    98.04697989   324.19823962
 C     32  31  30     2.624423698455   119.08475924    36.05190122
 C     32  31  30     2.619951474557   120.96764353   217.06932426
 C     34  32  31     2.612176646313   119.78124338   179.22258420
 C     35  34  32     2.619128905382   120.23779305   358.05305931
 C     36  35  34     2.612331854575   120.02477184     1.02831914
 C     29  28  22     2.615882981589   121.52084126    74.40220520
 C     38  29  28     2.612375677869   119.94649861   182.10904197
 C     39  38  29     2.619355993237   119.99303357   358.53711597
 C     40  39  38     2.612111251650   120.22127007   358.83048738
 N     16  15  14     2.569011809748   120.98168165   178.77633630
 C     42  16  15     2.693230847957   122.55557709   175.86758999
 C     43  42  16     2.629406161671   117.69928523   236.98262583
 S     44  43  42     3.311546690853   120.45527406   356.23792855
 C     45  44  43     3.312897518263    97.63513350   326.13744183
 C     46  45  44     2.630001975105   120.51440995    34.40593960
 C     43  42  16     2.622470485100   121.36602369    58.69739102
 C     48  43  42     2.604105868310   119.38730135   181.87989611
 C     49  48  43     2.624337054461   119.99083833   359.87080680
 C     50  49  48     2.607672396051   120.53648690   357.61593890
 C     46  45  44     2.622757931342   120.48999045   214.83979932
 C     52  46  45     2.607934400956   120.02853951   177.61868306
 C     53  52  46     2.623722794422   120.52605049   358.74131334
 C     54  53  52     2.603881602456   120.00741205     2.08675366
 H      1   2   3     2.040126982624   120.45197208   180.35807431
 H      2   1   3     2.039710617746   120.18897913   179.66683864
 H      4   3   2     2.039121680830   119.30071537   179.92324422
 H      5   4   3     2.041466980233   118.42042751   179.90243942
 H     14  13  11     2.040241324467   118.46999362     1.27696836
 H     15  14  13     2.034599759129   119.57742914   182.52694749
 H     17  16  15     2.034255255114   120.11734883   185.28117209
 H     18  17  16     2.039602350616   120.68175051   180.14732512
 H     20  19   9     2.040363194207   119.05565134     0.67022712
 H     21  20  19     2.036393256004   119.22275977   181.00717025
 H     23  22  21     2.036444022481   120.01353146   181.94089015
 H     24  23  22     2.040446669761   119.43207168   180.11004689
 H     27  25   6     2.528589511941    94.96896644   180.52762639
 H     34  32  31     2.043826778758   119.69956839   359.95686246
 H     35  34  32     2.043275356537   119.64942603   179.63927330
 H     36  35  34     2.042985226859   120.15411802   181.76508782
 H     37  36  35     2.043607828336   120.92675527   180.62289004
 H     38  29  28     2.043719787194   119.09748809     1.16496634
 H     39  38  29     2.043142544821   119.83262346   179.33875125
 H     40  39  38     2.043387026044   120.11976526   180.61036586
 H     41  40  39     2.043832718647   120.52503979   182.84258893
 H     48  43  42     2.042561279444   119.79745623     2.37695362
 H     49  48  43     2.041948273435   119.76498706   180.40791933
 H     50  49  48     2.042738653506   119.93653369   179.82253242
 H     51  50  49     2.043148101748   120.46236336   183.26221855
 H     52  46  45     2.043186675722   119.50992802   359.38659833
 H     53  52  46     2.042793263201   119.52912794   180.74417394
 H     54  53  52     2.042025100967   120.23883429   182.73872261
 H     55  54  53     2.042478859748   120.79893030   180.96398319

---------------------
BASIS SET INFORMATION
---------------------
There are 4 groups of distinct atoms

 Group   1 Type C   : 11s6p2d1f contracted to 5s3p2d1f pattern {62111/411/11/1}
 Group   2 Type N   : 11s6p2d1f contracted to 5s3p2d1f pattern {62111/411/11/1}
 Group   3 Type S   : 14s9p3d1f contracted to 5s5p2d1f pattern {73211/51111/21/1}
 Group   4 Type H   : 5s1p contracted to 3s1p pattern {311/1}

Atom   0C    basis set group =>   1
Atom   1C    basis set group =>   1
Atom   2C    basis set group =>   1
Atom   3C    basis set group =>   1
Atom   4C    basis set group =>   1
Atom   5C    basis set group =>   1
Atom   6C    basis set group =>   1
Atom   7N    basis set group =>   2
Atom   8C    basis set group =>   1
Atom   9N    basis set group =>   2
Atom  10C    basis set group =>   1
Atom  11N    basis set group =>   2
Atom  12C    basis set group =>   1
Atom  13C    basis set group =>   1
Atom  14C    basis set group =>   1
Atom  15C    basis set group =>   1
Atom  16C    basis set group =>   1
Atom  17C    basis set group =>   1
Atom  18C    basis set group =>   1
Atom  19C    basis set group =>   1
Atom  20C    basis set group =>   1
Atom  21C    basis set group =>   1
Atom  22C    basis set group =>   1
Atom  23C    basis set group =>   1
Atom  24C    basis set group =>   1
Atom  25S    basis set group =>   3
Atom  26S    basis set group =>   3
Atom  27N    basis set group =>   2
Atom  28C    basis set group =>   1
Atom  29C    basis set group =>   1
Atom  30S    basis set group =>   3
Atom  31C    basis set group =>   1
Atom  32C    basis set group =>   1
Atom  33C    basis set group =>   1
Atom  34C    basis set group =>   1
Atom  35C    basis set group =>   1
Atom  36C    basis set group =>   1
Atom  37C    basis set group =>   1
Atom  38C    basis set group =>   1
Atom  39C    basis set group =>   1
Atom  40C    basis set group =>   1
Atom  41N    basis set group =>   2
Atom  42C    basis set group =>   1
Atom  43C    basis set group =>   1
Atom  44S    basis set group =>   3
Atom  45C    basis set group =>   1
Atom  46C    basis set group =>   1
Atom  47C    basis set group =>   1
Atom  48C    basis set group =>   1
Atom  49C    basis set group =>   1
Atom  50C    basis set group =>   1
Atom  51C    basis set group =>   1
Atom  52C    basis set group =>   1
Atom  53C    basis set group =>   1
Atom  54C    basis set group =>   1
Atom  55H    basis set group =>   4
Atom  56H    basis set group =>   4
Atom  57H    basis set group =>   4
Atom  58H    basis set group =>   4
Atom  59H    basis set group =>   4
Atom  60H    basis set group =>   4
Atom  61H    basis set group =>   4
Atom  62H    basis set group =>   4
Atom  63H    basis set group =>   4
Atom  64H    basis set group =>   4
Atom  65H    basis set group =>   4
Atom  66H    basis set group =>   4
Atom  67H    basis set group =>   4
Atom  68H    basis set group =>   4
Atom  69H    basis set group =>   4
Atom  70H    basis set group =>   4
Atom  71H    basis set group =>   4
Atom  72H    basis set group =>   4
Atom  73H    basis set group =>   4
Atom  74H    basis set group =>   4
Atom  75H    basis set group =>   4
Atom  76H    basis set group =>   4
Atom  77H    basis set group =>   4
Atom  78H    basis set group =>   4
Atom  79H    basis set group =>   4
Atom  80H    basis set group =>   4
Atom  81H    basis set group =>   4
Atom  82H    basis set group =>   4
Atom  83H    basis set group =>   4
---------------------------------
AUXILIARY/J BASIS SET INFORMATION
---------------------------------
There are 4 groups of distinct atoms

 Group   1 Type C   : 12s5p4d2f1g contracted to 6s4p3d1f1g pattern {711111/2111/211/2/1}
 Group   2 Type N   : 12s5p4d2f1g contracted to 6s4p3d1f1g pattern {711111/2111/211/2/1}
 Group   3 Type S   : 14s5p5d2f1g contracted to 8s4p3d1f1g pattern {71111111/2111/311/2/1}
 Group   4 Type H   : 5s2p1d contracted to 3s1p1d pattern {311/2/1}

Atom   0C    basis set group =>   1
Atom   1C    basis set group =>   1
Atom   2C    basis set group =>   1
Atom   3C    basis set group =>   1
Atom   4C    basis set group =>   1
Atom   5C    basis set group =>   1
Atom   6C    basis set group =>   1
Atom   7N    basis set group =>   2
Atom   8C    basis set group =>   1
Atom   9N    basis set group =>   2
Atom  10C    basis set group =>   1
Atom  11N    basis set group =>   2
Atom  12C    basis set group =>   1
Atom  13C    basis set group =>   1
Atom  14C    basis set group =>   1
Atom  15C    basis set group =>   1
Atom  16C    basis set group =>   1
Atom  17C    basis set group =>   1
Atom  18C    basis set group =>   1
Atom  19C    basis set group =>   1
Atom  20C    basis set group =>   1
Atom  21C    basis set group =>   1
Atom  22C    basis set group =>   1
Atom  23C    basis set group =>   1
Atom  24C    basis set group =>   1
Atom  25S    basis set group =>   3
Atom  26S    basis set group =>   3
Atom  27N    basis set group =>   2
Atom  28C    basis set group =>   1
Atom  29C    basis set group =>   1
Atom  30S    basis set group =>   3
Atom  31C    basis set group =>   1
Atom  32C    basis set group =>   1
Atom  33C    basis set group =>   1
Atom  34C    basis set group =>   1
Atom  35C    basis set group =>   1
Atom  36C    basis set group =>   1
Atom  37C    basis set group =>   1
Atom  38C    basis set group =>   1
Atom  39C    basis set group =>   1
Atom  40C    basis set group =>   1
Atom  41N    basis set group =>   2
Atom  42C    basis set group =>   1
Atom  43C    basis set group =>   1
Atom  44S    basis set group =>   3
Atom  45C    basis set group =>   1
Atom  46C    basis set group =>   1
Atom  47C    basis set group =>   1
Atom  48C    basis set group =>   1
Atom  49C    basis set group =>   1
Atom  50C    basis set group =>   1
Atom  51C    basis set group =>   1
Atom  52C    basis set group =>   1
Atom  53C    basis set group =>   1
Atom  54C    basis set group =>   1
Atom  55H    basis set group =>   4
Atom  56H    basis set group =>   4
Atom  57H    basis set group =>   4
Atom  58H    basis set group =>   4
Atom  59H    basis set group =>   4
Atom  60H    basis set group =>   4
Atom  61H    basis set group =>   4
Atom  62H    basis set group =>   4
Atom  63H    basis set group =>   4
Atom  64H    basis set group =>   4
Atom  65H    basis set group =>   4
Atom  66H    basis set group =>   4
Atom  67H    basis set group =>   4
Atom  68H    basis set group =>   4
Atom  69H    basis set group =>   4
Atom  70H    basis set group =>   4
Atom  71H    basis set group =>   4
Atom  72H    basis set group =>   4
Atom  73H    basis set group =>   4
Atom  74H    basis set group =>   4
Atom  75H    basis set group =>   4
Atom  76H    basis set group =>   4
Atom  77H    basis set group =>   4
Atom  78H    basis set group =>   4
Atom  79H    basis set group =>   4
Atom  80H    basis set group =>   4
Atom  81H    basis set group =>   4
Atom  82H    basis set group =>   4
Atom  83H    basis set group =>   4
n1173:rank32.orca_gtoint_mpi: Failed to modify UD QP to INIT on mlx5_0: Operation not permitted
n1173:rank33.orca_gtoint_mpi: Failed to modify UD QP to INIT on mlx5_0: Operation not permitted
n1173:rank34.orca_gtoint_mpi: Failed to modify UD QP to INIT on mlx5_0: Operation not permitted
n1173:rank32.orca_gtoint_mpi: Failed to modify UD QP to INIT on mlx5_0: Operation not permitted
n1173:rank35.orca_gtoint_mpi: Failed to modify UD QP to INIT on mlx5_0: Operation not permitted
n1173:rank33.orca_gtoint_mpi: Failed to modify UD QP to INIT on mlx5_0: Operation not permitted
n1173:rank32.orca_gtoint_mpi: Failed to modify UD QP to INIT on mlx5_0: Operation not permitted
n1173:rank34.orca_gtoint_mpi: Failed to modify UD QP to INIT on mlx5_0: Operation not permitted
n1173:rank33.orca_gtoint_mpi: Failed to modify UD QP to INIT on mlx5_0: Operation not permitted
n1173:rank35.orca_gtoint_mpi: Failed to modify UD QP to INIT on mlx5_0: Operation not permitted
n1173:rank34.orca_gtoint_mpi: Failed to modify UD QP to INIT on mlx5_0: Operation not permitted
n1173:rank35.orca_gtoint_mpi: Failed to modify UD QP to INIT on mlx5_0: Operation not permitted
n1173:rank32.orca_gtoint_mpi: Failed to modify UD QP to INIT on mlx5_0: Operation not permitted
n1173:rank34.orca_gtoint_mpi: Failed to modify UD QP to INIT on mlx5_0: Operation not permitted
n1173:rank33.orca_gtoint_mpi: Failed to modify UD QP to INIT on mlx5_0: Operation not permitted
n1173:rank35.orca_gtoint_mpi: Failed to modify UD QP to INIT on mlx5_0: Operation not permitted
n1141:rank11.orca_gtoint_mpi: Failed to modify UD QP to INIT on mlx5_0: Operation not permitted
n1141:rank11.orca_gtoint_mpi: Failed to modify UD QP to INIT on mlx5_0: Operation not permitted
n1141:rank26.orca_gtoint_mpi: Failed to modify UD QP to INIT on mlx5_0: Operation not permitted
n1141:rank4.orca_gtoint_mpi: Failed to modify UD QP to INIT on mlx5_0: Operation not permitted
n1141:rank11.orca_gtoint_mpi: Failed to modify UD QP to INIT on mlx5_0: Operation not permitted
n1141:rank14.orca_gtoint_mpi: Failed to modify UD QP to INIT on mlx5_0: Operation not permitted
n1141:rank26.orca_gtoint_mpi: Failed to modify UD QP to INIT on mlx5_0: Operation not permitted
n1141:rank29.orca_gtoint_mpi: Failed to modify UD QP to INIT on mlx5_0: Operation not permitted
n1141:rank4.orca_gtoint_mpi: Failed to modify UD QP to INIT on mlx5_0: Operation not permitted
n1141:rank26.orca_gtoint_mpi: Failed to modify UD QP to INIT on mlx5_0: Operation not permitted
n1141:rank4.orca_gtoint_mpi: Failed to modify UD QP to INIT on mlx5_0: Operation not permitted
n1141:rank29.orca_gtoint_mpi: Failed to modify UD QP to INIT on mlx5_0: Operation not permitted
n1141:rank31.orca_gtoint_mpi: Failed to modify UD QP to INIT on mlx5_0: Operation not permitted
n1141:rank14.orca_gtoint_mpi: Failed to modify UD QP to INIT on mlx5_0: Operation not permitted
n1141:rank29.orca_gtoint_mpi: Failed to modify UD QP to INIT on mlx5_0: Operation not permitted
n1141:rank27.orca_gtoint_mpi: Failed to modify UD QP to INIT on mlx5_0: Operation not permitted
n1141:rank14.orca_gtoint_mpi: Failed to modify UD QP to INIT on mlx5_0: Operation not permitted
n1141:rank31.orca_gtoint_mpi: Failed to modify UD QP to INIT on mlx5_0: Operation not permitted
n1141:rank27.orca_gtoint_mpi: Failed to modify UD QP to INIT on mlx5_0: Operation not permitted
n1141:rank31.orca_gtoint_mpi: Failed to modify UD QP to INIT on mlx5_0: Operation not permitted
n1141:rank13.orca_gtoint_mpi: Failed to modify UD QP to INIT on mlx5_0: Operation not permitted
n1141:rank27.orca_gtoint_mpi: Failed to modify UD QP to INIT on mlx5_0: Operation not permitted
n1141:rank11.orca_gtoint_mpi: Failed to modify UD QP to INIT on mlx5_0: Operation not permitted
n1141:rank13.orca_gtoint_mpi: Failed to modify UD QP to INIT on mlx5_0: Operation not permitted
n1141:rank4.orca_gtoint_mpi: Failed to modify UD QP to INIT on mlx5_0: Operation not permitted
n1141:rank26.orca_gtoint_mpi: Failed to modify UD QP to INIT on mlx5_0: Operation not permitted
n1141:rank29.orca_gtoint_mpi: Failed to modify UD QP to INIT on mlx5_0: Operation not permitted
n1141:rank14.orca_gtoint_mpi: Failed to modify UD QP to INIT on mlx5_0: Operation not permitted
n1141:rank13.orca_gtoint_mpi: Failed to modify UD QP to INIT on mlx5_0: Operation not permitted
n1141:rank31.orca_gtoint_mpi: Failed to modify UD QP to INIT on mlx5_0: Operation not permitted
n1141:rank27.orca_gtoint_mpi: Failed to modify UD QP to INIT on mlx5_0: Operation not permitted
n1141:rank13.orca_gtoint_mpi: Failed to modify UD QP to INIT on mlx5_0: Operation not permitted
n1141:rank0.orca_gtoint_mpi: Failed to modify UD QP to INIT on mlx5_0: Operation not permitted
n1141:rank10.orca_gtoint_mpi: Failed to modify UD QP to INIT on mlx5_0: Operation not permitted
n1141:rank6.orca_gtoint_mpi: Failed to modify UD QP to INIT on mlx5_0: Operation not permitted
n1141:rank5.orca_gtoint_mpi: Failed to modify UD QP to INIT on mlx5_0: Operation not permitted
n1141:rank1.orca_gtoint_mpi: Failed to modify UD QP to INIT on mlx5_0: Operation not permitted
n1141:rank0.orca_gtoint_mpi: Failed to modify UD QP to INIT on mlx5_0: Operation not permitted
n1141:rank10.orca_gtoint_mpi: Failed to modify UD QP to INIT on mlx5_0: Operation not permitted
n1141:rank6.orca_gtoint_mpi: Failed to modify UD QP to INIT on mlx5_0: Operation not permitted
n1141:rank5.orca_gtoint_mpi: Failed to modify UD QP to INIT on mlx5_0: Operation not permitted
n1141:rank1.orca_gtoint_mpi: Failed to modify UD QP to INIT on mlx5_0: Operation not permitted
n1141:rank0.orca_gtoint_mpi: Failed to modify UD QP to INIT on mlx5_0: Operation not permitted
n1141:rank6.orca_gtoint_mpi: Failed to modify UD QP to INIT on mlx5_0: Operation not permitted
n1141:rank10.orca_gtoint_mpi: Failed to modify UD QP to INIT on mlx5_0: Operation not permitted
n1141:rank5.orca_gtoint_mpi: Failed to modify UD QP to INIT on mlx5_0: Operation not permitted
n1141:rank1.orca_gtoint_mpi: Failed to modify UD QP to INIT on mlx5_0: Operation not permitted
n1141:rank1.orca_gtoint_mpi: Failed to modify UD QP to INIT on mlx5_0: Operation not permitted
n1141:rank0.orca_gtoint_mpi: Failed to modify UD QP to INIT on mlx5_0: Operation not permitted
n1141:rank10.orca_gtoint_mpi: Failed to modify UD QP to INIT on mlx5_0: Operation not permitted
n1141:rank6.orca_gtoint_mpi: Failed to modify UD QP to INIT on mlx5_0: Operation not permitted
n1141:rank5.orca_gtoint_mpi: Failed to modify UD QP to INIT on mlx5_0: Operation not permitted
n1141:rank19.orca_gtoint_mpi: Failed to modify UD QP to INIT on mlx5_0: Operation not permitted
n1141:rank2.orca_gtoint_mpi: Failed to modify UD QP to INIT on mlx5_0: Operation not permitted
n1141:rank12.orca_gtoint_mpi: Failed to modify UD QP to INIT on mlx5_0: Operation not permitted
n1141:rank21.orca_gtoint_mpi: Failed to modify UD QP to INIT on mlx5_0: Operation not permitted
n1141:rank19.orca_gtoint_mpi: Failed to modify UD QP to INIT on mlx5_0: Operation not permitted
n1141:rank2.orca_gtoint_mpi: Failed to modify UD QP to INIT on mlx5_0: Operation not permitted
n1141:rank12.orca_gtoint_mpi: Failed to modify UD QP to INIT on mlx5_0: Operation not permitted
n1141:rank30.orca_gtoint_mpi: Failed to modify UD QP to INIT on mlx5_0: Operation not permitted
n1141:rank19.orca_gtoint_mpi: Failed to modify UD QP to INIT on mlx5_0: Operation not permitted
n1141:rank21.orca_gtoint_mpi: Failed to modify UD QP to INIT on mlx5_0: Operation not permitted
n1141:rank9.orca_gtoint_mpi: Failed to modify UD QP to INIT on mlx5_0: Operation not permitted
n1141:rank2.orca_gtoint_mpi: Failed to modify UD QP to INIT on mlx5_0: Operation not permitted
n1141:rank15.orca_gtoint_mpi: Failed to modify UD QP to INIT on mlx5_0: Operation not permitted
n1141:rank12.orca_gtoint_mpi: Failed to modify UD QP to INIT on mlx5_0: Operation not permitted
n1141:rank20.orca_gtoint_mpi: Failed to modify UD QP to INIT on mlx5_0: Operation not permitted
n1141:rank3.orca_gtoint_mpi: Failed to modify UD QP to INIT on mlx5_0: Operation not permitted
n1141:rank8.orca_gtoint_mpi: Failed to modify UD QP to INIT on mlx5_0: Operation not permitted
n1141:rank22.orca_gtoint_mpi: Failed to modify UD QP to INIT on mlx5_0: Operation not permitted
n1141:rank21.orca_gtoint_mpi: Failed to modify UD QP to INIT on mlx5_0: Operation not permitted
n1141:rank30.orca_gtoint_mpi: Failed to modify UD QP to INIT on mlx5_0: Operation not permitted
n1141:rank23.orca_gtoint_mpi: Failed to modify UD QP to INIT on mlx5_0: Operation not permitted
n1141:rank18.orca_gtoint_mpi: Failed to modify UD QP to INIT on mlx5_0: Operation not permitted
n1141:rank28.orca_gtoint_mpi: Failed to modify UD QP to INIT on mlx5_0: Operation not permitted
n1141:rank17.orca_gtoint_mpi: Failed to modify UD QP to INIT on mlx5_0: Operation not permitted
n1141:rank24.orca_gtoint_mpi: Failed to modify UD QP to INIT on mlx5_0: Operation not permitted
n1141:rank25.orca_gtoint_mpi: Failed to modify UD QP to INIT on mlx5_0: Operation not permitted
n1141:rank9.orca_gtoint_mpi: Failed to modify UD QP to INIT on mlx5_0: Operation not permitted
n1141:rank7.orca_gtoint_mpi: Failed to modify UD QP to INIT on mlx5_0: Operation not permitted
n1141:rank30.orca_gtoint_mpi: Failed to modify UD QP to INIT on mlx5_0: Operation not permitted
n1141:rank15.orca_gtoint_mpi: Failed to modify UD QP to INIT on mlx5_0: Operation not permitted
n1141:rank16.orca_gtoint_mpi: Failed to modify UD QP to INIT on mlx5_0: Operation not permitted
n1141:rank20.orca_gtoint_mpi: Failed to modify UD QP to INIT on mlx5_0: Operation not permitted
n1141:rank23.orca_gtoint_mpi: Failed to modify UD QP to INIT on mlx5_0: Operation not permitted
n1141:rank3.orca_gtoint_mpi: Failed to modify UD QP to INIT on mlx5_0: Operation not permitted
n1141:rank28.orca_gtoint_mpi: Failed to modify UD QP to INIT on mlx5_0: Operation not permitted
n1141:rank8.orca_gtoint_mpi: Failed to modify UD QP to INIT on mlx5_0: Operation not permitted
n1141:rank22.orca_gtoint_mpi: Failed to modify UD QP to INIT on mlx5_0: Operation not permitted
n1141:rank18.orca_gtoint_mpi: Failed to modify UD QP to INIT on mlx5_0: Operation not permitted
n1141:rank9.orca_gtoint_mpi: Failed to modify UD QP to INIT on mlx5_0: Operation not permitted
n1141:rank25.orca_gtoint_mpi: Failed to modify UD QP to INIT on mlx5_0: Operation not permitted
n1141:rank24.orca_gtoint_mpi: Failed to modify UD QP to INIT on mlx5_0: Operation not permitted
n1141:rank19.orca_gtoint_mpi: Failed to modify UD QP to INIT on mlx5_0: Operation not permitted
n1141:rank15.orca_gtoint_mpi: Failed to modify UD QP to INIT on mlx5_0: Operation not permitted
n1141:rank17.orca_gtoint_mpi: Failed to modify UD QP to INIT on mlx5_0: Operation not permitted
n1141:rank7.orca_gtoint_mpi: Failed to modify UD QP to INIT on mlx5_0: Operation not permitted
n1141:rank23.orca_gtoint_mpi: Failed to modify UD QP to INIT on mlx5_0: Operation not permitted
n1141:rank28.orca_gtoint_mpi: Failed to modify UD QP to INIT on mlx5_0: Operation not permitted
n1141:rank20.orca_gtoint_mpi: Failed to modify UD QP to INIT on mlx5_0: Operation not permitted
n1141:rank3.orca_gtoint_mpi: Failed to modify UD QP to INIT on mlx5_0: Operation not permitted
n1141:rank8.orca_gtoint_mpi: Failed to modify UD QP to INIT on mlx5_0: Operation not permitted
n1141:rank22.orca_gtoint_mpi: Failed to modify UD QP to INIT on mlx5_0: Operation not permitted
n1141:rank18.orca_gtoint_mpi: Failed to modify UD QP to INIT on mlx5_0: Operation not permitted
n1141:rank25.orca_gtoint_mpi: Failed to modify UD QP to INIT on mlx5_0: Operation not permitted
n1141:rank24.orca_gtoint_mpi: Failed to modify UD QP to INIT on mlx5_0: Operation not permitted
n1141:rank16.orca_gtoint_mpi: Failed to modify UD QP to INIT on mlx5_0: Operation not permitted
n1141:rank21.orca_gtoint_mpi: Failed to modify UD QP to INIT on mlx5_0: Operation not permitted
n1141:rank17.orca_gtoint_mpi: Failed to modify UD QP to INIT on mlx5_0: Operation not permitted
n1141:rank12.orca_gtoint_mpi: Failed to modify UD QP to INIT on mlx5_0: Operation not permitted
n1141:rank7.orca_gtoint_mpi: Failed to modify UD QP to INIT on mlx5_0: Operation not permitted
n1141:rank2.orca_gtoint_mpi: Failed to modify UD QP to INIT on mlx5_0: Operation not permitted
n1141:rank30.orca_gtoint_mpi: Failed to modify UD QP to INIT on mlx5_0: Operation not permitted
n1141:rank16.orca_gtoint_mpi: Failed to modify UD QP to INIT on mlx5_0: Operation not permitted
n1141:rank9.orca_gtoint_mpi: Failed to modify UD QP to INIT on mlx5_0: Operation not permitted
n1141:rank15.orca_gtoint_mpi: Failed to modify UD QP to INIT on mlx5_0: Operation not permitted
n1141:rank23.orca_gtoint_mpi: Failed to modify UD QP to INIT on mlx5_0: Operation not permitted
n1141:rank25.orca_gtoint_mpi: Failed to modify UD QP to INIT on mlx5_0: Operation not permitted
n1141:rank20.orca_gtoint_mpi: Failed to modify UD QP to INIT on mlx5_0: Operation not permitted
n1141:rank3.orca_gtoint_mpi: Failed to modify UD QP to INIT on mlx5_0: Operation not permitted
n1141:rank24.orca_gtoint_mpi: Failed to modify UD QP to INIT on mlx5_0: Operation not permitted
n1141:rank28.orca_gtoint_mpi: Failed to modify UD QP to INIT on mlx5_0: Operation not permitted
n1141:rank18.orca_gtoint_mpi: Failed to modify UD QP to INIT on mlx5_0: Operation not permitted
n1141:rank8.orca_gtoint_mpi: Failed to modify UD QP to INIT on mlx5_0: Operation not permitted
n1141:rank17.orca_gtoint_mpi: Failed to modify UD QP to INIT on mlx5_0: Operation not permitted
n1141:rank7.orca_gtoint_mpi: Failed to modify UD QP to INIT on mlx5_0: Operation not permitted
n1141:rank22.orca_gtoint_mpi: Failed to modify UD QP to INIT on mlx5_0: Operation not permitted
n1141:rank16.orca_gtoint_mpi: Failed to modify UD QP to INIT on mlx5_0: Operation not permitted


           ************************************************************
           *        Program running with 36 parallel MPI-processes    *
           *              working on a shared directory               *
           ************************************************************
Error: Cannot open input file Combo62_Cf4tc_0.86808_-0.86808_ck-1.int.tmp

ORCA finished by error termination in GTOInt
Calling Command: mpirun -np 36  /software/rapids/r23.04/ORCA/5.0.3-gompi-2021b/bin/orca_gtoint_mpi Combo62_Cf4tc_0.86808_-0.86808_ck-1.int.tmp Combo62_Cf4tc_0.86808_-0.86808_ck-1 
[file orca_tools/qcmsg.cpp, line 465]: 
  .... aborting the run

