
                                 *****************
                                 * O   R   C   A *
                                 *****************

                                            #,                                       
                                            ###                                      
                                            ####                                     
                                            #####                                    
                                            ######                                   
                                           ########,                                 
                                     ,,################,,,,,                         
                               ,,#################################,,                 
                          ,,##########################################,,             
                       ,#########################################, ''#####,          
                    ,#############################################,,   '####,        
                  ,##################################################,,,,####,       
                ,###########''''           ''''###############################       
              ,#####''   ,,,,##########,,,,          '''####'''          '####       
            ,##' ,,,,###########################,,,                        '##       
           ' ,,###''''                  '''############,,,                           
         ,,##''                                '''############,,,,        ,,,,,,###''
      ,#''                                            '''#######################'''  
     '                                                          ''''####''''         
             ,#######,   #######,   ,#######,      ##                                
            ,#'     '#,  ##    ##  ,#'     '#,    #''#        ######   ,####,        
            ##       ##  ##   ,#'  ##            #'  '#       #        #'  '#        
            ##       ##  #######   ##           ,######,      #####,   #    #        
            '#,     ,#'  ##    ##  '#,     ,#' ,#      #,         ##   #,  ,#        
             '#######'   ##     ##  '#######'  #'      '#     #####' # '####'        



                  #######################################################
                  #                        -***-                        #
                  #          Department of theory and spectroscopy      #
                  #    Directorship and core code : Frank Neese         #
                  #        Max Planck Institute fuer Kohlenforschung    #
                  #                Kaiser Wilhelm Platz 1               #
                  #                 D-45470 Muelheim/Ruhr               #
                  #                      Germany                        #
                  #                                                     #
                  #                  All rights reserved                #
                  #                        -***-                        #
                  #######################################################


                         Program Version 5.0.3 -  RELEASE  -


 With contributions from (in alphabetic order):
   Daniel Aravena         : Magnetic Suceptibility
   Michael Atanasov       : Ab Initio Ligand Field Theory (pilot matlab implementation)
   Alexander A. Auer      : GIAO ZORA, VPT2 properties, NMR spectrum
   Ute Becker             : Parallelization
   Giovanni Bistoni       : ED, misc. LED, open-shell LED, HFLD
   Martin Brehm           : Molecular dynamics
   Dmytro Bykov           : SCF Hessian
   Vijay G. Chilkuri      : MRCI spin determinant printing, contributions to CSF-ICE
   Dipayan Datta          : RHF DLPNO-CCSD density
   Achintya Kumar Dutta   : EOM-CC, STEOM-CC
   Dmitry Ganyushin       : Spin-Orbit,Spin-Spin,Magnetic field MRCI
   Miquel Garcia          : C-PCM and meta-GGA Hessian, CC/C-PCM, Gaussian charge scheme
   Yang Guo               : DLPNO-NEVPT2, F12-NEVPT2, CIM, IAO-localization
   Andreas Hansen         : Spin unrestricted coupled pair/coupled cluster methods
   Benjamin Helmich-Paris : MC-RPA, TRAH-SCF, COSX integrals
   Lee Huntington         : MR-EOM, pCC
   Robert Izsak           : Overlap fitted RIJCOSX, COSX-SCS-MP3, EOM
   Marcus Kettner         : VPT2
   Christian Kollmar      : KDIIS, OOCD, Brueckner-CCSD(T), CCSD density, CASPT2, CASPT2-K
   Simone Kossmann        : Meta GGA functionals, TD-DFT gradient, OOMP2, MP2 Hessian
   Martin Krupicka        : Initial AUTO-CI
   Lucas Lang             : DCDCAS
   Marvin Lechner         : AUTO-CI (C++ implementation), FIC-MRCC
   Dagmar Lenk            : GEPOL surface, SMD
   Dimitrios Liakos       : Extrapolation schemes; Compound Job, initial MDCI parallelization
   Dimitrios Manganas     : Further ROCIS development; embedding schemes
   Dimitrios Pantazis     : SARC Basis sets
   Anastasios Papadopoulos: AUTO-CI, single reference methods and gradients
   Taras Petrenko         : DFT Hessian,TD-DFT gradient, ASA, ECA, R-Raman, ABS, FL, XAS/XES, NRVS
   Peter Pinski           : DLPNO-MP2, DLPNO-MP2 Gradient
   Christoph Reimann      : Effective Core Potentials
   Marius Retegan         : Local ZFS, SOC
   Christoph Riplinger    : Optimizer, TS searches, QM/MM, DLPNO-CCSD(T), (RO)-DLPNO pert. Triples
   Tobias Risthaus        : Range-separated hybrids, TD-DFT gradient, RPA, STAB
   Michael Roemelt        : Original ROCIS implementation
   Masaaki Saitow         : Open-shell DLPNO-CCSD energy and density
   Barbara Sandhoefer     : DKH picture change effects
   Avijit Sen             : IP-ROCIS
   Kantharuban Sivalingam : CASSCF convergence, NEVPT2, FIC-MRCI
   Bernardo de Souza      : ESD, SOC TD-DFT
   Georgi Stoychev        : AutoAux, RI-MP2 NMR, DLPNO-MP2 response
   Willem Van den Heuvel  : Paramagnetic NMR
   Boris Wezisla          : Elementary symmetry handling
   Frank Wennmohs         : Technical directorship


 We gratefully acknowledge several colleagues who have allowed us to
 interface, adapt or use parts of their codes:
   Stefan Grimme, W. Hujo, H. Kruse, P. Pracht,  : VdW corrections, initial TS optimization,
                  C. Bannwarth, S. Ehlert          DFT functionals, gCP, sTDA/sTD-DF
   Ed Valeev, F. Pavosevic, A. Kumar             : LibInt (2-el integral package), F12 methods
   Garnet Chan, S. Sharma, J. Yang, R. Olivares  : DMRG
   Ulf Ekstrom                                   : XCFun DFT Library
   Mihaly Kallay                                 : mrcc  (arbitrary order and MRCC methods)
   Jiri Pittner, Ondrej Demel                    : Mk-CCSD
   Frank Weinhold                                : gennbo (NPA and NBO analysis)
   Christopher J. Cramer and Donald G. Truhlar   : smd solvation model
   Lars Goerigk                                  : TD-DFT with DH, B97 family of functionals
   V. Asgeirsson, H. Jonsson                     : NEB implementation
   FAccTs GmbH                                   : IRC, NEB, NEB-TS, DLPNO-Multilevel, CI-OPT
                                                   MM, QMMM, 2- and 3-layer-ONIOM, Crystal-QMMM,
                                                   LR-CPCM, SF, NACMEs, symmetry and pop. for TD-DFT,
                                                   nearIR, NL-DFT gradient (VV10), updates on ESD,
                                                   ML-optimized integration grids
   S Lehtola, MJT Oliveira, MAL Marques          : LibXC Library
   Liviu Ungur et al                             : ANISO software


 Your calculation uses the libint2 library for the computation of 2-el integrals
 For citations please refer to: http://libint.valeyev.net

 Your ORCA version has been built with support for libXC version: 5.1.0
 For citations please refer to: https://tddft.org/programs/libxc/

 This ORCA versions uses:
   CBLAS   interface :  Fast vector & matrix operations
   LAPACKE interface :  Fast linear algebra routines
   SCALAPACK package :  Parallel linear algebra routines
   Shared memory     :  Shared parallel matrices
   BLAS/LAPACK       :  OpenBLAS 0.3.15  USE64BITINT DYNAMIC_ARCH NO_AFFINITY Prescott SINGLE_THREADED
        Core in use  :  Prescott
   Copyright (c) 2011-2014, The OpenBLAS Project


Your calculation utilizes the atom-pairwise dispersion correction
based on tight binding partial charges (D4)
Cite in your paper:
E.Caldeweyher, C.Bannwarth, S.Grimme, J.Chem.Phys., (2017), 147, 034112.
E.Caldeweyher, S.Ehlert, A.Hansen, H.Neugebauer, S.Grimme, J.Chem.Phys., (2018), in progress.
   

XCFun DFT library Copyright 2009-2010 Ulf Ekstrom and contributors.
See http://admol.org/xcfun for more information.
This is free software; see the source code for copying conditions.
There is ABSOLUTELY NO WARRANTY; not even for MERCHANTABILITY or FITNESS FOR A PARTICULAR PURPOSE.
For details see the documentation.
Scientific users of this library should cite U. Ekstrom, L. Visscher, R. Bast, A. J. Thorvaldsen and K. Ruud;
J.Chem.Theor.Comp. 2010, DOI: 10.1021/ct100117s
XCFun Version 0.99 

================================================================================

----- Orbital basis set information -----
Your calculation utilizes the basis: def2-TZVP
   F. Weigend and R. Ahlrichs, Phys. Chem. Chem. Phys. 7, 3297 (2005).

----- AuxJ basis set information -----
Your calculation utilizes the auxiliary basis: def2/J
   F. Weigend, Phys. Chem. Chem. Phys. 8, 1057 (2006).

================================================================================
                                        WARNINGS
                       Please study these warnings very carefully!
================================================================================


WARNING: Geometry Optimization
  ===> : Switching off AutoStart
         For restart on a previous wavefunction, please use MOREAD

INFO   : the flag for use of the SHARK integral package has been found!

================================================================================
                                       INPUT FILE
================================================================================
NAME = Combo62_Cf10tc_0.43404_-0.43404_ck-1.inp
|  1> ## Generated with Autochar
|  2> ! UKS OPT CAM-B3LYP D4 def2-TZVP  CHELPG
|  3> % pointcharges "pointcharges.pc"
|  4> %scf
|  5> 	SCFMode Direct
|  6> 	MaxIter 500
|  7> end
|  8> %pal
|  9> 	nprocs 36
| 10> end
| 11> %elprop
| 12>     Dipole true
| 13> end
| 14> %chelpg
| 15> 	GRID 0.3
| 16> 	RMAX 4
| 17> end
| 18> * xyz 1 2
| 19>  C -8.34706343 -1.15997297 -0.02084997
| 20>  C -6.96809339 -1.17008524 0.00138205
| 21>  C -6.25976856 0.00752069 0.19954797
| 22>  C -6.95770447 1.19422324 0.39750649
| 23>  C -8.33459916 1.20056920 0.40118481
| 24>  C -9.04885865 0.02546972 0.18190637
| 25>  C -4.78444079 0.00293467 0.18190637
| 26>  N -4.15639286 1.16593319 0.18268274
| 27>  C -2.82501904 1.13595585 0.12550659
| 28>  N -2.12868660 -0.00699089 0.08294006
| 29>  C -2.84279102 -1.11448563 0.10763523
| 30>  N -4.16307682 -1.17781475 0.15356396
| 31>  C -2.10132975 -2.40226946 0.07905407
| 32>  C -2.77377468 -3.60062546 0.27945706
| 33>  C -2.08672688 -4.79907709 0.25853589
| 34>  C -0.72541565 -4.78577591 0.02750674
| 35>  C -0.03708096 -3.60584574 -0.17717710
| 36>  C -0.73077856 -2.41210385 -0.14573493
| 37>  C -2.09699884 2.39648078 0.09981665
| 38>  C -2.77009308 3.61525316 0.15113356
| 39>  C -2.09053512 4.80782533 0.11787441
| 40>  C -0.69234735 4.83414751 0.02995796
| 41>  C -0.01581407 3.60871782 -0.03582311
| 42>  C -0.70807611 2.42355437 0.00108048
| 43>  C -10.52956857 0.05484930 0.17304326
| 44>  S -11.40339223 1.04796663 1.11071423
| 45>  S -11.22779899 -1.07653168 -0.95934018
| 46>  N -0.00000000 6.03606324 -0.00000000
| 47>  C -0.69026575 7.26698911 -0.18588509
| 48>  C -0.59265399 7.90294387 -1.41655143
| 49>  S 0.41668839 7.18610141 -2.67158042
| 50>  C 1.70035662 6.57183994 -1.63164949
| 51>  C 1.37161474 6.07493397 -0.37687887
| 52>  C 3.02511455 6.60081303 -2.03981282
| 53>  C 4.01502852 6.13417922 -1.19559749
| 54>  C 3.69099409 5.67364885 0.07085138
| 55>  C 2.37198240 5.65835120 0.48464902
| 56>  C -1.42305350 7.84647431 0.83558863
| 57>  C -2.11108322 9.02375798 0.60888740
| 58>  C -2.04040902 9.64094974 -0.63015480
| 59>  C -1.26762502 9.09360581 -1.63683321
| 60>  N -0.00000000 -6.03606324 0.00000000
| 61>  C 0.54898792 -6.47909934 1.18829053
| 62>  C 1.28634069 -7.67439531 1.27409271
| 63>  S 1.58390658 -8.70256565 -0.06524365
| 64>  C 0.78679510 -7.90696654 -1.35771728
| 65>  C 0.09524596 -6.69016362 -1.21347100
| 66>  C 0.37616817 -5.72629544 2.36307254
| 67>  C 0.91096595 -6.14813038 3.54880573
| 68>  C 1.64282243 -7.33657421 3.62394391
| 69>  C 1.82572816 -8.08790321 2.49629481
| 70>  C 0.85639298 -8.53906849 -2.60323611
| 71>  C 0.25326153 -7.98289922 -3.69700072
| 72>  C -0.43454488 -6.77340379 -3.56398251
| 73>  C -0.51261270 -6.13897388 -2.35517895
| 74>  H -8.88338249 -2.08613159 -0.17125886
| 75>  H -6.42702098 -2.09264837 -0.14320670
| 76>  H -6.40581662 2.10969022 0.54781774
| 77>  H -8.87799073 2.11937496 0.56550802
| 78>  H -3.83899819 -3.57660394 0.45400643
| 79>  H -2.60236128 -5.73639741 0.41893331
| 80>  H 1.02952060 -3.62199775 -0.35716059
| 81>  H -0.22188608 -1.47188847 -0.29599306
| 82>  H -3.84828410 3.61649327 0.21028848
| 83>  H -2.64680008 5.73062100 0.14344111
| 84>  H 1.05758034 3.58919997 -0.13090887
| 85>  H -0.16781063 1.49023504 -0.05280208
| 86>  H -12.50075564 -0.82286347 -0.62953532
| 87>  H 3.27617080 7.00358706 -3.01171465
| 88>  H 5.04704265 6.15662498 -1.51770382
| 89>  H 4.46927111 5.33804769 0.74217938
| 90>  H 2.10286696 5.31055245 1.47267423
| 91>  H -1.46023443 7.35701421 1.79922968
| 92>  H -2.69433513 9.46712163 1.40394630
| 93>  H -2.57067154 10.56678329 -0.80577207
| 94>  H -1.17533487 9.59275132 -2.59190434
| 95>  H -0.18487274 -4.80759236 2.32786869
| 96>  H 0.76193603 -5.55051101 4.43697185
| 97>  H 2.06139660 -7.66098542 4.56572789
| 98>  H 2.38926318 -9.01076610 2.53572881
| 99>  H 1.39381857 -9.47439295 -2.68750403
|100>  H 0.30906257 -8.47619616 -4.65666880
|101>  H -0.91300532 -6.32851871 -4.42500892
|102>  H -1.04692602 -5.20728887 -2.27502748
|103>   
|104> *
|105> 
|106> 
|107>                          ****END OF INPUT****
================================================================================

                       *****************************
                       * Geometry Optimization Run *
                       *****************************

Geometry optimization settings:
Update method            Update   .... BFGS
Choice of coordinates    CoordSys .... Z-matrix Internals
Initial Hessian          InHess   .... Almoef's Model

Convergence Tolerances:
Energy Change            TolE     ....  5.0000e-06 Eh
Max. Gradient            TolMAXG  ....  3.0000e-04 Eh/bohr
RMS Gradient             TolRMSG  ....  1.0000e-04 Eh/bohr
Max. Displacement        TolMAXD  ....  4.0000e-03 bohr
RMS Displacement         TolRMSD  ....  2.0000e-03 bohr
Strict Convergence                ....  False
------------------------------------------------------------------------------
                        ORCA OPTIMIZATION COORDINATE SETUP
------------------------------------------------------------------------------

The optimization will be done in new redundant internal coordinates
Making redundant internal coordinates   ...  (new redundants) done
Evaluating the initial hessian          ...  (Almloef) done
Evaluating the coordinates              ...  done
Calculating the B-matrix                .... done
Calculating the G-matrix                .... done
Diagonalizing the G-matrix              .... done
Small eigenvalue found = 3.216e-04
Small eigenvalue found = 8.085e-04
Small eigenvalue found = 1.075e-03
Small eigenvalue found = 1.840e-03
Small eigenvalue found = 2.230e-03
Small eigenvalue found = 3.050e-03
Small eigenvalue found = 5.086e-03
Small eigenvalue found = 7.491e-03
Small eigenvalue found = 1.068e-02
Small eigenvalue found = 1.483e-02
Small eigenvalue found = 1.708e-02
Small eigenvalue found = 2.197e-02
Small eigenvalue found = 2.498e-02
The first mode is                       ....  227
The number of degrees of freedom        ....  246

    -----------------------------------------------------------------
                    Redundant Internal Coordinates


    -----------------------------------------------------------------
         Definition                    Initial Value    Approx d2E/dq
    -----------------------------------------------------------------
      1. B(C   1,C   0)                  1.3792         0.650116   
      2. B(C   2,C   1)                  1.3884         0.628401   
      3. B(C   3,C   2)                  1.3909         0.622765   
      4. B(C   4,C   3)                  1.3769         0.655565   
      5. B(C   5,C   4)                  1.3925         0.619042   
      6. B(C   5,C   0)                  1.3924         0.619211   
      7. B(C   6,C   2)                  1.4754         0.456482   
      8. B(N   7,C   6)                  1.3217         0.719071   
      9. B(C   8,N   7)                  1.3329         0.690103   
     10. B(N   9,C   8)                  1.3390         0.674815   
     11. B(C  10,N   9)                  1.3180         0.729057   
     12. B(N  11,C   6)                  1.3346         0.685989   
     13. B(N  11,C  10)                  1.3226         0.716812   
     14. B(C  12,C  10)                  1.4863         0.438694   
     15. B(C  13,C  12)                  1.3887         0.627860   
     16. B(C  14,C  13)                  1.3816         0.644429   
     17. B(C  15,C  14)                  1.3808         0.646178   
     18. B(C  16,C  15)                  1.3813         0.645134   
     19. B(C  17,C  16)                  1.3810         0.645744   
     20. B(C  17,C  12)                  1.3889         0.627331   
     21. B(C  18,C   8)                  1.4559         0.490485   
     22. B(C  19,C  18)                  1.3932         0.617422   
     23. B(C  20,C  19)                  1.3730         0.665056   
     24. B(C  21,C  20)                  1.4012         0.599619   
     25. B(C  22,C  21)                  1.4013         0.599343   
     26. B(C  23,C  22)                  1.3730         0.664996   
     27. B(C  23,C  18)                  1.3927         0.618650   
     28. B(C  24,C   5)                  1.4810         0.447208   
     29. B(S  25,C  24)                  1.6214         0.719870   
     30. B(S  26,C  24)                  1.7464         0.454910   
     31. B(N  27,C  21)                  1.3874         0.564994   
     32. B(C  28,N  27)                  1.4234         0.494897   
     33. B(C  29,C  28)                  1.3887         0.627772   
     34. B(S  30,C  29)                  1.7629         0.428160   
     35. B(C  31,S  30)                  1.7625         0.428676   
     36. B(C  32,C  31)                  1.3890         0.627001   
     37. B(C  32,N  27)                  1.4230         0.495742   
     38. B(C  33,C  31)                  1.3865         0.632850   
     39. B(C  34,C  33)                  1.3822         0.643044   
     40. B(C  35,C  34)                  1.3860         0.634059   
     41. B(C  36,C  35)                  1.3825         0.642295   
     42. B(C  36,C  32)                  1.3844         0.637831   
     43. B(C  37,C  28)                  1.3843         0.638099   
     44. B(C  38,C  37)                  1.3823         0.642704   
     45. B(C  39,C  38)                  1.3861         0.633919   
     46. B(C  40,C  39)                  1.3821         0.643211   
     47. B(C  40,C  29)                  1.3863         0.633382   
     48. B(N  41,C  15)                  1.4458         0.455958   
     49. B(C  42,N  41)                  1.3819         0.576456   
     50. B(C  43,C  42)                  1.4070         0.586867   
     51. B(S  44,C  43)                  1.7145         0.511436   
     52. B(C  45,S  44)                  1.7143         0.511792   
     53. B(C  46,C  45)                  1.4070         0.586965   
     54. B(C  46,N  41)                  1.3818         0.576665   
     55. B(C  47,C  42)                  1.4059         0.589241   
     56. B(C  48,C  47)                  1.3674         0.678762   
     57. B(C  49,C  48)                  1.3977         0.607296   
     58. B(C  50,C  49)                  1.3673         0.679103   
     59. B(C  50,C  43)                  1.3985         0.605665   
     60. B(C  51,C  45)                  1.3985         0.605658   
     61. B(C  52,C  51)                  1.3673         0.679221   
     62. B(C  53,C  52)                  1.3977         0.607302   
     63. B(C  54,C  46)                  1.4060         0.589159   
     64. B(C  54,C  53)                  1.3674         0.678866   
     65. B(H  55,C   0)                  1.0808         0.372540   
     66. B(H  56,C   1)                  1.0793         0.374601   
     67. B(H  57,C   3)                  1.0795         0.374304   
     68. B(H  58,C   4)                  1.0800         0.373524   
     69. B(H  59,C  13)                  1.0797         0.373991   
     70. B(H  60,C  14)                  1.0817         0.371186   
     71. B(H  61,C  16)                  1.0818         0.371111   
     72. B(H  62,C  17)                  1.0796         0.374113   
     73. B(H  63,C  19)                  1.0798         0.373831   
     74. B(H  64,C  20)                  1.0778         0.376617   
     75. B(H  65,C  22)                  1.0778         0.376642   
     76. B(H  66,C  23)                  1.0798         0.373908   
     77. B(H  67,S  26)                  1.3392         0.388651   
     78. B(H  68,C  33)                  1.0816         0.371391   
     79. B(H  69,C  34)                  1.0813         0.371732   
     80. B(H  70,C  35)                  1.0812         0.371912   
     81. B(H  71,C  36)                  1.0815         0.371561   
     82. B(H  72,C  37)                  1.0815         0.371575   
     83. B(H  73,C  38)                  1.0811         0.372008   
     84. B(H  74,C  39)                  1.0813         0.371809   
     85. B(H  75,C  40)                  1.0816         0.371407   
     86. B(H  76,C  47)                  1.0770         0.377655   
     87. B(H  77,C  48)                  1.0808         0.372435   
     88. B(H  78,C  49)                  1.0805         0.372937   
     89. B(H  79,C  50)                  1.0820         0.370791   
     90. B(H  80,C  51)                  1.0820         0.370818   
     91. B(H  81,C  52)                  1.0805         0.372928   
     92. B(H  82,C  53)                  1.0808         0.372425   
     93. B(H  83,C  54)                  1.0770         0.377700   
     94. A(C   1,C   0,H  55)          119.4805         0.357816   
     95. A(C   5,C   0,H  55)          119.9812         0.354869   
     96. A(C   1,C   0,C   5)          120.5186         0.437690   
     97. A(C   0,C   1,C   2)          120.4086         0.438855   
     98. A(C   0,C   1,H  56)          120.3558         0.358152   
     99. A(C   2,C   1,H  56)          119.2337         0.356090   
    100. A(C   3,C   2,C   6)          120.4049         0.411288   
    101. A(C   1,C   2,C   3)          119.2068         0.435468   
    102. A(C   1,C   2,C   6)          120.3831         0.411946   
    103. A(C   2,C   3,H  57)          119.1335         0.355498   
    104. A(C   4,C   3,H  57)          120.4623         0.358612   
    105. A(C   2,C   3,C   4)          120.4042         0.438802   
    106. A(C   3,C   4,H  58)          120.4937         0.358485   
    107. A(C   5,C   4,H  58)          118.9329         0.355011   
    108. A(C   3,C   4,C   5)          120.5712         0.438328   
    109. A(C   0,C   5,C   4)          118.8704         0.433846   
    110. A(C   4,C   5,C  24)          119.8029         0.409359   
    111. A(C   0,C   5,C  24)          121.3263         0.409379   
    112. A(N   7,C   6,N  11)          123.8667         0.448120   
    113. A(C   2,C   6,N   7)          118.1894         0.419210   
    114. A(C   2,C   6,N  11)          117.9409         0.415708   
    115. A(C   6,N   7,C   8)          117.0517         0.448606   
    116. A(N   7,C   8,N   9)          122.6819         0.443473   
    117. A(N   7,C   8,C  18)          118.7345         0.421514   
    118. A(N   9,C   8,C  18)          118.5824         0.419832   
    119. A(C   8,N   9,C  10)          115.7780         0.447906   
    120. A(N  11,C  10,C  12)          117.2055         0.416019   
    121. A(N   9,C  10,N  11)          125.5737         0.452844   
    122. A(N   9,C  10,C  12)          117.2207         0.417276   
    123. A(C   6,N  11,C  10)          115.0337         0.447864   
    124. A(C  10,C  12,C  17)          120.1016         0.408930   
    125. A(C  13,C  12,C  17)          119.6755         0.435973   
    126. A(C  10,C  12,C  13)          120.2228         0.408991   
    127. A(C  14,C  13,H  59)          120.8220         0.357518   
    128. A(C  12,C  13,H  59)          118.8081         0.355940   
    129. A(C  12,C  13,C  14)          120.3697         0.438091   
    130. A(C  13,C  14,C  15)          118.9756         0.440371   
    131. A(C  15,C  14,H  60)          120.2041         0.357225   
    132. A(C  13,C  14,H  60)          120.8203         0.357061   
    133. A(C  14,C  15,C  16)          121.6214         0.440458   
    134. A(C  16,C  15,N  41)          119.0700         0.411115   
    135. A(C  14,C  15,N  41)          119.3086         0.411233   
    136. A(C  15,C  16,C  17)          118.9927         0.440405   
    137. A(C  15,C  16,H  61)          120.2139         0.357115   
    138. A(C  17,C  16,H  61)          120.7934         0.357172   
    139. A(C  12,C  17,H  62)          118.7834         0.355908   
    140. A(C  12,C  17,C  16)          120.3630         0.438186   
    141. A(C  16,C  17,H  62)          120.8535         0.357662   
    142. A(C   8,C  18,C  19)          121.0084         0.415933   
    143. A(C  19,C  18,C  23)          117.8667         0.433571   
    144. A(C   8,C  18,C  23)          121.1167         0.416080   
    145. A(C  20,C  19,H  63)          119.6387         0.359413   
    146. A(C  18,C  19,H  63)          119.0396         0.354903   
    147. A(C  18,C  19,C  20)          121.3199         0.439258   
    148. A(C  19,C  20,H  64)          119.1865         0.359868   
    149. A(C  19,C  20,C  21)          120.7783         0.436946   
    150. A(C  21,C  20,H  64)          120.0272         0.353592   
    151. A(C  22,C  21,N  27)          121.0403         0.421545   
    152. A(C  20,C  21,N  27)          121.0367         0.421580   
    153. A(C  20,C  21,C  22)          117.9216         0.428849   
    154. A(C  23,C  22,H  65)          119.2668         0.359867   
    155. A(C  21,C  22,H  65)          120.0528         0.353568   
    156. A(C  21,C  22,C  23)          120.6743         0.436903   
    157. A(C  18,C  23,H  66)          119.0609         0.355035   
    158. A(C  22,C  23,H  66)          119.5048         0.359421   
    159. A(C  18,C  23,C  22)          121.4335         0.439409   
    160. A(S  25,C  24,S  26)          123.8007         0.470137   
    161. A(C   5,C  24,S  26)          113.0017         0.408757   
    162. A(C   5,C  24,S  25)          123.1951         0.443761   
    163. A(C  24,S  26,H  67)           95.6032         0.383004   
    164. A(C  28,N  27,C  32)          114.1554         0.395610   
    165. A(C  21,N  27,C  32)          120.6904         0.404942   
    166. A(C  21,N  27,C  28)          120.6621         0.404820   
    167. A(N  27,C  28,C  29)          118.5321         0.415126   
    168. A(C  29,C  28,C  37)          119.9631         0.437301   
    169. A(N  27,C  28,C  37)          121.4898         0.416332   
    170. A(C  28,C  29,S  30)          119.0079         0.429566   
    171. A(C  28,C  29,C  40)          119.9946         0.436717   
    172. A(S  30,C  29,C  40)          120.9907         0.430252   
    173. A(C  29,S  30,C  31)           97.9705         0.423325   
    174. A(C  32,C  31,C  33)          119.9687         0.436554   
    175. A(S  30,C  31,C  33)          120.9902         0.430280   
    176. A(S  30,C  31,C  32)          119.0314         0.429564   
    177. A(C  31,C  32,C  36)          119.9202         0.437171   
    178. A(N  27,C  32,C  36)          121.5662         0.416428   
    179. A(N  27,C  32,C  31)          118.4992         0.415161   
    180. A(C  31,C  33,H  68)          119.6094         0.355996   
    181. A(C  31,C  33,C  34)          119.8311         0.438547   
    182. A(C  34,C  33,H  68)          120.5524         0.356964   
    183. A(C  35,C  34,H  69)          120.1461         0.356167   
    184. A(C  33,C  34,H  69)          119.6423         0.357019   
    185. A(C  33,C  34,C  35)          120.1885         0.438698   
    186. A(C  36,C  35,H  70)          119.8341         0.356978   
    187. A(C  34,C  35,H  70)          120.1454         0.356197   
    188. A(C  34,C  35,C  36)          120.0155         0.438606   
    189. A(C  35,C  36,H  71)          120.9593         0.356921   
    190. A(C  32,C  36,H  71)          119.0456         0.356498   
    191. A(C  32,C  36,C  35)          119.9892         0.439076   
    192. A(C  28,C  37,H  72)          119.0950         0.356526   
    193. A(C  28,C  37,C  38)          119.9339         0.439159   
    194. A(C  38,C  37,H  72)          120.9631         0.356962   
    195. A(C  37,C  38,C  39)          120.0311         0.438639   
    196. A(C  39,C  38,H  73)          120.1515         0.356199   
    197. A(C  37,C  38,H  73)          119.8134         0.357032   
    198. A(C  38,C  39,C  40)          120.2174         0.438701   
    199. A(C  40,C  39,H  74)          119.6692         0.357048   
    200. A(C  38,C  39,H  74)          120.0961         0.356166   
    201. A(C  29,C  40,C  39)          119.7781         0.438634   
    202. A(C  39,C  40,H  75)          120.5388         0.356982   
    203. A(C  29,C  40,H  75)          119.6790         0.356050   
    204. A(C  42,N  41,C  46)          125.1685         0.417432   
    205. A(C  15,N  41,C  46)          117.4294         0.400454   
    206. A(C  15,N  41,C  42)          117.4013         0.400429   
    207. A(C  43,C  42,C  47)          117.9255         0.425901   
    208. A(N  41,C  42,C  47)          119.8684         0.421778   
    209. A(N  41,C  42,C  43)          122.2061         0.421474   
    210. A(S  44,C  43,C  50)          116.0056         0.440680   
    211. A(C  42,C  43,C  50)          120.4380         0.428004   
    212. A(C  42,C  43,S  44)          123.5564         0.438179   
    213. A(C  43,S  44,C  45)          103.2939         0.451292   
    214. A(C  46,C  45,C  51)          120.4418         0.428015   
    215. A(S  44,C  45,C  51)          116.0125         0.440734   
    216. A(S  44,C  45,C  46)          123.5457         0.438247   
    217. A(C  45,C  46,C  54)          117.9228         0.425903   
    218. A(N  41,C  46,C  54)          119.8499         0.421794   
    219. A(N  41,C  46,C  45)          122.2273         0.421513   
    220. A(C  42,C  47,C  48)          120.7501         0.437178   
    221. A(C  48,C  47,H  76)          119.6827         0.361291   
    222. A(C  42,C  47,H  76)          119.5672         0.352713   
    223. A(C  47,C  48,C  49)          120.9094         0.439565   
    224. A(C  49,C  48,H  77)          119.8780         0.353685   
    225. A(C  47,C  48,H  77)          119.2125         0.360435   
    226. A(C  48,C  49,C  50)          119.5329         0.439604   
    227. A(C  50,C  49,H  78)          120.1361         0.360549   
    228. A(C  48,C  49,H  78)          120.3310         0.353766   
    229. A(C  43,C  50,C  49)          120.4442         0.439391   
    230. A(C  49,C  50,H  79)          120.5488         0.360194   
    231. A(C  43,C  50,H  79)          119.0070         0.353259   
    232. A(C  45,C  51,C  52)          120.4416         0.439404   
    233. A(C  52,C  51,H  80)          120.5591         0.360209   
    234. A(C  45,C  51,H  80)          118.9993         0.353263   
    235. A(C  51,C  52,C  53)          119.5336         0.439619   
    236. A(C  53,C  52,H  81)          120.3322         0.353765   
    237. A(C  51,C  52,H  81)          120.1342         0.360558   
    238. A(C  52,C  53,C  54)          120.9110         0.439578   
    239. A(C  54,C  53,H  82)          119.2080         0.360443   
    240. A(C  52,C  53,H  82)          119.8810         0.353684   
    241. A(C  46,C  54,C  53)          120.7488         0.437179   
    242. A(C  53,C  54,H  83)          119.7009         0.361308   
    243. A(C  46,C  54,H  83)          119.5502         0.352712   
    244. D(H  56,C   1,C   0,C   5)    179.1953         0.029429   
    245. D(H  56,C   1,C   0,H  55)      0.8089         0.029429   
    246. D(C   2,C   1,C   0,H  55)   -179.6942         0.029429   
    247. D(C   2,C   1,C   0,C   5)     -1.3078         0.029429   
    248. D(C   3,C   2,C   1,H  56)   -179.4414         0.027371   
    249. D(C   6,C   2,C   1,C   0)   -178.1141         0.027371   
    250. D(C   3,C   2,C   1,C   0)      1.0561         0.027371   
    251. D(C   6,C   2,C   1,H  56)      1.3884         0.027371   
    252. D(C   4,C   3,C   2,C   1)      0.2051         0.026852   
    253. D(C   4,C   3,C   2,C   6)    179.3751         0.026852   
    254. D(H  57,C   3,C   2,C   1)   -179.7756         0.026852   
    255. D(H  57,C   3,C   2,C   6)     -0.6056         0.026852   
    256. D(H  58,C   4,C   3,C   2)    179.3290         0.029960   
    257. D(C   5,C   4,C   3,H  57)    178.7576         0.029960   
    258. D(C   5,C   4,C   3,C   2)     -1.2229         0.029960   
    259. D(H  58,C   4,C   3,H  57)     -0.6905         0.029960   
    260. D(C   4,C   5,C   0,C   1)      0.2919         0.026528   
    261. D(C   0,C   5,C   4,H  58)   -179.5725         0.026512   
    262. D(C  24,C   5,C   4,C   3)   -179.2528         0.026512   
    263. D(C  24,C   5,C   4,H  58)      0.2039         0.026512   
    264. D(C  24,C   5,C   0,H  55)     -1.1026         0.026528   
    265. D(C   0,C   5,C   4,C   3)      0.9708         0.026512   
    266. D(C   4,C   5,C   0,H  55)    178.6702         0.026528   
    267. D(C  24,C   5,C   0,C   1)   -179.4809         0.026528   
    268. D(N  11,C   6,C   2,C   1)     -8.9174         0.014197   
    269. D(N   7,C   6,C   2,C   3)     -8.6863         0.014197   
    270. D(N  11,C   6,C   2,C   3)    171.9224         0.014197   
    271. D(N   7,C   6,C   2,C   1)    170.4739         0.014197   
    272. D(C   8,N   7,C   6,N  11)      1.3349         0.038926   
    273. D(C   8,N   7,C   6,C   2)   -178.0175         0.038926   
    274. D(N   9,C   8,N   7,C   6)     -0.7063         0.035568   
    275. D(C  18,C   8,N   7,C   6)    178.9005         0.035568   
    276. D(C  10,N   9,C   8,C  18)   -179.9281         0.033871   
    277. D(C  10,N   9,C   8,N   7)     -0.3207         0.033871   
    278. D(C  12,C  10,N   9,C   8)   -179.2495         0.040128   
    279. D(N  11,C  10,N   9,C   8)      0.8635         0.040128   
    280. D(C   6,N  11,C  10,C  12)    179.8022         0.038658   
    281. D(C  10,N  11,C   6,N   7)     -0.8520         0.035106   
    282. D(C  10,N  11,C   6,C   2)    178.5019         0.035106   
    283. D(C   6,N  11,C  10,N   9)     -0.3107         0.038658   
    284. D(C  17,C  12,C  10,N  11)    171.5367         0.013134   
    285. D(C  13,C  12,C  10,N  11)     -8.5965         0.013134   
    286. D(C  13,C  12,C  10,N   9)    171.5068         0.013134   
    287. D(C  17,C  12,C  10,N   9)     -8.3600         0.013134   
    288. D(H  59,C  13,C  12,C  17)    179.9365         0.027321   
    289. D(H  59,C  13,C  12,C  10)      0.0692         0.027321   
    290. D(C  14,C  13,C  12,C  17)      0.1123         0.027321   
    291. D(C  14,C  13,C  12,C  10)   -179.7550         0.027321   
    292. D(C  15,C  14,C  13,H  59)    179.7876         0.028881   
    293. D(H  60,C  14,C  13,H  59)     -0.1442         0.028881   
    294. D(C  15,C  14,C  13,C  12)     -0.3918         0.028881   
    295. D(H  60,C  14,C  13,C  12)    179.6764         0.028881   
    296. D(N  41,C  15,C  14,H  60)      0.1207         0.029049   
    297. D(N  41,C  15,C  14,C  13)   -179.8115         0.029049   
    298. D(C  16,C  15,C  14,C  13)      0.2526         0.029049   
    299. D(C  16,C  15,C  14,H  60)   -179.8152         0.029049   
    300. D(H  61,C  16,C  15,N  41)      0.1218         0.028948   
    301. D(H  61,C  16,C  15,C  14)   -179.9421         0.028948   
    302. D(C  17,C  16,C  15,N  41)   -179.7669         0.028948   
    303. D(C  17,C  16,C  15,C  14)      0.1691         0.028948   
    304. D(C  16,C  17,C  12,C  13)      0.3170         0.027272   
    305. D(C  16,C  17,C  12,C  10)   -179.8155         0.027272   
    306. D(H  62,C  17,C  12,C  10)      0.0998         0.027272   
    307. D(H  62,C  17,C  16,H  61)     -0.2556         0.029007   
    308. D(H  62,C  17,C  16,C  15)    179.6325         0.029007   
    309. D(C  12,C  17,C  16,H  61)    179.6580         0.029007   
    310. D(C  12,C  17,C  16,C  15)     -0.4540         0.029007   
    311. D(H  62,C  17,C  12,C  13)   -179.7677         0.027272   
    312. D(C  23,C  18,C   8,N   9)      1.5124         0.016381   
    313. D(C  23,C  18,C   8,N   7)   -178.1108         0.016381   
    314. D(C  19,C  18,C   8,N   9)   -179.5544         0.016381   
    315. D(C  19,C  18,C   8,N   7)      0.8224         0.016381   
    316. D(H  63,C  19,C  18,C  23)    178.9372         0.026365   
    317. D(H  63,C  19,C  18,C   8)     -0.0297         0.026365   
    318. D(C  20,C  19,C  18,C  23)     -0.5715         0.026365   
    319. D(C  20,C  19,C  18,C   8)   -179.5384         0.026365   
    320. D(H  64,C  20,C  19,H  63)     -0.4902         0.030898   
    321. D(H  64,C  20,C  19,C  18)    179.0157         0.030898   
    322. D(C  21,C  20,C  19,H  63)   -179.4630         0.030898   
    323. D(C  21,C  20,C  19,C  18)      0.0428         0.030898   
    324. D(N  27,C  21,C  20,H  64)      1.2298         0.024784   
    325. D(C  22,C  21,C  20,H  64)   -178.3499         0.024784   
    326. D(C  22,C  21,C  20,C  19)      0.6143         0.024784   
    327. D(N  27,C  21,C  20,C  19)   -179.8060         0.024784   
    328. D(H  65,C  22,C  21,N  27)     -1.2251         0.024760   
    329. D(H  65,C  22,C  21,C  20)    178.3545         0.024760   
    330. D(C  23,C  22,C  21,N  27)    179.6759         0.024760   
    331. D(C  23,C  22,C  21,C  20)     -0.7445         0.024760   
    332. D(H  66,C  23,C  22,H  65)      0.7776         0.030892   
    333. D(C  18,C  23,C  22,H  65)   -178.8843         0.030892   
    334. D(C  18,C  23,C  22,C  21)      0.2217         0.030892   
    335. D(H  66,C  23,C  18,C  19)   -179.2237         0.026477   
    336. D(H  66,C  23,C  22,C  21)    179.8835         0.030892   
    337. D(H  66,C  23,C  18,C   8)     -0.2580         0.026477   
    338. D(C  22,C  23,C  18,C  19)      0.4395         0.026477   
    339. D(C  22,C  23,C  18,C   8)    179.4053         0.026477   
    340. D(S  26,C  24,C   5,C   4)    145.6766         0.013636   
    341. D(S  26,C  24,C   5,C   0)    -34.5527         0.013636   
    342. D(S  25,C  24,C   5,C   4)    -33.7710         0.013636   
    343. D(S  25,C  24,C   5,C   0)    145.9998         0.013636   
    344. D(H  67,S  26,C  24,S  25)     -4.0003         0.004540   
    345. D(H  67,S  26,C  24,C   5)    176.5560         0.004540   
    346. D(C  32,N  27,C  21,C  22)     13.2845         0.025520   
    347. D(C  32,N  27,C  21,C  20)   -166.2820         0.025520   
    348. D(C  28,N  27,C  21,C  22)    168.1199         0.025520   
    349. D(C  28,N  27,C  21,C  20)    -11.4466         0.025520   
    350. D(C  37,C  28,N  27,C  32)   -128.1391         0.019351   
    351. D(C  37,C  28,N  27,C  21)     75.4861         0.019351   
    352. D(C  29,C  28,N  27,C  32)     50.4501         0.019351   
    353. D(C  29,C  28,N  27,C  21)   -105.9247         0.019351   
    354. D(C  40,C  29,C  28,C  37)     -2.2901         0.027313   
    355. D(C  40,C  29,C  28,N  27)    179.0985         0.027313   
    356. D(S  30,C  29,C  28,C  37)    176.7704         0.027313   
    357. D(S  30,C  29,C  28,N  27)     -1.8409         0.027313   
    358. D(C  31,S  30,C  29,C  40)    142.8067         0.004179   
    359. D(C  31,S  30,C  29,C  28)    -36.2442         0.004179   
    360. D(C  33,C  31,S  30,C  29)   -142.8561         0.004186   
    361. D(C  32,C  31,S  30,C  29)     36.0112         0.004186   
    362. D(C  36,C  32,C  31,C  33)      2.5444         0.027241   
    363. D(C  36,C  32,C  31,S  30)   -176.3347         0.027241   
    364. D(N  27,C  32,C  31,C  33)   -178.8130         0.027241   
    365. D(N  27,C  32,C  31,S  30)      2.3079         0.027241   
    366. D(C  36,C  32,N  27,C  28)    127.9110         0.019419   
    367. D(C  36,C  32,N  27,C  21)    -75.7216         0.019419   
    368. D(C  31,C  32,N  27,C  28)    -50.7081         0.019419   
    369. D(C  31,C  32,N  27,C  21)    105.6593         0.019419   
    370. D(C  34,C  33,C  31,S  30)    178.8734         0.027785   
    371. D(H  68,C  33,C  31,C  32)   -179.0235         0.027785   
    372. D(H  68,C  33,C  31,S  30)     -0.1667         0.027785   
    373. D(C  34,C  33,C  31,C  32)      0.0167         0.027785   
    374. D(H  69,C  34,C  33,H  68)     -1.0742         0.028748   
    375. D(H  69,C  34,C  33,C  31)    179.8949         0.028748   
    376. D(C  35,C  34,C  33,H  68)    177.1809         0.028748   
    377. D(C  35,C  34,C  33,C  31)     -1.8500         0.028748   
    378. D(H  70,C  35,C  34,H  69)      0.1847         0.027898   
    379. D(H  70,C  35,C  34,C  33)   -178.0615         0.027898   
    380. D(C  36,C  35,C  34,H  69)    179.3687         0.027898   
    381. D(C  36,C  35,C  34,C  33)      1.1224         0.027898   
    382. D(H  71,C  36,C  35,H  70)     -0.2604         0.028677   
    383. D(H  71,C  36,C  35,C  34)   -179.4469         0.028677   
    384. D(C  32,C  36,C  35,H  70)   -179.3650         0.028677   
    385. D(C  32,C  36,C  35,C  34)      1.4485         0.028677   
    386. D(H  71,C  36,C  32,C  31)    177.6028         0.028253   
    387. D(H  71,C  36,C  32,N  27)     -0.9971         0.028253   
    388. D(C  35,C  36,C  32,C  31)     -3.2755         0.028253   
    389. D(C  35,C  36,C  32,N  27)    178.1246         0.028253   
    390. D(H  72,C  37,C  28,C  29)   -177.8037         0.028278   
    391. D(H  72,C  37,C  28,N  27)      0.7656         0.028278   
    392. D(C  38,C  37,C  28,C  29)      3.2120         0.028278   
    393. D(C  38,C  37,C  28,N  27)   -178.2187         0.028278   
    394. D(H  73,C  38,C  37,H  72)      0.1559         0.028716   
    395. D(H  73,C  38,C  37,C  28)    179.1209         0.028716   
    396. D(C  39,C  38,C  37,H  72)    179.4321         0.028716   
    397. D(C  39,C  38,C  37,C  28)     -1.6029         0.028716   
    398. D(H  74,C  39,C  38,H  73)     -0.1497         0.027885   
    399. D(H  74,C  39,C  38,C  37)   -179.4235         0.027885   
    400. D(C  40,C  39,C  38,H  73)    178.3332         0.027885   
    401. D(C  40,C  39,C  38,C  37)     -0.9405         0.027885   
    402. D(H  75,C  40,C  39,H  74)      1.0869         0.028764   
    403. D(H  75,C  40,C  39,C  38)   -177.4025         0.028764   
    404. D(C  29,C  40,C  39,H  74)   -179.6504         0.028764   
    405. D(C  29,C  40,C  39,C  38)      1.8602         0.028764   
    406. D(H  75,C  40,C  29,S  30)     -0.0178         0.027835   
    407. D(H  75,C  40,C  29,C  28)    179.0238         0.027835   
    408. D(C  39,C  40,C  29,S  30)   -179.2869         0.027835   
    409. D(C  39,C  40,C  29,C  28)     -0.2453         0.027835   
    410. D(C  46,N  41,C  15,C  16)    -91.1860         0.016375   
    411. D(C  46,N  41,C  15,C  14)     88.8764         0.016375   
    412. D(C  42,N  41,C  15,C  16)     88.5011         0.016375   
    413. D(C  42,N  41,C  15,C  14)    -91.4364         0.016375   
    414. D(C  47,C  42,N  41,C  46)   -179.6142         0.026632   
    415. D(C  47,C  42,N  41,C  15)      0.7255         0.026632   
    416. D(C  43,C  42,N  41,C  46)      0.3320         0.026632   
    417. D(C  43,C  42,N  41,C  15)   -179.3283         0.026632   
    418. D(C  50,C  43,C  42,C  47)     -0.0538         0.023689   
    419. D(C  50,C  43,C  42,N  41)    179.9990         0.023689   
    420. D(S  44,C  43,C  42,C  47)    179.9533         0.023689   
    421. D(S  44,C  43,C  42,N  41)      0.0061         0.023689   
    422. D(C  45,S  44,C  43,C  50)    179.6608         0.005386   
    423. D(C  45,S  44,C  43,C  42)     -0.3460         0.005386   
    424. D(C  51,C  45,S  44,C  43)   -179.5957         0.005391   
    425. D(C  46,C  45,S  44,C  43)      0.4626         0.005391   
    426. D(C  54,C  46,C  45,C  51)     -0.1576         0.023697   
    427. D(C  54,C  46,C  45,S  44)    179.7817         0.023697   
    428. D(N  41,C  46,C  45,C  51)    179.8119         0.023697   
    429. D(N  41,C  46,C  45,S  44)     -0.2488         0.023697   
    430. D(C  54,C  46,N  41,C  42)    179.7629         0.026652   
    431. D(C  54,C  46,N  41,C  15)     -0.5769         0.026652   
    432. D(C  45,C  46,N  41,C  42)     -0.2060         0.026652   
    433. D(C  45,C  46,N  41,C  15)    179.4542         0.026652   
    434. D(H  76,C  47,C  42,C  43)   -179.9174         0.023891   
    435. D(H  76,C  47,C  42,N  41)      0.0311         0.023891   
    436. D(C  48,C  47,C  42,C  43)      0.0171         0.023891   
    437. D(C  48,C  47,C  42,N  41)    179.9655         0.023891   
    438. D(H  77,C  48,C  47,H  76)     -0.0003         0.032286   
    439. D(H  77,C  48,C  47,C  42)   -179.9347         0.032286   
    440. D(C  49,C  48,C  47,H  76)    179.9628         0.032286   
    441. D(C  49,C  48,C  47,C  42)      0.0284         0.032286   
    442. D(H  78,C  49,C  48,H  77)     -0.0472         0.025459   
    443. D(H  78,C  49,C  48,C  47)    179.9900         0.025459   
    444. D(C  50,C  49,C  48,H  77)    179.9254         0.025459   
    445. D(C  50,C  49,C  48,C  47)     -0.0375         0.025459   
    446. D(H  79,C  50,C  49,H  78)     -0.0134         0.032321   
    447. D(H  79,C  50,C  49,C  48)   -179.9860         0.032321   
    448. D(C  43,C  50,C  49,H  78)    179.9728         0.032321   
    449. D(C  43,C  50,C  49,C  48)      0.0001         0.032321   
    450. D(H  79,C  50,C  43,S  44)      0.0256         0.025314   
    451. D(H  79,C  50,C  43,C  42)   -179.9678         0.025314   
    452. D(C  49,C  50,C  43,S  44)   -179.9607         0.025314   
    453. D(C  49,C  50,C  43,C  42)      0.0458         0.025314   
    454. D(H  80,C  51,C  45,C  46)   -179.9627         0.025314   
    455. D(H  80,C  51,C  45,S  44)      0.0937         0.025314   
    456. D(C  52,C  51,C  45,C  46)     -0.0037         0.025314   
    457. D(C  52,C  51,C  45,S  44)   -179.9474         0.025314   
    458. D(H  81,C  52,C  51,H  80)      0.0391         0.032333   
    459. D(H  81,C  52,C  51,C  45)   -179.9193         0.032333   
    460. D(C  53,C  52,C  51,H  80)   -179.9528         0.032333   
    461. D(C  53,C  52,C  51,C  45)      0.0889         0.032333   
    462. D(H  82,C  53,C  52,H  81)     -0.0197         0.025459   
    463. D(H  82,C  53,C  52,C  51)    179.9722         0.025459   
    464. D(C  54,C  53,C  52,H  81)   -179.9996         0.025459   
    465. D(C  54,C  53,C  52,C  51)     -0.0078         0.025459   
    466. D(H  83,C  54,C  53,H  82)     -0.0340         0.032297   
    467. D(H  83,C  54,C  53,C  52)    179.9461         0.032297   
    468. D(C  46,C  54,C  53,H  82)    179.8600         0.032297   
    469. D(C  46,C  54,C  53,C  52)     -0.1599         0.032297   
    470. D(H  83,C  54,C  46,C  45)   -179.8670         0.023884   
    471. D(H  83,C  54,C  46,N  41)      0.1628         0.023884   
    472. D(C  53,C  54,C  46,C  45)      0.2388         0.023884   
    473. D(C  53,C  54,C  46,N  41)   -179.7315         0.023884   
    -----------------------------------------------------------------

Number of atoms                         .... 84
Number of degrees of freedom            .... 473

         *************************************************************
         *                GEOMETRY OPTIMIZATION CYCLE   1            *
         *************************************************************
---------------------------------
CARTESIAN COORDINATES (ANGSTROEM)
---------------------------------
  C     -8.347063   -1.159973   -0.020850
  C     -6.968093   -1.170085    0.001382
  C     -6.259769    0.007521    0.199548
  C     -6.957704    1.194223    0.397506
  C     -8.334599    1.200569    0.401185
  C     -9.048859    0.025470    0.181906
  C     -4.784441    0.002935    0.181906
  N     -4.156393    1.165933    0.182683
  C     -2.825019    1.135956    0.125507
  N     -2.128687   -0.006991    0.082940
  C     -2.842791   -1.114486    0.107635
  N     -4.163077   -1.177815    0.153564
  C     -2.101330   -2.402269    0.079054
  C     -2.773775   -3.600625    0.279457
  C     -2.086727   -4.799077    0.258536
  C     -0.725416   -4.785776    0.027507
  C     -0.037081   -3.605846   -0.177177
  C     -0.730779   -2.412104   -0.145735
  C     -2.096999    2.396481    0.099817
  C     -2.770093    3.615253    0.151134
  C     -2.090535    4.807825    0.117874
  C     -0.692347    4.834148    0.029958
  C     -0.015814    3.608718   -0.035823
  C     -0.708076    2.423554    0.001080
  C    -10.529569    0.054849    0.173043
  S    -11.403392    1.047967    1.110714
  S    -11.227799   -1.076532   -0.959340
  N     -0.000000    6.036063   -0.000000
  C     -0.690266    7.266989   -0.185885
  C     -0.592654    7.902944   -1.416551
  S      0.416688    7.186101   -2.671580
  C      1.700357    6.571840   -1.631649
  C      1.371615    6.074934   -0.376879
  C      3.025115    6.600813   -2.039813
  C      4.015029    6.134179   -1.195597
  C      3.690994    5.673649    0.070851
  C      2.371982    5.658351    0.484649
  C     -1.423053    7.846474    0.835589
  C     -2.111083    9.023758    0.608887
  C     -2.040409    9.640950   -0.630155
  C     -1.267625    9.093606   -1.636833
  N     -0.000000   -6.036063    0.000000
  C      0.548988   -6.479099    1.188291
  C      1.286341   -7.674395    1.274093
  S      1.583907   -8.702566   -0.065244
  C      0.786795   -7.906967   -1.357717
  C      0.095246   -6.690164   -1.213471
  C      0.376168   -5.726295    2.363073
  C      0.910966   -6.148130    3.548806
  C      1.642822   -7.336574    3.623944
  C      1.825728   -8.087903    2.496295
  C      0.856393   -8.539068   -2.603236
  C      0.253262   -7.982899   -3.697001
  C     -0.434545   -6.773404   -3.563983
  C     -0.512613   -6.138974   -2.355179
  H     -8.883382   -2.086132   -0.171259
  H     -6.427021   -2.092648   -0.143207
  H     -6.405817    2.109690    0.547818
  H     -8.877991    2.119375    0.565508
  H     -3.838998   -3.576604    0.454006
  H     -2.602361   -5.736397    0.418933
  H      1.029521   -3.621998   -0.357161
  H     -0.221886   -1.471888   -0.295993
  H     -3.848284    3.616493    0.210288
  H     -2.646800    5.730621    0.143441
  H      1.057580    3.589200   -0.130909
  H     -0.167811    1.490235   -0.052802
  H    -12.500756   -0.822863   -0.629535
  H      3.276171    7.003587   -3.011715
  H      5.047043    6.156625   -1.517704
  H      4.469271    5.338048    0.742179
  H      2.102867    5.310552    1.472674
  H     -1.460234    7.357014    1.799230
  H     -2.694335    9.467122    1.403946
  H     -2.570672   10.566783   -0.805772
  H     -1.175335    9.592751   -2.591904
  H     -0.184873   -4.807592    2.327869
  H      0.761936   -5.550511    4.436972
  H      2.061397   -7.660985    4.565728
  H      2.389263   -9.010766    2.535729
  H      1.393819   -9.474393   -2.687504
  H      0.309063   -8.476196   -4.656669
  H     -0.913005   -6.328519   -4.425009
  H     -1.046926   -5.207289   -2.275027

----------------------------
CARTESIAN COORDINATES (A.U.)
----------------------------
  NO LB      ZA    FRAG     MASS         X           Y           Z
   0 C     6.0000    0    12.011  -15.773664   -2.192031   -0.039401
   1 C     6.0000    0    12.011  -13.167788   -2.211141    0.002612
   2 C     6.0000    0    12.011  -11.829248    0.014212    0.377091
   3 C     6.0000    0    12.011  -13.148156    2.256755    0.751178
   4 C     6.0000    0    12.011  -15.750110    2.268747    0.758129
   5 C     6.0000    0    12.011  -17.099865    0.048131    0.343753
   6 C     6.0000    0    12.011   -9.041283    0.005546    0.343753
   7 N     7.0000    0    14.007   -7.854444    2.203294    0.345220
   8 C     6.0000    0    12.011   -5.338512    2.146645    0.237173
   9 N     7.0000    0    14.007   -4.022635   -0.013211    0.156734
  10 C     6.0000    0    12.011   -5.372096   -2.106073    0.203401
  11 N     7.0000    0    14.007   -7.867075   -2.225747    0.290194
  12 C     6.0000    0    12.011   -3.970938   -4.539631    0.149391
  13 C     6.0000    0    12.011   -5.241675   -6.804196    0.528097
  14 C     6.0000    0    12.011   -3.943342   -9.068941    0.488562
  15 C     6.0000    0    12.011   -1.370837   -9.043806    0.051980
  16 C     6.0000    0    12.011   -0.070073   -6.814061   -0.334816
  17 C     6.0000    0    12.011   -1.380971   -4.558216   -0.275399
  18 C     6.0000    0    12.011   -3.962754    4.528692    0.188626
  19 C     6.0000    0    12.011   -5.234717    6.831838    0.285601
  20 C     6.0000    0    12.011   -3.950539    9.085473    0.222750
  21 C     6.0000    0    12.011   -1.308347    9.135215    0.056612
  22 C     6.0000    0    12.011   -0.029884    6.819488   -0.067696
  23 C     6.0000    0    12.011   -1.338070    4.579854    0.002042
  24 C     6.0000    0    12.011  -19.898001    0.103650    0.327004
  25 S    16.0000    0    32.060  -21.549288    1.980370    2.098946
  26 S    16.0000    0    32.060  -21.217465   -2.034350   -1.812890
  27 N     7.0000    0    14.007   -0.000000   11.406506   -0.000000
  28 C     6.0000    0    12.011   -1.304413   13.732619   -0.351272
  29 C     6.0000    0    12.011   -1.119954   14.934400   -2.676894
  30 S    16.0000    0    32.060    0.787427   13.579764   -5.048555
  31 C     6.0000    0    12.011    3.213208   12.418978   -3.083371
  32 C     6.0000    0    12.011    2.591976   11.479961   -0.712198
  33 C     6.0000    0    12.011    5.716638   12.473729   -3.854688
  34 C     6.0000    0    12.011    7.587304   11.591919   -2.259352
  35 C     6.0000    0    12.011    6.974968   10.721643    0.133890
  36 C     6.0000    0    12.011    4.482397   10.692734    0.915854
  37 C     6.0000    0    12.011   -2.689181   14.827688    1.579034
  38 C     6.0000    0    12.011   -3.989369   17.052431    1.150630
  39 C     6.0000    0    12.011   -3.855814   18.218755   -1.190820
  40 C     6.0000    0    12.011   -2.395464   17.184425   -3.093166
  41 N     7.0000    0    14.007   -0.000000  -11.406506    0.000000
  42 C     6.0000    0    12.011    1.037437  -12.243723    2.245544
  43 C     6.0000    0    12.011    2.430832  -14.502505    2.407686
  44 S    16.0000    0    32.060    2.993150  -16.445466   -0.123293
  45 C     6.0000    0    12.011    1.486827  -14.942001   -2.565714
  46 C     6.0000    0    12.011    0.179989  -12.642577   -2.293128
  47 C     6.0000    0    12.011    0.710855  -10.821130    4.465560
  48 C     6.0000    0    12.011    1.721476  -11.618283    6.706271
  49 C     6.0000    0    12.011    3.104484  -13.864116    6.848262
  50 C     6.0000    0    12.011    3.450126  -15.283922    4.717314
  51 C     6.0000    0    12.011    1.618348  -16.136501   -4.919403
  52 C     6.0000    0    12.011    0.478595  -15.085493   -6.986319
  53 C     6.0000    0    12.011   -0.821171  -12.799878   -6.734951
  54 C     6.0000    0    12.011   -0.968698  -11.600979   -4.450643
  55 H     1.0000    0     1.008  -16.787160   -3.942217   -0.323632
  56 H     1.0000    0     1.008  -12.145310   -3.954532   -0.270621
  57 H     1.0000    0     1.008  -12.105239    3.986737    1.035225
  58 H     1.0000    0     1.008  -16.776971    4.005038    1.068655
  59 H     1.0000    0     1.008   -7.254655   -6.758802    0.857948
  60 H     1.0000    0     1.008   -4.917750  -10.840220    0.791669
  61 H     1.0000    0     1.008    1.945512   -6.844584   -0.674936
  62 H     1.0000    0     1.008   -0.419304   -2.781466   -0.559346
  63 H     1.0000    0     1.008   -7.272203    6.834182    0.397388
  64 H     1.0000    0     1.008   -5.001727   10.829304    0.271064
  65 H     1.0000    0     1.008    1.998537    6.782605   -0.247382
  66 H     1.0000    0     1.008   -0.317116    2.816136   -0.099781
  67 H     1.0000    0     1.008  -23.623005   -1.554987   -1.189649
  68 H     1.0000    0     1.008    6.191066   13.234861   -5.691316
  69 H     1.0000    0     1.008    9.537528   11.634335   -2.868045
  70 H     1.0000    0     1.008    8.445698   10.087448    1.402516
  71 H     1.0000    0     1.008    3.973843   10.035490    2.782951
  72 H     1.0000    0     1.008   -2.759443   13.902742    3.400051
  73 H     1.0000    0     1.008   -5.091556   17.890267    2.653074
  74 H     1.0000    0     1.008   -4.857865   19.968327   -1.522689
  75 H     1.0000    0     1.008   -2.221061   18.127673   -4.897989
  76 H     1.0000    0     1.008   -0.349359   -9.085033    4.399034
  77 H     1.0000    0     1.008    1.439850  -10.488946    8.384662
  78 H     1.0000    0     1.008    3.895475  -14.477164    8.627975
  79 H     1.0000    0     1.008    4.515053  -17.027880    4.791833
  80 H     1.0000    0     1.008    2.633935  -17.904008   -5.078647
  81 H     1.0000    0     1.008    0.584044  -16.017689   -8.799829
  82 H     1.0000    0     1.008   -1.725330  -11.959167   -8.362055
  83 H     1.0000    0     1.008   -1.978403   -9.840350   -4.299179

--------------------------------
INTERNAL COORDINATES (ANGSTROEM)
--------------------------------
 C      0   0   0     0.000000000000     0.00000000     0.00000000
 C      1   0   0     1.379186315164     0.00000000     0.00000000
 C      2   1   0     1.388434198302   120.40857735     0.00000000
 C      3   2   1     1.390886426810   119.20676351     1.05607031
 C      4   3   2     1.376914227030   120.40423407     0.20510490
 C      1   2   3     1.392444266568   120.51860987   358.69223918
 C      3   2   1     1.475440370385   120.38308714   181.88585737
 N      7   3   2     1.321745195811   118.18938290   170.47386825
 C      8   7   3     1.332938108700   117.05169687   181.98254718
 N      9   8   7     1.339036230634   122.68191367   359.29366307
 C     10   9   8     1.317990733356   115.77801086   359.67933781
 N     11  10   9     1.322601459005   125.57371868     0.86351251
 C     11  10   9     1.486260034592   117.22067523   180.75054120
 C     13  11  10     1.388668659191   120.22279369   171.50677491
 C     14  13  11     1.381578330855   120.36966877   180.24500117
 C     15  14  13     1.380840198743   118.97556382   359.60820953
 C     16  15  14     1.381280321257   121.62142746     0.25258996
 C     17  16  15     1.381023052031   118.99268983     0.16912564
 C      9   8   7     1.455883403222   118.73453402   178.90050827
 C     19   9   8     1.393231996268   121.00836363     0.82241823
 C     20  19   9     1.373001665227   121.31989486   180.46156240
 C     21  20  19     1.401196345812   120.77828706     0.04284940
 C     22  21  20     1.401321645181   117.92163213     0.61430845
 C     23  22  21     1.373026223419   120.67429977   359.25554071
 C      6   1   2     1.481027880098   121.32628418   180.51907283
 S     25   6   1     1.621442773552   123.19505745   145.99976811
 S     25   6   1     1.746379367865   113.00174199   325.44733525
 N     22  21  20     1.387387384417   121.03670615   180.19395693
 C     28  22  21     1.423446019258   120.66214352   348.55342704
 C     29  28  22     1.388706647520   118.53214741   254.07531546
 S     30  29  28     1.762876319616   119.00789574   358.15908999
 C     31  30  29     1.762548614197    97.97045968   323.75579216
 C     32  31  30     1.389041423249   119.03138708    36.01116100
 C     32  31  30     1.386513727663   120.99020851   217.14391203
 C     34  32  31     1.382163631428   119.83113247   178.87339706
 C     35  34  32     1.385993966019   120.18850922   358.14998046
 C     36  35  34     1.382481227114   120.01548590     1.12244805
 C     29  28  22     1.384264983383   121.48976505    75.48614227
 C     38  29  28     1.382307919002   119.93393584   181.78131371
 C     39  38  29     1.386054141994   120.03106233   358.39712504
 C     40  39  38     1.382093307098   120.21742586   359.05951859
 N     16  15  14     1.445753399985   119.30856419   180.18849579
 C     42  16  15     1.381920079417   117.40130819   268.56355600
 C     43  42  16     1.407047823429   122.20611459   180.67166715
 S     44  43  42     1.714497475112   123.55639010     0.00000000
 C     45  44  43     1.714308239386   103.29389866   359.65403663
 C     42  16  15     1.381821612168   117.42940422    88.87641365
 C     43  42  16     1.405949198536   119.86838739     0.72545630
 C     48  43  42     1.367448931392   120.75006489   179.96553951
 C     49  48  43     1.397733304489   120.90943106     0.02844911
 C     50  49  48     1.367312058397   119.53287938   359.96253809
 C     46  45  44     1.398468410790   116.01248855   180.40433921
 C     52  46  45     1.367264723804   120.44158725   180.05262741
 C     53  52  46     1.397730552367   119.53364323     0.08886039
 C     54  53  52     1.367407013983   120.91098076     0.00000000
 H      1   2   3     1.080754716719   119.48049606   180.30584668
 H      2   1   3     1.079253440266   120.35584384   180.50309720
 H      4   3   2     1.079469065015   119.13350013   180.22436704
 H      5   4   3     1.080037286533   120.49366458   179.32897102
 H     14  13  11     1.079697014096   118.80805911     0.06922170
 H     15  14  13     1.081746527192   120.82030222   179.67643616
 H     17  16  15     1.081801197954   120.21385847   180.05785443
 H     18  17  16     1.079608272764   120.85348283   179.63250440
 H     20  19   9     1.079813279249   119.03958450   359.97033942
 H     21  20  19     1.077792285389   119.18651392   179.01565625
 H     23  22  21     1.077774469749   120.05281212   178.35450582
 H     24  23  22     1.079756959183   119.50476191   179.88353263
 H     27  25   6     1.339230166634    95.60317138   176.55604375
 H     34  32  31     1.081595731807   119.60942361   359.83325547
 H     35  34  32     1.081346135374   119.64233318   179.89485745
 H     36  35  34     1.081214383015   120.14536752   181.93846532
 H     37  36  35     1.081471639084   120.95926456   180.55308766
 H     38  29  28     1.081460902804   119.09504827     0.76563330
 H     39  38  29     1.081144195345   119.81342512   179.12093768
 H     40  39  38     1.081289752076   120.09606361   180.57654607
 H     41  40  39     1.081584289503   120.53878201   182.59747083
 H     48  43  42     1.077042971729   119.56715682     0.03109006
 H     49  48  43     1.080832033745   119.21253999   180.06532136
 H     50  49  48     1.080464730544   120.33103927   179.98995241
 H     51  50  49     1.082036354686   120.54883175   180.01400450
 H     52  46  45     1.082016262633   118.99931406     0.09365187
 H     53  52  46     1.080471402143   120.13416640   180.08074681
 H     54  53  52     1.080839306173   119.88101383   179.97220496
 H     55  54  53     1.077010649869   119.70094102   179.94605447

---------------------------
INTERNAL COORDINATES (A.U.)
---------------------------
 C      0   0   0     0.000000000000     0.00000000     0.00000000
 C      1   0   0     2.606284423312     0.00000000     0.00000000
 C      2   1   0     2.623760389762   120.40857735     0.00000000
 C      3   2   1     2.628394430059   119.20676351     1.05607031
 C      4   3   2     2.601990798986   120.40423407     0.20510490
 C      1   2   3     2.631338320563   120.51860987   358.69223918
 C      3   2   1     2.788178226960   120.38308714   181.88585737
 N      7   3   2     2.497736438909   118.18938290   170.47386825
 C      8   7   3     2.518887978909   117.05169687   181.98254718
 N      9   8   7     2.530411759296   122.68191367   359.29366307
 C     10   9   8     2.490641533089   115.77801086   359.67933781
 N     11  10   9     2.499354541843   125.57371868     0.86351251
 C     11  10   9     2.808624429172   117.22067523   180.75054120
 C     13  11  10     2.624203456631   120.22279369   171.50677491
 C     14  13  11     2.610804677876   120.36966877   180.24500117
 C     15  14  13     2.609409810333   118.97556382   359.60820953
 C     16  15  14     2.610241521350   121.62142746     0.25258996
 C     17  16  15     2.609755352971   118.99268983     0.16912564
 C      9   8   7     2.751220915010   118.73453402   178.90050827
 C     19   9   8     2.632826913962   121.00836363     0.82241823
 C     20  19   9     2.594597128697   121.31989486   180.46156240
 C     21  20  19     2.647877353437   120.77828706     0.04284940
 C     22  21  20     2.648114134927   117.92163213     0.61430845
 C     23  22  21     2.594643536954   120.67429977   359.25554071
 C      6   1   2     2.798737090086   121.32628418   180.51907283
 S     25   6   1     3.064082783838   123.19505745   145.99976811
 S     25   6   1     3.300178731196   113.00174199   325.44733525
 N     22  21  20     2.621782198206   121.03670615   180.19395693
 C     28  22  21     2.689923142819   120.66214352   348.55342704
 C     29  28  22     2.624275244169   118.53214741   254.07531546
 S     30  29  28     3.331353452050   119.00789574   358.15908999
 C     31  30  29     3.330734178555    97.97045968   323.75579216
 C     32  31  30     2.624907878614   119.03138708    36.01116100
 C     32  31  30     2.620131226206   120.99020851   217.14391203
 C     34  32  31     2.611910735666   119.83113247   178.87339706
 C     35  34  32     2.619149019044   120.18850922   358.14998046
 C     36  35  34     2.612510904532   120.01548590     1.12244805
 C     29  28  22     2.615881715371   121.48976505    75.48614227
 C     38  29  28     2.612183399664   119.93393584   181.78131371
 C     39  38  29     2.619262735156   120.03106233   358.39712504
 C     40  39  38     2.611777841940   120.21742586   359.05951859
 N     16  15  14     2.732077983158   119.30856419   180.18849579
 C     42  16  15     2.611450489065   117.40130819   268.56355600
 C     43  42  16     2.658935043612   122.20611459   180.67166715
 S     44  43  42     3.239930685261   123.55639010     0.00000000
 C     45  44  43     3.239573081564   103.29389866   359.65403663
 C     42  16  15     2.611264412930   117.42940422    88.87641365
 C     43  42  16     2.656858943440   119.86838739     0.72545630
 C     48  43  42     2.584103982454   120.75006489   179.96553951
 C     49  48  43     2.641333153744   120.90943106     0.02844911
 C     50  49  48     2.583845329979   119.53287938   359.96253809
 C     46  45  44     2.642722303334   116.01248855   180.40433921
 C     52  46  45     2.583755880562   120.44158725   180.05262741
 C     53  52  46     2.641327952988   119.53364323     0.08886039
 C     54  53  52     2.584024770032   120.91098076     0.00000000
 H      1   2   3     2.042330432543   119.48049606   180.30584668
 H      2   1   3     2.039493431194   120.35584384   180.50309720
 H      4   3   2     2.039900902919   119.13350013   180.22436704
 H      5   4   3     2.040974685970   120.49366458   179.32897102
 H     14  13  11     2.040331664253   118.80805911     0.06922170
 H     15  14  13     2.044204682712   120.82030222   179.67643616
 H     17  16  15     2.044307995480   120.21385847   180.05785443
 H     18  17  16     2.040163967439   120.85348283   179.63250440
 H     20  19   9     2.040551373551   119.03958450   359.97033942
 H     21  20  19     2.036732248638   119.18651392   179.01565625
 H     23  22  21     2.036698581958   120.05281212   178.35450582
 H     24  23  22     2.040444944051   119.50476191   179.88353263
 H     27  25   6     2.530778245225    95.60317138   176.55604375
 H     34  32  31     2.043919720734   119.60942361   359.83325547
 H     35  34  32     2.043448051830   119.64233318   179.89485745
 H     36  35  34     2.043199075954   120.14536752   181.93846532
 H     37  36  35     2.043685219472   120.95926456   180.55308766
 H     38  29  28     2.043664930842   119.09504827     0.76563330
 H     39  38  29     2.043066440482   119.81342512   179.12093768
 H     40  39  38     2.043341502839   120.09606361   180.57654607
 H     41  40  39     2.043898097912   120.53878201   182.59747083
 H     48  43  42     2.035316251032   119.56715682     0.03109006
 H     49  48  43     2.042476540548   119.21253999   180.06532136
 H     50  49  48     2.041782438089   120.33103927   179.98995241
 H     51  50  49     2.044752377302   120.54883175   180.01400450
 H     52  46  45     2.044714408825   118.99931406     0.09365187
 H     53  52  46     2.041795045585   120.13416640   180.08074681
 H     54  53  52     2.042490283445   119.88101383   179.97220496
 H     55  54  53     2.035255171569   119.70094102   179.94605447

---------------------
BASIS SET INFORMATION
---------------------
There are 4 groups of distinct atoms

 Group   1 Type C   : 11s6p2d1f contracted to 5s3p2d1f pattern {62111/411/11/1}
 Group   2 Type N   : 11s6p2d1f contracted to 5s3p2d1f pattern {62111/411/11/1}
 Group   3 Type S   : 14s9p3d1f contracted to 5s5p2d1f pattern {73211/51111/21/1}
 Group   4 Type H   : 5s1p contracted to 3s1p pattern {311/1}

Atom   0C    basis set group =>   1
Atom   1C    basis set group =>   1
Atom   2C    basis set group =>   1
Atom   3C    basis set group =>   1
Atom   4C    basis set group =>   1
Atom   5C    basis set group =>   1
Atom   6C    basis set group =>   1
Atom   7N    basis set group =>   2
Atom   8C    basis set group =>   1
Atom   9N    basis set group =>   2
Atom  10C    basis set group =>   1
Atom  11N    basis set group =>   2
Atom  12C    basis set group =>   1
Atom  13C    basis set group =>   1
Atom  14C    basis set group =>   1
Atom  15C    basis set group =>   1
Atom  16C    basis set group =>   1
Atom  17C    basis set group =>   1
Atom  18C    basis set group =>   1
Atom  19C    basis set group =>   1
Atom  20C    basis set group =>   1
Atom  21C    basis set group =>   1
Atom  22C    basis set group =>   1
Atom  23C    basis set group =>   1
Atom  24C    basis set group =>   1
Atom  25S    basis set group =>   3
Atom  26S    basis set group =>   3
Atom  27N    basis set group =>   2
Atom  28C    basis set group =>   1
Atom  29C    basis set group =>   1
Atom  30S    basis set group =>   3
Atom  31C    basis set group =>   1
Atom  32C    basis set group =>   1
Atom  33C    basis set group =>   1
Atom  34C    basis set group =>   1
Atom  35C    basis set group =>   1
Atom  36C    basis set group =>   1
Atom  37C    basis set group =>   1
Atom  38C    basis set group =>   1
Atom  39C    basis set group =>   1
Atom  40C    basis set group =>   1
Atom  41N    basis set group =>   2
Atom  42C    basis set group =>   1
Atom  43C    basis set group =>   1
Atom  44S    basis set group =>   3
Atom  45C    basis set group =>   1
Atom  46C    basis set group =>   1
Atom  47C    basis set group =>   1
Atom  48C    basis set group =>   1
Atom  49C    basis set group =>   1
Atom  50C    basis set group =>   1
Atom  51C    basis set group =>   1
Atom  52C    basis set group =>   1
Atom  53C    basis set group =>   1
Atom  54C    basis set group =>   1
Atom  55H    basis set group =>   4
Atom  56H    basis set group =>   4
Atom  57H    basis set group =>   4
Atom  58H    basis set group =>   4
Atom  59H    basis set group =>   4
Atom  60H    basis set group =>   4
Atom  61H    basis set group =>   4
Atom  62H    basis set group =>   4
Atom  63H    basis set group =>   4
Atom  64H    basis set group =>   4
Atom  65H    basis set group =>   4
Atom  66H    basis set group =>   4
Atom  67H    basis set group =>   4
Atom  68H    basis set group =>   4
Atom  69H    basis set group =>   4
Atom  70H    basis set group =>   4
Atom  71H    basis set group =>   4
Atom  72H    basis set group =>   4
Atom  73H    basis set group =>   4
Atom  74H    basis set group =>   4
Atom  75H    basis set group =>   4
Atom  76H    basis set group =>   4
Atom  77H    basis set group =>   4
Atom  78H    basis set group =>   4
Atom  79H    basis set group =>   4
Atom  80H    basis set group =>   4
Atom  81H    basis set group =>   4
Atom  82H    basis set group =>   4
Atom  83H    basis set group =>   4
---------------------------------
AUXILIARY/J BASIS SET INFORMATION
---------------------------------
There are 4 groups of distinct atoms

 Group   1 Type C   : 12s5p4d2f1g contracted to 6s4p3d1f1g pattern {711111/2111/211/2/1}
 Group   2 Type N   : 12s5p4d2f1g contracted to 6s4p3d1f1g pattern {711111/2111/211/2/1}
 Group   3 Type S   : 14s5p5d2f1g contracted to 8s4p3d1f1g pattern {71111111/2111/311/2/1}
 Group   4 Type H   : 5s2p1d contracted to 3s1p1d pattern {311/2/1}

Atom   0C    basis set group =>   1
Atom   1C    basis set group =>   1
Atom   2C    basis set group =>   1
Atom   3C    basis set group =>   1
Atom   4C    basis set group =>   1
Atom   5C    basis set group =>   1
Atom   6C    basis set group =>   1
Atom   7N    basis set group =>   2
Atom   8C    basis set group =>   1
Atom   9N    basis set group =>   2
Atom  10C    basis set group =>   1
Atom  11N    basis set group =>   2
Atom  12C    basis set group =>   1
Atom  13C    basis set group =>   1
Atom  14C    basis set group =>   1
Atom  15C    basis set group =>   1
Atom  16C    basis set group =>   1
Atom  17C    basis set group =>   1
Atom  18C    basis set group =>   1
Atom  19C    basis set group =>   1
Atom  20C    basis set group =>   1
Atom  21C    basis set group =>   1
Atom  22C    basis set group =>   1
Atom  23C    basis set group =>   1
Atom  24C    basis set group =>   1
Atom  25S    basis set group =>   3
Atom  26S    basis set group =>   3
Atom  27N    basis set group =>   2
Atom  28C    basis set group =>   1
Atom  29C    basis set group =>   1
Atom  30S    basis set group =>   3
Atom  31C    basis set group =>   1
Atom  32C    basis set group =>   1
Atom  33C    basis set group =>   1
Atom  34C    basis set group =>   1
Atom  35C    basis set group =>   1
Atom  36C    basis set group =>   1
Atom  37C    basis set group =>   1
Atom  38C    basis set group =>   1
Atom  39C    basis set group =>   1
Atom  40C    basis set group =>   1
Atom  41N    basis set group =>   2
Atom  42C    basis set group =>   1
Atom  43C    basis set group =>   1
Atom  44S    basis set group =>   3
Atom  45C    basis set group =>   1
Atom  46C    basis set group =>   1
Atom  47C    basis set group =>   1
Atom  48C    basis set group =>   1
Atom  49C    basis set group =>   1
Atom  50C    basis set group =>   1
Atom  51C    basis set group =>   1
Atom  52C    basis set group =>   1
Atom  53C    basis set group =>   1
Atom  54C    basis set group =>   1
Atom  55H    basis set group =>   4
Atom  56H    basis set group =>   4
Atom  57H    basis set group =>   4
Atom  58H    basis set group =>   4
Atom  59H    basis set group =>   4
Atom  60H    basis set group =>   4
Atom  61H    basis set group =>   4
Atom  62H    basis set group =>   4
Atom  63H    basis set group =>   4
Atom  64H    basis set group =>   4
Atom  65H    basis set group =>   4
Atom  66H    basis set group =>   4
Atom  67H    basis set group =>   4
Atom  68H    basis set group =>   4
Atom  69H    basis set group =>   4
Atom  70H    basis set group =>   4
Atom  71H    basis set group =>   4
Atom  72H    basis set group =>   4
Atom  73H    basis set group =>   4
Atom  74H    basis set group =>   4
Atom  75H    basis set group =>   4
Atom  76H    basis set group =>   4
Atom  77H    basis set group =>   4
Atom  78H    basis set group =>   4
Atom  79H    basis set group =>   4
Atom  80H    basis set group =>   4
Atom  81H    basis set group =>   4
Atom  82H    basis set group =>   4
Atom  83H    basis set group =>   4


           ************************************************************
           *        Program running with 36 parallel MPI-processes    *
           *              working on a shared directory               *
           ************************************************************
Error: Cannot open input file Combo62_Cf10tc_0.43404_-0.43404_ck-1.int.tmp

ORCA finished by error termination in GTOInt
Calling Command: mpirun -np 36  /software/rapids/r23.04/ORCA/5.0.3-gompi-2021b/bin/orca_gtoint_mpi Combo62_Cf10tc_0.43404_-0.43404_ck-1.int.tmp Combo62_Cf10tc_0.43404_-0.43404_ck-1 
[file orca_tools/qcmsg.cpp, line 465]: 
  .... aborting the run

