
                                 *****************
                                 * O   R   C   A *
                                 *****************

                                            #,                                       
                                            ###                                      
                                            ####                                     
                                            #####                                    
                                            ######                                   
                                           ########,                                 
                                     ,,################,,,,,                         
                               ,,#################################,,                 
                          ,,##########################################,,             
                       ,#########################################, ''#####,          
                    ,#############################################,,   '####,        
                  ,##################################################,,,,####,       
                ,###########''''           ''''###############################       
              ,#####''   ,,,,##########,,,,          '''####'''          '####       
            ,##' ,,,,###########################,,,                        '##       
           ' ,,###''''                  '''############,,,                           
         ,,##''                                '''############,,,,        ,,,,,,###''
      ,#''                                            '''#######################'''  
     '                                                          ''''####''''         
             ,#######,   #######,   ,#######,      ##                                
            ,#'     '#,  ##    ##  ,#'     '#,    #''#        ######   ,####,        
            ##       ##  ##   ,#'  ##            #'  '#       #        #'  '#        
            ##       ##  #######   ##           ,######,      #####,   #    #        
            '#,     ,#'  ##    ##  '#,     ,#' ,#      #,         ##   #,  ,#        
             '#######'   ##     ##  '#######'  #'      '#     #####' # '####'        



                  #######################################################
                  #                        -***-                        #
                  #          Department of theory and spectroscopy      #
                  #    Directorship and core code : Frank Neese         #
                  #        Max Planck Institute fuer Kohlenforschung    #
                  #                Kaiser Wilhelm Platz 1               #
                  #                 D-45470 Muelheim/Ruhr               #
                  #                      Germany                        #
                  #                                                     #
                  #                  All rights reserved                #
                  #                        -***-                        #
                  #######################################################


                         Program Version 5.0.3 -  RELEASE  -


 With contributions from (in alphabetic order):
   Daniel Aravena         : Magnetic Suceptibility
   Michael Atanasov       : Ab Initio Ligand Field Theory (pilot matlab implementation)
   Alexander A. Auer      : GIAO ZORA, VPT2 properties, NMR spectrum
   Ute Becker             : Parallelization
   Giovanni Bistoni       : ED, misc. LED, open-shell LED, HFLD
   Martin Brehm           : Molecular dynamics
   Dmytro Bykov           : SCF Hessian
   Vijay G. Chilkuri      : MRCI spin determinant printing, contributions to CSF-ICE
   Dipayan Datta          : RHF DLPNO-CCSD density
   Achintya Kumar Dutta   : EOM-CC, STEOM-CC
   Dmitry Ganyushin       : Spin-Orbit,Spin-Spin,Magnetic field MRCI
   Miquel Garcia          : C-PCM and meta-GGA Hessian, CC/C-PCM, Gaussian charge scheme
   Yang Guo               : DLPNO-NEVPT2, F12-NEVPT2, CIM, IAO-localization
   Andreas Hansen         : Spin unrestricted coupled pair/coupled cluster methods
   Benjamin Helmich-Paris : MC-RPA, TRAH-SCF, COSX integrals
   Lee Huntington         : MR-EOM, pCC
   Robert Izsak           : Overlap fitted RIJCOSX, COSX-SCS-MP3, EOM
   Marcus Kettner         : VPT2
   Christian Kollmar      : KDIIS, OOCD, Brueckner-CCSD(T), CCSD density, CASPT2, CASPT2-K
   Simone Kossmann        : Meta GGA functionals, TD-DFT gradient, OOMP2, MP2 Hessian
   Martin Krupicka        : Initial AUTO-CI
   Lucas Lang             : DCDCAS
   Marvin Lechner         : AUTO-CI (C++ implementation), FIC-MRCC
   Dagmar Lenk            : GEPOL surface, SMD
   Dimitrios Liakos       : Extrapolation schemes; Compound Job, initial MDCI parallelization
   Dimitrios Manganas     : Further ROCIS development; embedding schemes
   Dimitrios Pantazis     : SARC Basis sets
   Anastasios Papadopoulos: AUTO-CI, single reference methods and gradients
   Taras Petrenko         : DFT Hessian,TD-DFT gradient, ASA, ECA, R-Raman, ABS, FL, XAS/XES, NRVS
   Peter Pinski           : DLPNO-MP2, DLPNO-MP2 Gradient
   Christoph Reimann      : Effective Core Potentials
   Marius Retegan         : Local ZFS, SOC
   Christoph Riplinger    : Optimizer, TS searches, QM/MM, DLPNO-CCSD(T), (RO)-DLPNO pert. Triples
   Tobias Risthaus        : Range-separated hybrids, TD-DFT gradient, RPA, STAB
   Michael Roemelt        : Original ROCIS implementation
   Masaaki Saitow         : Open-shell DLPNO-CCSD energy and density
   Barbara Sandhoefer     : DKH picture change effects
   Avijit Sen             : IP-ROCIS
   Kantharuban Sivalingam : CASSCF convergence, NEVPT2, FIC-MRCI
   Bernardo de Souza      : ESD, SOC TD-DFT
   Georgi Stoychev        : AutoAux, RI-MP2 NMR, DLPNO-MP2 response
   Willem Van den Heuvel  : Paramagnetic NMR
   Boris Wezisla          : Elementary symmetry handling
   Frank Wennmohs         : Technical directorship


 We gratefully acknowledge several colleagues who have allowed us to
 interface, adapt or use parts of their codes:
   Stefan Grimme, W. Hujo, H. Kruse, P. Pracht,  : VdW corrections, initial TS optimization,
                  C. Bannwarth, S. Ehlert          DFT functionals, gCP, sTDA/sTD-DF
   Ed Valeev, F. Pavosevic, A. Kumar             : LibInt (2-el integral package), F12 methods
   Garnet Chan, S. Sharma, J. Yang, R. Olivares  : DMRG
   Ulf Ekstrom                                   : XCFun DFT Library
   Mihaly Kallay                                 : mrcc  (arbitrary order and MRCC methods)
   Jiri Pittner, Ondrej Demel                    : Mk-CCSD
   Frank Weinhold                                : gennbo (NPA and NBO analysis)
   Christopher J. Cramer and Donald G. Truhlar   : smd solvation model
   Lars Goerigk                                  : TD-DFT with DH, B97 family of functionals
   V. Asgeirsson, H. Jonsson                     : NEB implementation
   FAccTs GmbH                                   : IRC, NEB, NEB-TS, DLPNO-Multilevel, CI-OPT
                                                   MM, QMMM, 2- and 3-layer-ONIOM, Crystal-QMMM,
                                                   LR-CPCM, SF, NACMEs, symmetry and pop. for TD-DFT,
                                                   nearIR, NL-DFT gradient (VV10), updates on ESD,
                                                   ML-optimized integration grids
   S Lehtola, MJT Oliveira, MAL Marques          : LibXC Library
   Liviu Ungur et al                             : ANISO software


 Your calculation uses the libint2 library for the computation of 2-el integrals
 For citations please refer to: http://libint.valeyev.net

 Your ORCA version has been built with support for libXC version: 5.1.0
 For citations please refer to: https://tddft.org/programs/libxc/

 This ORCA versions uses:
   CBLAS   interface :  Fast vector & matrix operations
   LAPACKE interface :  Fast linear algebra routines
   SCALAPACK package :  Parallel linear algebra routines
   Shared memory     :  Shared parallel matrices
   BLAS/LAPACK       :  OpenBLAS 0.3.15  USE64BITINT DYNAMIC_ARCH NO_AFFINITY Prescott SINGLE_THREADED
        Core in use  :  Prescott
   Copyright (c) 2011-2014, The OpenBLAS Project


Your calculation utilizes the atom-pairwise dispersion correction
based on tight binding partial charges (D4)
Cite in your paper:
E.Caldeweyher, C.Bannwarth, S.Grimme, J.Chem.Phys., (2017), 147, 034112.
E.Caldeweyher, S.Ehlert, A.Hansen, H.Neugebauer, S.Grimme, J.Chem.Phys., (2018), in progress.
   

XCFun DFT library Copyright 2009-2010 Ulf Ekstrom and contributors.
See http://admol.org/xcfun for more information.
This is free software; see the source code for copying conditions.
There is ABSOLUTELY NO WARRANTY; not even for MERCHANTABILITY or FITNESS FOR A PARTICULAR PURPOSE.
For details see the documentation.
Scientific users of this library should cite U. Ekstrom, L. Visscher, R. Bast, A. J. Thorvaldsen and K. Ruud;
J.Chem.Theor.Comp. 2010, DOI: 10.1021/ct100117s
XCFun Version 0.99 

================================================================================

----- Orbital basis set information -----
Your calculation utilizes the basis: def2-TZVP
   F. Weigend and R. Ahlrichs, Phys. Chem. Chem. Phys. 7, 3297 (2005).

----- AuxJ basis set information -----
Your calculation utilizes the auxiliary basis: def2/J
   F. Weigend, Phys. Chem. Chem. Phys. 8, 1057 (2006).

================================================================================
                                        WARNINGS
                       Please study these warnings very carefully!
================================================================================


WARNING: Geometry Optimization
  ===> : Switching off AutoStart
         For restart on a previous wavefunction, please use MOREAD

INFO   : the flag for use of the SHARK integral package has been found!

================================================================================
                                       INPUT FILE
================================================================================
NAME = Combo62_Cf10tc_0.21702_-0.21702_ck-1.inp
|  1> ## Generated with Autochar
|  2> ! UKS OPT CAM-B3LYP D4 def2-TZVP  CHELPG
|  3> % pointcharges "pointcharges.pc"
|  4> %scf
|  5> 	SCFMode Direct
|  6> 	MaxIter 500
|  7> end
|  8> %pal
|  9> 	nprocs 36
| 10> end
| 11> %elprop
| 12>     Dipole true
| 13> end
| 14> %chelpg
| 15> 	GRID 0.3
| 16> 	RMAX 4
| 17> end
| 18> * xyz 1 2
| 19>  C -8.34706343 -1.15997297 -0.02084997
| 20>  C -6.96809339 -1.17008524 0.00138205
| 21>  C -6.25976856 0.00752069 0.19954797
| 22>  C -6.95770447 1.19422324 0.39750649
| 23>  C -8.33459916 1.20056920 0.40118481
| 24>  C -9.04885865 0.02546972 0.18190637
| 25>  C -4.78444079 0.00293467 0.18190637
| 26>  N -4.15639286 1.16593319 0.18268274
| 27>  C -2.82501904 1.13595585 0.12550659
| 28>  N -2.12868660 -0.00699089 0.08294006
| 29>  C -2.84279102 -1.11448563 0.10763523
| 30>  N -4.16307682 -1.17781475 0.15356396
| 31>  C -2.10132975 -2.40226946 0.07905407
| 32>  C -2.77377468 -3.60062546 0.27945706
| 33>  C -2.08672688 -4.79907709 0.25853589
| 34>  C -0.72541565 -4.78577591 0.02750674
| 35>  C -0.03708096 -3.60584574 -0.17717710
| 36>  C -0.73077856 -2.41210385 -0.14573493
| 37>  C -2.09699884 2.39648078 0.09981665
| 38>  C -2.77009308 3.61525316 0.15113356
| 39>  C -2.09053512 4.80782533 0.11787441
| 40>  C -0.69234735 4.83414751 0.02995796
| 41>  C -0.01581407 3.60871782 -0.03582311
| 42>  C -0.70807611 2.42355437 0.00108048
| 43>  C -10.52956857 0.05484930 0.17304326
| 44>  S -11.40339223 1.04796663 1.11071423
| 45>  S -11.22779899 -1.07653168 -0.95934018
| 46>  N -0.00000000 6.03606324 -0.00000000
| 47>  C -0.69026575 7.26698911 -0.18588509
| 48>  C -0.59265399 7.90294387 -1.41655143
| 49>  S 0.41668839 7.18610141 -2.67158042
| 50>  C 1.70035662 6.57183994 -1.63164949
| 51>  C 1.37161474 6.07493397 -0.37687887
| 52>  C 3.02511455 6.60081303 -2.03981282
| 53>  C 4.01502852 6.13417922 -1.19559749
| 54>  C 3.69099409 5.67364885 0.07085138
| 55>  C 2.37198240 5.65835120 0.48464902
| 56>  C -1.42305350 7.84647431 0.83558863
| 57>  C -2.11108322 9.02375798 0.60888740
| 58>  C -2.04040902 9.64094974 -0.63015480
| 59>  C -1.26762502 9.09360581 -1.63683321
| 60>  N -0.00000000 -6.03606324 0.00000000
| 61>  C 0.54898792 -6.47909934 1.18829053
| 62>  C 1.28634069 -7.67439531 1.27409271
| 63>  S 1.58390658 -8.70256565 -0.06524365
| 64>  C 0.78679510 -7.90696654 -1.35771728
| 65>  C 0.09524596 -6.69016362 -1.21347100
| 66>  C 0.37616817 -5.72629544 2.36307254
| 67>  C 0.91096595 -6.14813038 3.54880573
| 68>  C 1.64282243 -7.33657421 3.62394391
| 69>  C 1.82572816 -8.08790321 2.49629481
| 70>  C 0.85639298 -8.53906849 -2.60323611
| 71>  C 0.25326153 -7.98289922 -3.69700072
| 72>  C -0.43454488 -6.77340379 -3.56398251
| 73>  C -0.51261270 -6.13897388 -2.35517895
| 74>  H -8.88338249 -2.08613159 -0.17125886
| 75>  H -6.42702098 -2.09264837 -0.14320670
| 76>  H -6.40581662 2.10969022 0.54781774
| 77>  H -8.87799073 2.11937496 0.56550802
| 78>  H -3.83899819 -3.57660394 0.45400643
| 79>  H -2.60236128 -5.73639741 0.41893331
| 80>  H 1.02952060 -3.62199775 -0.35716059
| 81>  H -0.22188608 -1.47188847 -0.29599306
| 82>  H -3.84828410 3.61649327 0.21028848
| 83>  H -2.64680008 5.73062100 0.14344111
| 84>  H 1.05758034 3.58919997 -0.13090887
| 85>  H -0.16781063 1.49023504 -0.05280208
| 86>  H -12.50075564 -0.82286347 -0.62953532
| 87>  H 3.27617080 7.00358706 -3.01171465
| 88>  H 5.04704265 6.15662498 -1.51770382
| 89>  H 4.46927111 5.33804769 0.74217938
| 90>  H 2.10286696 5.31055245 1.47267423
| 91>  H -1.46023443 7.35701421 1.79922968
| 92>  H -2.69433513 9.46712163 1.40394630
| 93>  H -2.57067154 10.56678329 -0.80577207
| 94>  H -1.17533487 9.59275132 -2.59190434
| 95>  H -0.18487274 -4.80759236 2.32786869
| 96>  H 0.76193603 -5.55051101 4.43697185
| 97>  H 2.06139660 -7.66098542 4.56572789
| 98>  H 2.38926318 -9.01076610 2.53572881
| 99>  H 1.39381857 -9.47439295 -2.68750403
|100>  H 0.30906257 -8.47619616 -4.65666880
|101>  H -0.91300532 -6.32851871 -4.42500892
|102>  H -1.04692602 -5.20728887 -2.27502748
|103>   
|104> *
|105> 
|106> 
|107>                          ****END OF INPUT****
================================================================================

                       *****************************
                       * Geometry Optimization Run *
                       *****************************

Geometry optimization settings:
Update method            Update   .... BFGS
Choice of coordinates    CoordSys .... Z-matrix Internals
Initial Hessian          InHess   .... Almoef's Model

Convergence Tolerances:
Energy Change            TolE     ....  5.0000e-06 Eh
Max. Gradient            TolMAXG  ....  3.0000e-04 Eh/bohr
RMS Gradient             TolRMSG  ....  1.0000e-04 Eh/bohr
Max. Displacement        TolMAXD  ....  4.0000e-03 bohr
RMS Displacement         TolRMSD  ....  2.0000e-03 bohr
Strict Convergence                ....  False
------------------------------------------------------------------------------
                        ORCA OPTIMIZATION COORDINATE SETUP
------------------------------------------------------------------------------

The optimization will be done in new redundant internal coordinates
Making redundant internal coordinates   ...  (new redundants) done
Evaluating the initial hessian          ...  (Almloef) done
Evaluating the coordinates              ...  done
Calculating the B-matrix                .... done
Calculating the G-matrix                .... done
Diagonalizing the G-matrix              .... done
Small eigenvalue found = 3.216e-04
Small eigenvalue found = 8.085e-04
Small eigenvalue found = 1.075e-03
Small eigenvalue found = 1.840e-03
Small eigenvalue found = 2.230e-03
Small eigenvalue found = 3.050e-03
Small eigenvalue found = 5.086e-03
Small eigenvalue found = 7.491e-03
Small eigenvalue found = 1.068e-02
Small eigenvalue found = 1.483e-02
Small eigenvalue found = 1.708e-02
Small eigenvalue found = 2.197e-02
Small eigenvalue found = 2.498e-02
The first mode is                       ....  227
The number of degrees of freedom        ....  246

    -----------------------------------------------------------------
                    Redundant Internal Coordinates


    -----------------------------------------------------------------
         Definition                    Initial Value    Approx d2E/dq
    -----------------------------------------------------------------
      1. B(C   1,C   0)                  1.3792         0.650116   
      2. B(C   2,C   1)                  1.3884         0.628401   
      3. B(C   3,C   2)                  1.3909         0.622765   
      4. B(C   4,C   3)                  1.3769         0.655565   
      5. B(C   5,C   4)                  1.3925         0.619042   
      6. B(C   5,C   0)                  1.3924         0.619211   
      7. B(C   6,C   2)                  1.4754         0.456482   
      8. B(N   7,C   6)                  1.3217         0.719071   
      9. B(C   8,N   7)                  1.3329         0.690103   
     10. B(N   9,C   8)                  1.3390         0.674815   
     11. B(C  10,N   9)                  1.3180         0.729057   
     12. B(N  11,C   6)                  1.3346         0.685989   
     13. B(N  11,C  10)                  1.3226         0.716812   
     14. B(C  12,C  10)                  1.4863         0.438694   
     15. B(C  13,C  12)                  1.3887         0.627860   
     16. B(C  14,C  13)                  1.3816         0.644429   
     17. B(C  15,C  14)                  1.3808         0.646178   
     18. B(C  16,C  15)                  1.3813         0.645134   
     19. B(C  17,C  16)                  1.3810         0.645744   
     20. B(C  17,C  12)                  1.3889         0.627331   
     21. B(C  18,C   8)                  1.4559         0.490485   
     22. B(C  19,C  18)                  1.3932         0.617422   
     23. B(C  20,C  19)                  1.3730         0.665056   
     24. B(C  21,C  20)                  1.4012         0.599619   
     25. B(C  22,C  21)                  1.4013         0.599343   
     26. B(C  23,C  22)                  1.3730         0.664996   
     27. B(C  23,C  18)                  1.3927         0.618650   
     28. B(C  24,C   5)                  1.4810         0.447208   
     29. B(S  25,C  24)                  1.6214         0.719870   
     30. B(S  26,C  24)                  1.7464         0.454910   
     31. B(N  27,C  21)                  1.3874         0.564994   
     32. B(C  28,N  27)                  1.4234         0.494897   
     33. B(C  29,C  28)                  1.3887         0.627772   
     34. B(S  30,C  29)                  1.7629         0.428160   
     35. B(C  31,S  30)                  1.7625         0.428676   
     36. B(C  32,C  31)                  1.3890         0.627001   
     37. B(C  32,N  27)                  1.4230         0.495742   
     38. B(C  33,C  31)                  1.3865         0.632850   
     39. B(C  34,C  33)                  1.3822         0.643044   
     40. B(C  35,C  34)                  1.3860         0.634059   
     41. B(C  36,C  35)                  1.3825         0.642295   
     42. B(C  36,C  32)                  1.3844         0.637831   
     43. B(C  37,C  28)                  1.3843         0.638099   
     44. B(C  38,C  37)                  1.3823         0.642704   
     45. B(C  39,C  38)                  1.3861         0.633919   
     46. B(C  40,C  39)                  1.3821         0.643211   
     47. B(C  40,C  29)                  1.3863         0.633382   
     48. B(N  41,C  15)                  1.4458         0.455958   
     49. B(C  42,N  41)                  1.3819         0.576456   
     50. B(C  43,C  42)                  1.4070         0.586867   
     51. B(S  44,C  43)                  1.7145         0.511436   
     52. B(C  45,S  44)                  1.7143         0.511792   
     53. B(C  46,C  45)                  1.4070         0.586965   
     54. B(C  46,N  41)                  1.3818         0.576665   
     55. B(C  47,C  42)                  1.4059         0.589241   
     56. B(C  48,C  47)                  1.3674         0.678762   
     57. B(C  49,C  48)                  1.3977         0.607296   
     58. B(C  50,C  49)                  1.3673         0.679103   
     59. B(C  50,C  43)                  1.3985         0.605665   
     60. B(C  51,C  45)                  1.3985         0.605658   
     61. B(C  52,C  51)                  1.3673         0.679221   
     62. B(C  53,C  52)                  1.3977         0.607302   
     63. B(C  54,C  46)                  1.4060         0.589159   
     64. B(C  54,C  53)                  1.3674         0.678866   
     65. B(H  55,C   0)                  1.0808         0.372540   
     66. B(H  56,C   1)                  1.0793         0.374601   
     67. B(H  57,C   3)                  1.0795         0.374304   
     68. B(H  58,C   4)                  1.0800         0.373524   
     69. B(H  59,C  13)                  1.0797         0.373991   
     70. B(H  60,C  14)                  1.0817         0.371186   
     71. B(H  61,C  16)                  1.0818         0.371111   
     72. B(H  62,C  17)                  1.0796         0.374113   
     73. B(H  63,C  19)                  1.0798         0.373831   
     74. B(H  64,C  20)                  1.0778         0.376617   
     75. B(H  65,C  22)                  1.0778         0.376642   
     76. B(H  66,C  23)                  1.0798         0.373908   
     77. B(H  67,S  26)                  1.3392         0.388651   
     78. B(H  68,C  33)                  1.0816         0.371391   
     79. B(H  69,C  34)                  1.0813         0.371732   
     80. B(H  70,C  35)                  1.0812         0.371912   
     81. B(H  71,C  36)                  1.0815         0.371561   
     82. B(H  72,C  37)                  1.0815         0.371575   
     83. B(H  73,C  38)                  1.0811         0.372008   
     84. B(H  74,C  39)                  1.0813         0.371809   
     85. B(H  75,C  40)                  1.0816         0.371407   
     86. B(H  76,C  47)                  1.0770         0.377655   
     87. B(H  77,C  48)                  1.0808         0.372435   
     88. B(H  78,C  49)                  1.0805         0.372937   
     89. B(H  79,C  50)                  1.0820         0.370791   
     90. B(H  80,C  51)                  1.0820         0.370818   
     91. B(H  81,C  52)                  1.0805         0.372928   
     92. B(H  82,C  53)                  1.0808         0.372425   
     93. B(H  83,C  54)                  1.0770         0.377700   
     94. A(C   1,C   0,H  55)          119.4805         0.357816   
     95. A(C   5,C   0,H  55)          119.9812         0.354869   
     96. A(C   1,C   0,C   5)          120.5186         0.437690   
     97. A(C   0,C   1,C   2)          120.4086         0.438855   
     98. A(C   0,C   1,H  56)          120.3558         0.358152   
     99. A(C   2,C   1,H  56)          119.2337         0.356090   
    100. A(C   3,C   2,C   6)          120.4049         0.411288   
    101. A(C   1,C   2,C   3)          119.2068         0.435468   
    102. A(C   1,C   2,C   6)          120.3831         0.411946   
    103. A(C   2,C   3,H  57)          119.1335         0.355498   
    104. A(C   4,C   3,H  57)          120.4623         0.358612   
    105. A(C   2,C   3,C   4)          120.4042         0.438802   
    106. A(C   3,C   4,H  58)          120.4937         0.358485   
    107. A(C   5,C   4,H  58)          118.9329         0.355011   
    108. A(C   3,C   4,C   5)          120.5712         0.438328   
    109. A(C   0,C   5,C   4)          118.8704         0.433846   
    110. A(C   4,C   5,C  24)          119.8029         0.409359   
    111. A(C   0,C   5,C  24)          121.3263         0.409379   
    112. A(N   7,C   6,N  11)          123.8667         0.448120   
    113. A(C   2,C   6,N   7)          118.1894         0.419210   
    114. A(C   2,C   6,N  11)          117.9409         0.415708   
    115. A(C   6,N   7,C   8)          117.0517         0.448606   
    116. A(N   7,C   8,N   9)          122.6819         0.443473   
    117. A(N   7,C   8,C  18)          118.7345         0.421514   
    118. A(N   9,C   8,C  18)          118.5824         0.419832   
    119. A(C   8,N   9,C  10)          115.7780         0.447906   
    120. A(N  11,C  10,C  12)          117.2055         0.416019   
    121. A(N   9,C  10,N  11)          125.5737         0.452844   
    122. A(N   9,C  10,C  12)          117.2207         0.417276   
    123. A(C   6,N  11,C  10)          115.0337         0.447864   
    124. A(C  10,C  12,C  17)          120.1016         0.408930   
    125. A(C  13,C  12,C  17)          119.6755         0.435973   
    126. A(C  10,C  12,C  13)          120.2228         0.408991   
    127. A(C  14,C  13,H  59)          120.8220         0.357518   
    128. A(C  12,C  13,H  59)          118.8081         0.355940   
    129. A(C  12,C  13,C  14)          120.3697         0.438091   
    130. A(C  13,C  14,C  15)          118.9756         0.440371   
    131. A(C  15,C  14,H  60)          120.2041         0.357225   
    132. A(C  13,C  14,H  60)          120.8203         0.357061   
    133. A(C  14,C  15,C  16)          121.6214         0.440458   
    134. A(C  16,C  15,N  41)          119.0700         0.411115   
    135. A(C  14,C  15,N  41)          119.3086         0.411233   
    136. A(C  15,C  16,C  17)          118.9927         0.440405   
    137. A(C  15,C  16,H  61)          120.2139         0.357115   
    138. A(C  17,C  16,H  61)          120.7934         0.357172   
    139. A(C  12,C  17,H  62)          118.7834         0.355908   
    140. A(C  12,C  17,C  16)          120.3630         0.438186   
    141. A(C  16,C  17,H  62)          120.8535         0.357662   
    142. A(C   8,C  18,C  19)          121.0084         0.415933   
    143. A(C  19,C  18,C  23)          117.8667         0.433571   
    144. A(C   8,C  18,C  23)          121.1167         0.416080   
    145. A(C  20,C  19,H  63)          119.6387         0.359413   
    146. A(C  18,C  19,H  63)          119.0396         0.354903   
    147. A(C  18,C  19,C  20)          121.3199         0.439258   
    148. A(C  19,C  20,H  64)          119.1865         0.359868   
    149. A(C  19,C  20,C  21)          120.7783         0.436946   
    150. A(C  21,C  20,H  64)          120.0272         0.353592   
    151. A(C  22,C  21,N  27)          121.0403         0.421545   
    152. A(C  20,C  21,N  27)          121.0367         0.421580   
    153. A(C  20,C  21,C  22)          117.9216         0.428849   
    154. A(C  23,C  22,H  65)          119.2668         0.359867   
    155. A(C  21,C  22,H  65)          120.0528         0.353568   
    156. A(C  21,C  22,C  23)          120.6743         0.436903   
    157. A(C  18,C  23,H  66)          119.0609         0.355035   
    158. A(C  22,C  23,H  66)          119.5048         0.359421   
    159. A(C  18,C  23,C  22)          121.4335         0.439409   
    160. A(S  25,C  24,S  26)          123.8007         0.470137   
    161. A(C   5,C  24,S  26)          113.0017         0.408757   
    162. A(C   5,C  24,S  25)          123.1951         0.443761   
    163. A(C  24,S  26,H  67)           95.6032         0.383004   
    164. A(C  28,N  27,C  32)          114.1554         0.395610   
    165. A(C  21,N  27,C  32)          120.6904         0.404942   
    166. A(C  21,N  27,C  28)          120.6621         0.404820   
    167. A(N  27,C  28,C  29)          118.5321         0.415126   
    168. A(C  29,C  28,C  37)          119.9631         0.437301   
    169. A(N  27,C  28,C  37)          121.4898         0.416332   
    170. A(C  28,C  29,S  30)          119.0079         0.429566   
    171. A(C  28,C  29,C  40)          119.9946         0.436717   
    172. A(S  30,C  29,C  40)          120.9907         0.430252   
    173. A(C  29,S  30,C  31)           97.9705         0.423325   
    174. A(C  32,C  31,C  33)          119.9687         0.436554   
    175. A(S  30,C  31,C  33)          120.9902         0.430280   
    176. A(S  30,C  31,C  32)          119.0314         0.429564   
    177. A(C  31,C  32,C  36)          119.9202         0.437171   
    178. A(N  27,C  32,C  36)          121.5662         0.416428   
    179. A(N  27,C  32,C  31)          118.4992         0.415161   
    180. A(C  31,C  33,H  68)          119.6094         0.355996   
    181. A(C  31,C  33,C  34)          119.8311         0.438547   
    182. A(C  34,C  33,H  68)          120.5524         0.356964   
    183. A(C  35,C  34,H  69)          120.1461         0.356167   
    184. A(C  33,C  34,H  69)          119.6423         0.357019   
    185. A(C  33,C  34,C  35)          120.1885         0.438698   
    186. A(C  36,C  35,H  70)          119.8341         0.356978   
    187. A(C  34,C  35,H  70)          120.1454         0.356197   
    188. A(C  34,C  35,C  36)          120.0155         0.438606   
    189. A(C  35,C  36,H  71)          120.9593         0.356921   
    190. A(C  32,C  36,H  71)          119.0456         0.356498   
    191. A(C  32,C  36,C  35)          119.9892         0.439076   
    192. A(C  28,C  37,H  72)          119.0950         0.356526   
    193. A(C  28,C  37,C  38)          119.9339         0.439159   
    194. A(C  38,C  37,H  72)          120.9631         0.356962   
    195. A(C  37,C  38,C  39)          120.0311         0.438639   
    196. A(C  39,C  38,H  73)          120.1515         0.356199   
    197. A(C  37,C  38,H  73)          119.8134         0.357032   
    198. A(C  38,C  39,C  40)          120.2174         0.438701   
    199. A(C  40,C  39,H  74)          119.6692         0.357048   
    200. A(C  38,C  39,H  74)          120.0961         0.356166   
    201. A(C  29,C  40,C  39)          119.7781         0.438634   
    202. A(C  39,C  40,H  75)          120.5388         0.356982   
    203. A(C  29,C  40,H  75)          119.6790         0.356050   
    204. A(C  42,N  41,C  46)          125.1685         0.417432   
    205. A(C  15,N  41,C  46)          117.4294         0.400454   
    206. A(C  15,N  41,C  42)          117.4013         0.400429   
    207. A(C  43,C  42,C  47)          117.9255         0.425901   
    208. A(N  41,C  42,C  47)          119.8684         0.421778   
    209. A(N  41,C  42,C  43)          122.2061         0.421474   
    210. A(S  44,C  43,C  50)          116.0056         0.440680   
    211. A(C  42,C  43,C  50)          120.4380         0.428004   
    212. A(C  42,C  43,S  44)          123.5564         0.438179   
    213. A(C  43,S  44,C  45)          103.2939         0.451292   
    214. A(C  46,C  45,C  51)          120.4418         0.428015   
    215. A(S  44,C  45,C  51)          116.0125         0.440734   
    216. A(S  44,C  45,C  46)          123.5457         0.438247   
    217. A(C  45,C  46,C  54)          117.9228         0.425903   
    218. A(N  41,C  46,C  54)          119.8499         0.421794   
    219. A(N  41,C  46,C  45)          122.2273         0.421513   
    220. A(C  42,C  47,C  48)          120.7501         0.437178   
    221. A(C  48,C  47,H  76)          119.6827         0.361291   
    222. A(C  42,C  47,H  76)          119.5672         0.352713   
    223. A(C  47,C  48,C  49)          120.9094         0.439565   
    224. A(C  49,C  48,H  77)          119.8780         0.353685   
    225. A(C  47,C  48,H  77)          119.2125         0.360435   
    226. A(C  48,C  49,C  50)          119.5329         0.439604   
    227. A(C  50,C  49,H  78)          120.1361         0.360549   
    228. A(C  48,C  49,H  78)          120.3310         0.353766   
    229. A(C  43,C  50,C  49)          120.4442         0.439391   
    230. A(C  49,C  50,H  79)          120.5488         0.360194   
    231. A(C  43,C  50,H  79)          119.0070         0.353259   
    232. A(C  45,C  51,C  52)          120.4416         0.439404   
    233. A(C  52,C  51,H  80)          120.5591         0.360209   
    234. A(C  45,C  51,H  80)          118.9993         0.353263   
    235. A(C  51,C  52,C  53)          119.5336         0.439619   
    236. A(C  53,C  52,H  81)          120.3322         0.353765   
    237. A(C  51,C  52,H  81)          120.1342         0.360558   
    238. A(C  52,C  53,C  54)          120.9110         0.439578   
    239. A(C  54,C  53,H  82)          119.2080         0.360443   
    240. A(C  52,C  53,H  82)          119.8810         0.353684   
    241. A(C  46,C  54,C  53)          120.7488         0.437179   
    242. A(C  53,C  54,H  83)          119.7009         0.361308   
    243. A(C  46,C  54,H  83)          119.5502         0.352712   
    244. D(H  56,C   1,C   0,C   5)    179.1953         0.029429   
    245. D(H  56,C   1,C   0,H  55)      0.8089         0.029429   
    246. D(C   2,C   1,C   0,H  55)   -179.6942         0.029429   
    247. D(C   2,C   1,C   0,C   5)     -1.3078         0.029429   
    248. D(C   3,C   2,C   1,H  56)   -179.4414         0.027371   
    249. D(C   6,C   2,C   1,C   0)   -178.1141         0.027371   
    250. D(C   3,C   2,C   1,C   0)      1.0561         0.027371   
    251. D(C   6,C   2,C   1,H  56)      1.3884         0.027371   
    252. D(C   4,C   3,C   2,C   1)      0.2051         0.026852   
    253. D(C   4,C   3,C   2,C   6)    179.3751         0.026852   
    254. D(H  57,C   3,C   2,C   1)   -179.7756         0.026852   
    255. D(H  57,C   3,C   2,C   6)     -0.6056         0.026852   
    256. D(H  58,C   4,C   3,C   2)    179.3290         0.029960   
    257. D(C   5,C   4,C   3,H  57)    178.7576         0.029960   
    258. D(C   5,C   4,C   3,C   2)     -1.2229         0.029960   
    259. D(H  58,C   4,C   3,H  57)     -0.6905         0.029960   
    260. D(C   4,C   5,C   0,C   1)      0.2919         0.026528   
    261. D(C   0,C   5,C   4,H  58)   -179.5725         0.026512   
    262. D(C  24,C   5,C   4,C   3)   -179.2528         0.026512   
    263. D(C  24,C   5,C   4,H  58)      0.2039         0.026512   
    264. D(C  24,C   5,C   0,H  55)     -1.1026         0.026528   
    265. D(C   0,C   5,C   4,C   3)      0.9708         0.026512   
    266. D(C   4,C   5,C   0,H  55)    178.6702         0.026528   
    267. D(C  24,C   5,C   0,C   1)   -179.4809         0.026528   
    268. D(N  11,C   6,C   2,C   1)     -8.9174         0.014197   
    269. D(N   7,C   6,C   2,C   3)     -8.6863         0.014197   
    270. D(N  11,C   6,C   2,C   3)    171.9224         0.014197   
    271. D(N   7,C   6,C   2,C   1)    170.4739         0.014197   
    272. D(C   8,N   7,C   6,N  11)      1.3349         0.038926   
    273. D(C   8,N   7,C   6,C   2)   -178.0175         0.038926   
    274. D(N   9,C   8,N   7,C   6)     -0.7063         0.035568   
    275. D(C  18,C   8,N   7,C   6)    178.9005         0.035568   
    276. D(C  10,N   9,C   8,C  18)   -179.9281         0.033871   
    277. D(C  10,N   9,C   8,N   7)     -0.3207         0.033871   
    278. D(C  12,C  10,N   9,C   8)   -179.2495         0.040128   
    279. D(N  11,C  10,N   9,C   8)      0.8635         0.040128   
    280. D(C   6,N  11,C  10,C  12)    179.8022         0.038658   
    281. D(C  10,N  11,C   6,N   7)     -0.8520         0.035106   
    282. D(C  10,N  11,C   6,C   2)    178.5019         0.035106   
    283. D(C   6,N  11,C  10,N   9)     -0.3107         0.038658   
    284. D(C  17,C  12,C  10,N  11)    171.5367         0.013134   
    285. D(C  13,C  12,C  10,N  11)     -8.5965         0.013134   
    286. D(C  13,C  12,C  10,N   9)    171.5068         0.013134   
    287. D(C  17,C  12,C  10,N   9)     -8.3600         0.013134   
    288. D(H  59,C  13,C  12,C  17)    179.9365         0.027321   
    289. D(H  59,C  13,C  12,C  10)      0.0692         0.027321   
    290. D(C  14,C  13,C  12,C  17)      0.1123         0.027321   
    291. D(C  14,C  13,C  12,C  10)   -179.7550         0.027321   
    292. D(C  15,C  14,C  13,H  59)    179.7876         0.028881   
    293. D(H  60,C  14,C  13,H  59)     -0.1442         0.028881   
    294. D(C  15,C  14,C  13,C  12)     -0.3918         0.028881   
    295. D(H  60,C  14,C  13,C  12)    179.6764         0.028881   
    296. D(N  41,C  15,C  14,H  60)      0.1207         0.029049   
    297. D(N  41,C  15,C  14,C  13)   -179.8115         0.029049   
    298. D(C  16,C  15,C  14,C  13)      0.2526         0.029049   
    299. D(C  16,C  15,C  14,H  60)   -179.8152         0.029049   
    300. D(H  61,C  16,C  15,N  41)      0.1218         0.028948   
    301. D(H  61,C  16,C  15,C  14)   -179.9421         0.028948   
    302. D(C  17,C  16,C  15,N  41)   -179.7669         0.028948   
    303. D(C  17,C  16,C  15,C  14)      0.1691         0.028948   
    304. D(C  16,C  17,C  12,C  13)      0.3170         0.027272   
    305. D(C  16,C  17,C  12,C  10)   -179.8155         0.027272   
    306. D(H  62,C  17,C  12,C  10)      0.0998         0.027272   
    307. D(H  62,C  17,C  16,H  61)     -0.2556         0.029007   
    308. D(H  62,C  17,C  16,C  15)    179.6325         0.029007   
    309. D(C  12,C  17,C  16,H  61)    179.6580         0.029007   
    310. D(C  12,C  17,C  16,C  15)     -0.4540         0.029007   
    311. D(H  62,C  17,C  12,C  13)   -179.7677         0.027272   
    312. D(C  23,C  18,C   8,N   9)      1.5124         0.016381   
    313. D(C  23,C  18,C   8,N   7)   -178.1108         0.016381   
    314. D(C  19,C  18,C   8,N   9)   -179.5544         0.016381   
    315. D(C  19,C  18,C   8,N   7)      0.8224         0.016381   
    316. D(H  63,C  19,C  18,C  23)    178.9372         0.026365   
    317. D(H  63,C  19,C  18,C   8)     -0.0297         0.026365   
    318. D(C  20,C  19,C  18,C  23)     -0.5715         0.026365   
    319. D(C  20,C  19,C  18,C   8)   -179.5384         0.026365   
    320. D(H  64,C  20,C  19,H  63)     -0.4902         0.030898   
    321. D(H  64,C  20,C  19,C  18)    179.0157         0.030898   
    322. D(C  21,C  20,C  19,H  63)   -179.4630         0.030898   
    323. D(C  21,C  20,C  19,C  18)      0.0428         0.030898   
    324. D(N  27,C  21,C  20,H  64)      1.2298         0.024784   
    325. D(C  22,C  21,C  20,H  64)   -178.3499         0.024784   
    326. D(C  22,C  21,C  20,C  19)      0.6143         0.024784   
    327. D(N  27,C  21,C  20,C  19)   -179.8060         0.024784   
    328. D(H  65,C  22,C  21,N  27)     -1.2251         0.024760   
    329. D(H  65,C  22,C  21,C  20)    178.3545         0.024760   
    330. D(C  23,C  22,C  21,N  27)    179.6759         0.024760   
    331. D(C  23,C  22,C  21,C  20)     -0.7445         0.024760   
    332. D(H  66,C  23,C  22,H  65)      0.7776         0.030892   
    333. D(C  18,C  23,C  22,H  65)   -178.8843         0.030892   
    334. D(C  18,C  23,C  22,C  21)      0.2217         0.030892   
    335. D(H  66,C  23,C  18,C  19)   -179.2237         0.026477   
    336. D(H  66,C  23,C  22,C  21)    179.8835         0.030892   
    337. D(H  66,C  23,C  18,C   8)     -0.2580         0.026477   
    338. D(C  22,C  23,C  18,C  19)      0.4395         0.026477   
    339. D(C  22,C  23,C  18,C   8)    179.4053         0.026477   
    340. D(S  26,C  24,C   5,C   4)    145.6766         0.013636   
    341. D(S  26,C  24,C   5,C   0)    -34.5527         0.013636   
    342. D(S  25,C  24,C   5,C   4)    -33.7710         0.013636   
    343. D(S  25,C  24,C   5,C   0)    145.9998         0.013636   
    344. D(H  67,S  26,C  24,S  25)     -4.0003         0.004540   
    345. D(H  67,S  26,C  24,C   5)    176.5560         0.004540   
    346. D(C  32,N  27,C  21,C  22)     13.2845         0.025520   
    347. D(C  32,N  27,C  21,C  20)   -166.2820         0.025520   
    348. D(C  28,N  27,C  21,C  22)    168.1199         0.025520   
    349. D(C  28,N  27,C  21,C  20)    -11.4466         0.025520   
    350. D(C  37,C  28,N  27,C  32)   -128.1391         0.019351   
    351. D(C  37,C  28,N  27,C  21)     75.4861         0.019351   
    352. D(C  29,C  28,N  27,C  32)     50.4501         0.019351   
    353. D(C  29,C  28,N  27,C  21)   -105.9247         0.019351   
    354. D(C  40,C  29,C  28,C  37)     -2.2901         0.027313   
    355. D(C  40,C  29,C  28,N  27)    179.0985         0.027313   
    356. D(S  30,C  29,C  28,C  37)    176.7704         0.027313   
    357. D(S  30,C  29,C  28,N  27)     -1.8409         0.027313   
    358. D(C  31,S  30,C  29,C  40)    142.8067         0.004179   
    359. D(C  31,S  30,C  29,C  28)    -36.2442         0.004179   
    360. D(C  33,C  31,S  30,C  29)   -142.8561         0.004186   
    361. D(C  32,C  31,S  30,C  29)     36.0112         0.004186   
    362. D(C  36,C  32,C  31,C  33)      2.5444         0.027241   
    363. D(C  36,C  32,C  31,S  30)   -176.3347         0.027241   
    364. D(N  27,C  32,C  31,C  33)   -178.8130         0.027241   
    365. D(N  27,C  32,C  31,S  30)      2.3079         0.027241   
    366. D(C  36,C  32,N  27,C  28)    127.9110         0.019419   
    367. D(C  36,C  32,N  27,C  21)    -75.7216         0.019419   
    368. D(C  31,C  32,N  27,C  28)    -50.7081         0.019419   
    369. D(C  31,C  32,N  27,C  21)    105.6593         0.019419   
    370. D(C  34,C  33,C  31,S  30)    178.8734         0.027785   
    371. D(H  68,C  33,C  31,C  32)   -179.0235         0.027785   
    372. D(H  68,C  33,C  31,S  30)     -0.1667         0.027785   
    373. D(C  34,C  33,C  31,C  32)      0.0167         0.027785   
    374. D(H  69,C  34,C  33,H  68)     -1.0742         0.028748   
    375. D(H  69,C  34,C  33,C  31)    179.8949         0.028748   
    376. D(C  35,C  34,C  33,H  68)    177.1809         0.028748   
    377. D(C  35,C  34,C  33,C  31)     -1.8500         0.028748   
    378. D(H  70,C  35,C  34,H  69)      0.1847         0.027898   
    379. D(H  70,C  35,C  34,C  33)   -178.0615         0.027898   
    380. D(C  36,C  35,C  34,H  69)    179.3687         0.027898   
    381. D(C  36,C  35,C  34,C  33)      1.1224         0.027898   
    382. D(H  71,C  36,C  35,H  70)     -0.2604         0.028677   
    383. D(H  71,C  36,C  35,C  34)   -179.4469         0.028677   
    384. D(C  32,C  36,C  35,H  70)   -179.3650         0.028677   
    385. D(C  32,C  36,C  35,C  34)      1.4485         0.028677   
    386. D(H  71,C  36,C  32,C  31)    177.6028         0.028253   
    387. D(H  71,C  36,C  32,N  27)     -0.9971         0.028253   
    388. D(C  35,C  36,C  32,C  31)     -3.2755         0.028253   
    389. D(C  35,C  36,C  32,N  27)    178.1246         0.028253   
    390. D(H  72,C  37,C  28,C  29)   -177.8037         0.028278   
    391. D(H  72,C  37,C  28,N  27)      0.7656         0.028278   
    392. D(C  38,C  37,C  28,C  29)      3.2120         0.028278   
    393. D(C  38,C  37,C  28,N  27)   -178.2187         0.028278   
    394. D(H  73,C  38,C  37,H  72)      0.1559         0.028716   
    395. D(H  73,C  38,C  37,C  28)    179.1209         0.028716   
    396. D(C  39,C  38,C  37,H  72)    179.4321         0.028716   
    397. D(C  39,C  38,C  37,C  28)     -1.6029         0.028716   
    398. D(H  74,C  39,C  38,H  73)     -0.1497         0.027885   
    399. D(H  74,C  39,C  38,C  37)   -179.4235         0.027885   
    400. D(C  40,C  39,C  38,H  73)    178.3332         0.027885   
    401. D(C  40,C  39,C  38,C  37)     -0.9405         0.027885   
    402. D(H  75,C  40,C  39,H  74)      1.0869         0.028764   
    403. D(H  75,C  40,C  39,C  38)   -177.4025         0.028764   
    404. D(C  29,C  40,C  39,H  74)   -179.6504         0.028764   
    405. D(C  29,C  40,C  39,C  38)      1.8602         0.028764   
    406. D(H  75,C  40,C  29,S  30)     -0.0178         0.027835   
    407. D(H  75,C  40,C  29,C  28)    179.0238         0.027835   
    408. D(C  39,C  40,C  29,S  30)   -179.2869         0.027835   
    409. D(C  39,C  40,C  29,C  28)     -0.2453         0.027835   
    410. D(C  46,N  41,C  15,C  16)    -91.1860         0.016375   
    411. D(C  46,N  41,C  15,C  14)     88.8764         0.016375   
    412. D(C  42,N  41,C  15,C  16)     88.5011         0.016375   
    413. D(C  42,N  41,C  15,C  14)    -91.4364         0.016375   
    414. D(C  47,C  42,N  41,C  46)   -179.6142         0.026632   
    415. D(C  47,C  42,N  41,C  15)      0.7255         0.026632   
    416. D(C  43,C  42,N  41,C  46)      0.3320         0.026632   
    417. D(C  43,C  42,N  41,C  15)   -179.3283         0.026632   
    418. D(C  50,C  43,C  42,C  47)     -0.0538         0.023689   
    419. D(C  50,C  43,C  42,N  41)    179.9990         0.023689   
    420. D(S  44,C  43,C  42,C  47)    179.9533         0.023689   
    421. D(S  44,C  43,C  42,N  41)      0.0061         0.023689   
    422. D(C  45,S  44,C  43,C  50)    179.6608         0.005386   
    423. D(C  45,S  44,C  43,C  42)     -0.3460         0.005386   
    424. D(C  51,C  45,S  44,C  43)   -179.5957         0.005391   
    425. D(C  46,C  45,S  44,C  43)      0.4626         0.005391   
    426. D(C  54,C  46,C  45,C  51)     -0.1576         0.023697   
    427. D(C  54,C  46,C  45,S  44)    179.7817         0.023697   
    428. D(N  41,C  46,C  45,C  51)    179.8119         0.023697   
    429. D(N  41,C  46,C  45,S  44)     -0.2488         0.023697   
    430. D(C  54,C  46,N  41,C  42)    179.7629         0.026652   
    431. D(C  54,C  46,N  41,C  15)     -0.5769         0.026652   
    432. D(C  45,C  46,N  41,C  42)     -0.2060         0.026652   
    433. D(C  45,C  46,N  41,C  15)    179.4542         0.026652   
    434. D(H  76,C  47,C  42,C  43)   -179.9174         0.023891   
    435. D(H  76,C  47,C  42,N  41)      0.0311         0.023891   
    436. D(C  48,C  47,C  42,C  43)      0.0171         0.023891   
    437. D(C  48,C  47,C  42,N  41)    179.9655         0.023891   
    438. D(H  77,C  48,C  47,H  76)     -0.0003         0.032286   
    439. D(H  77,C  48,C  47,C  42)   -179.9347         0.032286   
    440. D(C  49,C  48,C  47,H  76)    179.9628         0.032286   
    441. D(C  49,C  48,C  47,C  42)      0.0284         0.032286   
    442. D(H  78,C  49,C  48,H  77)     -0.0472         0.025459   
    443. D(H  78,C  49,C  48,C  47)    179.9900         0.025459   
    444. D(C  50,C  49,C  48,H  77)    179.9254         0.025459   
    445. D(C  50,C  49,C  48,C  47)     -0.0375         0.025459   
    446. D(H  79,C  50,C  49,H  78)     -0.0134         0.032321   
    447. D(H  79,C  50,C  49,C  48)   -179.9860         0.032321   
    448. D(C  43,C  50,C  49,H  78)    179.9728         0.032321   
    449. D(C  43,C  50,C  49,C  48)      0.0001         0.032321   
    450. D(H  79,C  50,C  43,S  44)      0.0256         0.025314   
    451. D(H  79,C  50,C  43,C  42)   -179.9678         0.025314   
    452. D(C  49,C  50,C  43,S  44)   -179.9607         0.025314   
    453. D(C  49,C  50,C  43,C  42)      0.0458         0.025314   
    454. D(H  80,C  51,C  45,C  46)   -179.9627         0.025314   
    455. D(H  80,C  51,C  45,S  44)      0.0937         0.025314   
    456. D(C  52,C  51,C  45,C  46)     -0.0037         0.025314   
    457. D(C  52,C  51,C  45,S  44)   -179.9474         0.025314   
    458. D(H  81,C  52,C  51,H  80)      0.0391         0.032333   
    459. D(H  81,C  52,C  51,C  45)   -179.9193         0.032333   
    460. D(C  53,C  52,C  51,H  80)   -179.9528         0.032333   
    461. D(C  53,C  52,C  51,C  45)      0.0889         0.032333   
    462. D(H  82,C  53,C  52,H  81)     -0.0197         0.025459   
    463. D(H  82,C  53,C  52,C  51)    179.9722         0.025459   
    464. D(C  54,C  53,C  52,H  81)   -179.9996         0.025459   
    465. D(C  54,C  53,C  52,C  51)     -0.0078         0.025459   
    466. D(H  83,C  54,C  53,H  82)     -0.0340         0.032297   
    467. D(H  83,C  54,C  53,C  52)    179.9461         0.032297   
    468. D(C  46,C  54,C  53,H  82)    179.8600         0.032297   
    469. D(C  46,C  54,C  53,C  52)     -0.1599         0.032297   
    470. D(H  83,C  54,C  46,C  45)   -179.8670         0.023884   
    471. D(H  83,C  54,C  46,N  41)      0.1628         0.023884   
    472. D(C  53,C  54,C  46,C  45)      0.2388         0.023884   
    473. D(C  53,C  54,C  46,N  41)   -179.7315         0.023884   
    -----------------------------------------------------------------

Number of atoms                         .... 84
Number of degrees of freedom            .... 473

         *************************************************************
         *                GEOMETRY OPTIMIZATION CYCLE   1            *
         *************************************************************
---------------------------------
CARTESIAN COORDINATES (ANGSTROEM)
---------------------------------
  C     -8.347063   -1.159973   -0.020850
  C     -6.968093   -1.170085    0.001382
  C     -6.259769    0.007521    0.199548
  C     -6.957704    1.194223    0.397506
  C     -8.334599    1.200569    0.401185
  C     -9.048859    0.025470    0.181906
  C     -4.784441    0.002935    0.181906
  N     -4.156393    1.165933    0.182683
  C     -2.825019    1.135956    0.125507
  N     -2.128687   -0.006991    0.082940
  C     -2.842791   -1.114486    0.107635
  N     -4.163077   -1.177815    0.153564
  C     -2.101330   -2.402269    0.079054
  C     -2.773775   -3.600625    0.279457
  C     -2.086727   -4.799077    0.258536
  C     -0.725416   -4.785776    0.027507
  C     -0.037081   -3.605846   -0.177177
  C     -0.730779   -2.412104   -0.145735
  C     -2.096999    2.396481    0.099817
  C     -2.770093    3.615253    0.151134
  C     -2.090535    4.807825    0.117874
  C     -0.692347    4.834148    0.029958
  C     -0.015814    3.608718   -0.035823
  C     -0.708076    2.423554    0.001080
  C    -10.529569    0.054849    0.173043
  S    -11.403392    1.047967    1.110714
  S    -11.227799   -1.076532   -0.959340
  N     -0.000000    6.036063   -0.000000
  C     -0.690266    7.266989   -0.185885
  C     -0.592654    7.902944   -1.416551
  S      0.416688    7.186101   -2.671580
  C      1.700357    6.571840   -1.631649
  C      1.371615    6.074934   -0.376879
  C      3.025115    6.600813   -2.039813
  C      4.015029    6.134179   -1.195597
  C      3.690994    5.673649    0.070851
  C      2.371982    5.658351    0.484649
  C     -1.423053    7.846474    0.835589
  C     -2.111083    9.023758    0.608887
  C     -2.040409    9.640950   -0.630155
  C     -1.267625    9.093606   -1.636833
  N     -0.000000   -6.036063    0.000000
  C      0.548988   -6.479099    1.188291
  C      1.286341   -7.674395    1.274093
  S      1.583907   -8.702566   -0.065244
  C      0.786795   -7.906967   -1.357717
  C      0.095246   -6.690164   -1.213471
  C      0.376168   -5.726295    2.363073
  C      0.910966   -6.148130    3.548806
  C      1.642822   -7.336574    3.623944
  C      1.825728   -8.087903    2.496295
  C      0.856393   -8.539068   -2.603236
  C      0.253262   -7.982899   -3.697001
  C     -0.434545   -6.773404   -3.563983
  C     -0.512613   -6.138974   -2.355179
  H     -8.883382   -2.086132   -0.171259
  H     -6.427021   -2.092648   -0.143207
  H     -6.405817    2.109690    0.547818
  H     -8.877991    2.119375    0.565508
  H     -3.838998   -3.576604    0.454006
  H     -2.602361   -5.736397    0.418933
  H      1.029521   -3.621998   -0.357161
  H     -0.221886   -1.471888   -0.295993
  H     -3.848284    3.616493    0.210288
  H     -2.646800    5.730621    0.143441
  H      1.057580    3.589200   -0.130909
  H     -0.167811    1.490235   -0.052802
  H    -12.500756   -0.822863   -0.629535
  H      3.276171    7.003587   -3.011715
  H      5.047043    6.156625   -1.517704
  H      4.469271    5.338048    0.742179
  H      2.102867    5.310552    1.472674
  H     -1.460234    7.357014    1.799230
  H     -2.694335    9.467122    1.403946
  H     -2.570672   10.566783   -0.805772
  H     -1.175335    9.592751   -2.591904
  H     -0.184873   -4.807592    2.327869
  H      0.761936   -5.550511    4.436972
  H      2.061397   -7.660985    4.565728
  H      2.389263   -9.010766    2.535729
  H      1.393819   -9.474393   -2.687504
  H      0.309063   -8.476196   -4.656669
  H     -0.913005   -6.328519   -4.425009
  H     -1.046926   -5.207289   -2.275027

----------------------------
CARTESIAN COORDINATES (A.U.)
----------------------------
  NO LB      ZA    FRAG     MASS         X           Y           Z
   0 C     6.0000    0    12.011  -15.773664   -2.192031   -0.039401
   1 C     6.0000    0    12.011  -13.167788   -2.211141    0.002612
   2 C     6.0000    0    12.011  -11.829248    0.014212    0.377091
   3 C     6.0000    0    12.011  -13.148156    2.256755    0.751178
   4 C     6.0000    0    12.011  -15.750110    2.268747    0.758129
   5 C     6.0000    0    12.011  -17.099865    0.048131    0.343753
   6 C     6.0000    0    12.011   -9.041283    0.005546    0.343753
   7 N     7.0000    0    14.007   -7.854444    2.203294    0.345220
   8 C     6.0000    0    12.011   -5.338512    2.146645    0.237173
   9 N     7.0000    0    14.007   -4.022635   -0.013211    0.156734
  10 C     6.0000    0    12.011   -5.372096   -2.106073    0.203401
  11 N     7.0000    0    14.007   -7.867075   -2.225747    0.290194
  12 C     6.0000    0    12.011   -3.970938   -4.539631    0.149391
  13 C     6.0000    0    12.011   -5.241675   -6.804196    0.528097
  14 C     6.0000    0    12.011   -3.943342   -9.068941    0.488562
  15 C     6.0000    0    12.011   -1.370837   -9.043806    0.051980
  16 C     6.0000    0    12.011   -0.070073   -6.814061   -0.334816
  17 C     6.0000    0    12.011   -1.380971   -4.558216   -0.275399
  18 C     6.0000    0    12.011   -3.962754    4.528692    0.188626
  19 C     6.0000    0    12.011   -5.234717    6.831838    0.285601
  20 C     6.0000    0    12.011   -3.950539    9.085473    0.222750
  21 C     6.0000    0    12.011   -1.308347    9.135215    0.056612
  22 C     6.0000    0    12.011   -0.029884    6.819488   -0.067696
  23 C     6.0000    0    12.011   -1.338070    4.579854    0.002042
  24 C     6.0000    0    12.011  -19.898001    0.103650    0.327004
  25 S    16.0000    0    32.060  -21.549288    1.980370    2.098946
  26 S    16.0000    0    32.060  -21.217465   -2.034350   -1.812890
  27 N     7.0000    0    14.007   -0.000000   11.406506   -0.000000
  28 C     6.0000    0    12.011   -1.304413   13.732619   -0.351272
  29 C     6.0000    0    12.011   -1.119954   14.934400   -2.676894
  30 S    16.0000    0    32.060    0.787427   13.579764   -5.048555
  31 C     6.0000    0    12.011    3.213208   12.418978   -3.083371
  32 C     6.0000    0    12.011    2.591976   11.479961   -0.712198
  33 C     6.0000    0    12.011    5.716638   12.473729   -3.854688
  34 C     6.0000    0    12.011    7.587304   11.591919   -2.259352
  35 C     6.0000    0    12.011    6.974968   10.721643    0.133890
  36 C     6.0000    0    12.011    4.482397   10.692734    0.915854
  37 C     6.0000    0    12.011   -2.689181   14.827688    1.579034
  38 C     6.0000    0    12.011   -3.989369   17.052431    1.150630
  39 C     6.0000    0    12.011   -3.855814   18.218755   -1.190820
  40 C     6.0000    0    12.011   -2.395464   17.184425   -3.093166
  41 N     7.0000    0    14.007   -0.000000  -11.406506    0.000000
  42 C     6.0000    0    12.011    1.037437  -12.243723    2.245544
  43 C     6.0000    0    12.011    2.430832  -14.502505    2.407686
  44 S    16.0000    0    32.060    2.993150  -16.445466   -0.123293
  45 C     6.0000    0    12.011    1.486827  -14.942001   -2.565714
  46 C     6.0000    0    12.011    0.179989  -12.642577   -2.293128
  47 C     6.0000    0    12.011    0.710855  -10.821130    4.465560
  48 C     6.0000    0    12.011    1.721476  -11.618283    6.706271
  49 C     6.0000    0    12.011    3.104484  -13.864116    6.848262
  50 C     6.0000    0    12.011    3.450126  -15.283922    4.717314
  51 C     6.0000    0    12.011    1.618348  -16.136501   -4.919403
  52 C     6.0000    0    12.011    0.478595  -15.085493   -6.986319
  53 C     6.0000    0    12.011   -0.821171  -12.799878   -6.734951
  54 C     6.0000    0    12.011   -0.968698  -11.600979   -4.450643
  55 H     1.0000    0     1.008  -16.787160   -3.942217   -0.323632
  56 H     1.0000    0     1.008  -12.145310   -3.954532   -0.270621
  57 H     1.0000    0     1.008  -12.105239    3.986737    1.035225
  58 H     1.0000    0     1.008  -16.776971    4.005038    1.068655
  59 H     1.0000    0     1.008   -7.254655   -6.758802    0.857948
  60 H     1.0000    0     1.008   -4.917750  -10.840220    0.791669
  61 H     1.0000    0     1.008    1.945512   -6.844584   -0.674936
  62 H     1.0000    0     1.008   -0.419304   -2.781466   -0.559346
  63 H     1.0000    0     1.008   -7.272203    6.834182    0.397388
  64 H     1.0000    0     1.008   -5.001727   10.829304    0.271064
  65 H     1.0000    0     1.008    1.998537    6.782605   -0.247382
  66 H     1.0000    0     1.008   -0.317116    2.816136   -0.099781
  67 H     1.0000    0     1.008  -23.623005   -1.554987   -1.189649
  68 H     1.0000    0     1.008    6.191066   13.234861   -5.691316
  69 H     1.0000    0     1.008    9.537528   11.634335   -2.868045
  70 H     1.0000    0     1.008    8.445698   10.087448    1.402516
  71 H     1.0000    0     1.008    3.973843   10.035490    2.782951
  72 H     1.0000    0     1.008   -2.759443   13.902742    3.400051
  73 H     1.0000    0     1.008   -5.091556   17.890267    2.653074
  74 H     1.0000    0     1.008   -4.857865   19.968327   -1.522689
  75 H     1.0000    0     1.008   -2.221061   18.127673   -4.897989
  76 H     1.0000    0     1.008   -0.349359   -9.085033    4.399034
  77 H     1.0000    0     1.008    1.439850  -10.488946    8.384662
  78 H     1.0000    0     1.008    3.895475  -14.477164    8.627975
  79 H     1.0000    0     1.008    4.515053  -17.027880    4.791833
  80 H     1.0000    0     1.008    2.633935  -17.904008   -5.078647
  81 H     1.0000    0     1.008    0.584044  -16.017689   -8.799829
  82 H     1.0000    0     1.008   -1.725330  -11.959167   -8.362055
  83 H     1.0000    0     1.008   -1.978403   -9.840350   -4.299179

--------------------------------
INTERNAL COORDINATES (ANGSTROEM)
--------------------------------
 C      0   0   0     0.000000000000     0.00000000     0.00000000
 C      1   0   0     1.379186315164     0.00000000     0.00000000
 C      2   1   0     1.388434198302   120.40857735     0.00000000
 C      3   2   1     1.390886426810   119.20676351     1.05607031
 C      4   3   2     1.376914227030   120.40423407     0.20510490
 C      1   2   3     1.392444266568   120.51860987   358.69223918
 C      3   2   1     1.475440370385   120.38308714   181.88585737
 N      7   3   2     1.321745195811   118.18938290   170.47386825
 C      8   7   3     1.332938108700   117.05169687   181.98254718
 N      9   8   7     1.339036230634   122.68191367   359.29366307
 C     10   9   8     1.317990733356   115.77801086   359.67933781
 N     11  10   9     1.322601459005   125.57371868     0.86351251
 C     11  10   9     1.486260034592   117.22067523   180.75054120
 C     13  11  10     1.388668659191   120.22279369   171.50677491
 C     14  13  11     1.381578330855   120.36966877   180.24500117
 C     15  14  13     1.380840198743   118.97556382   359.60820953
 C     16  15  14     1.381280321257   121.62142746     0.25258996
 C     17  16  15     1.381023052031   118.99268983     0.16912564
 C      9   8   7     1.455883403222   118.73453402   178.90050827
 C     19   9   8     1.393231996268   121.00836363     0.82241823
 C     20  19   9     1.373001665227   121.31989486   180.46156240
 C     21  20  19     1.401196345812   120.77828706     0.04284940
 C     22  21  20     1.401321645181   117.92163213     0.61430845
 C     23  22  21     1.373026223419   120.67429977   359.25554071
 C      6   1   2     1.481027880098   121.32628418   180.51907283
 S     25   6   1     1.621442773552   123.19505745   145.99976811
 S     25   6   1     1.746379367865   113.00174199   325.44733525
 N     22  21  20     1.387387384417   121.03670615   180.19395693
 C     28  22  21     1.423446019258   120.66214352   348.55342704
 C     29  28  22     1.388706647520   118.53214741   254.07531546
 S     30  29  28     1.762876319616   119.00789574   358.15908999
 C     31  30  29     1.762548614197    97.97045968   323.75579216
 C     32  31  30     1.389041423249   119.03138708    36.01116100
 C     32  31  30     1.386513727663   120.99020851   217.14391203
 C     34  32  31     1.382163631428   119.83113247   178.87339706
 C     35  34  32     1.385993966019   120.18850922   358.14998046
 C     36  35  34     1.382481227114   120.01548590     1.12244805
 C     29  28  22     1.384264983383   121.48976505    75.48614227
 C     38  29  28     1.382307919002   119.93393584   181.78131371
 C     39  38  29     1.386054141994   120.03106233   358.39712504
 C     40  39  38     1.382093307098   120.21742586   359.05951859
 N     16  15  14     1.445753399985   119.30856419   180.18849579
 C     42  16  15     1.381920079417   117.40130819   268.56355600
 C     43  42  16     1.407047823429   122.20611459   180.67166715
 S     44  43  42     1.714497475112   123.55639010     0.00000000
 C     45  44  43     1.714308239386   103.29389866   359.65403663
 C     42  16  15     1.381821612168   117.42940422    88.87641365
 C     43  42  16     1.405949198536   119.86838739     0.72545630
 C     48  43  42     1.367448931392   120.75006489   179.96553951
 C     49  48  43     1.397733304489   120.90943106     0.02844911
 C     50  49  48     1.367312058397   119.53287938   359.96253809
 C     46  45  44     1.398468410790   116.01248855   180.40433921
 C     52  46  45     1.367264723804   120.44158725   180.05262741
 C     53  52  46     1.397730552367   119.53364323     0.08886039
 C     54  53  52     1.367407013983   120.91098076     0.00000000
 H      1   2   3     1.080754716719   119.48049606   180.30584668
 H      2   1   3     1.079253440266   120.35584384   180.50309720
 H      4   3   2     1.079469065015   119.13350013   180.22436704
 H      5   4   3     1.080037286533   120.49366458   179.32897102
 H     14  13  11     1.079697014096   118.80805911     0.06922170
 H     15  14  13     1.081746527192   120.82030222   179.67643616
 H     17  16  15     1.081801197954   120.21385847   180.05785443
 H     18  17  16     1.079608272764   120.85348283   179.63250440
 H     20  19   9     1.079813279249   119.03958450   359.97033942
 H     21  20  19     1.077792285389   119.18651392   179.01565625
 H     23  22  21     1.077774469749   120.05281212   178.35450582
 H     24  23  22     1.079756959183   119.50476191   179.88353263
 H     27  25   6     1.339230166634    95.60317138   176.55604375
 H     34  32  31     1.081595731807   119.60942361   359.83325547
 H     35  34  32     1.081346135374   119.64233318   179.89485745
 H     36  35  34     1.081214383015   120.14536752   181.93846532
 H     37  36  35     1.081471639084   120.95926456   180.55308766
 H     38  29  28     1.081460902804   119.09504827     0.76563330
 H     39  38  29     1.081144195345   119.81342512   179.12093768
 H     40  39  38     1.081289752076   120.09606361   180.57654607
 H     41  40  39     1.081584289503   120.53878201   182.59747083
 H     48  43  42     1.077042971729   119.56715682     0.03109006
 H     49  48  43     1.080832033745   119.21253999   180.06532136
 H     50  49  48     1.080464730544   120.33103927   179.98995241
 H     51  50  49     1.082036354686   120.54883175   180.01400450
 H     52  46  45     1.082016262633   118.99931406     0.09365187
 H     53  52  46     1.080471402143   120.13416640   180.08074681
 H     54  53  52     1.080839306173   119.88101383   179.97220496
 H     55  54  53     1.077010649869   119.70094102   179.94605447

---------------------------
INTERNAL COORDINATES (A.U.)
---------------------------
 C      0   0   0     0.000000000000     0.00000000     0.00000000
 C      1   0   0     2.606284423312     0.00000000     0.00000000
 C      2   1   0     2.623760389762   120.40857735     0.00000000
 C      3   2   1     2.628394430059   119.20676351     1.05607031
 C      4   3   2     2.601990798986   120.40423407     0.20510490
 C      1   2   3     2.631338320563   120.51860987   358.69223918
 C      3   2   1     2.788178226960   120.38308714   181.88585737
 N      7   3   2     2.497736438909   118.18938290   170.47386825
 C      8   7   3     2.518887978909   117.05169687   181.98254718
 N      9   8   7     2.530411759296   122.68191367   359.29366307
 C     10   9   8     2.490641533089   115.77801086   359.67933781
 N     11  10   9     2.499354541843   125.57371868     0.86351251
 C     11  10   9     2.808624429172   117.22067523   180.75054120
 C     13  11  10     2.624203456631   120.22279369   171.50677491
 C     14  13  11     2.610804677876   120.36966877   180.24500117
 C     15  14  13     2.609409810333   118.97556382   359.60820953
 C     16  15  14     2.610241521350   121.62142746     0.25258996
 C     17  16  15     2.609755352971   118.99268983     0.16912564
 C      9   8   7     2.751220915010   118.73453402   178.90050827
 C     19   9   8     2.632826913962   121.00836363     0.82241823
 C     20  19   9     2.594597128697   121.31989486   180.46156240
 C     21  20  19     2.647877353437   120.77828706     0.04284940
 C     22  21  20     2.648114134927   117.92163213     0.61430845
 C     23  22  21     2.594643536954   120.67429977   359.25554071
 C      6   1   2     2.798737090086   121.32628418   180.51907283
 S     25   6   1     3.064082783838   123.19505745   145.99976811
 S     25   6   1     3.300178731196   113.00174199   325.44733525
 N     22  21  20     2.621782198206   121.03670615   180.19395693
 C     28  22  21     2.689923142819   120.66214352   348.55342704
 C     29  28  22     2.624275244169   118.53214741   254.07531546
 S     30  29  28     3.331353452050   119.00789574   358.15908999
 C     31  30  29     3.330734178555    97.97045968   323.75579216
 C     32  31  30     2.624907878614   119.03138708    36.01116100
 C     32  31  30     2.620131226206   120.99020851   217.14391203
 C     34  32  31     2.611910735666   119.83113247   178.87339706
 C     35  34  32     2.619149019044   120.18850922   358.14998046
 C     36  35  34     2.612510904532   120.01548590     1.12244805
 C     29  28  22     2.615881715371   121.48976505    75.48614227
 C     38  29  28     2.612183399664   119.93393584   181.78131371
 C     39  38  29     2.619262735156   120.03106233   358.39712504
 C     40  39  38     2.611777841940   120.21742586   359.05951859
 N     16  15  14     2.732077983158   119.30856419   180.18849579
 C     42  16  15     2.611450489065   117.40130819   268.56355600
 C     43  42  16     2.658935043612   122.20611459   180.67166715
 S     44  43  42     3.239930685261   123.55639010     0.00000000
 C     45  44  43     3.239573081564   103.29389866   359.65403663
 C     42  16  15     2.611264412930   117.42940422    88.87641365
 C     43  42  16     2.656858943440   119.86838739     0.72545630
 C     48  43  42     2.584103982454   120.75006489   179.96553951
 C     49  48  43     2.641333153744   120.90943106     0.02844911
 C     50  49  48     2.583845329979   119.53287938   359.96253809
 C     46  45  44     2.642722303334   116.01248855   180.40433921
 C     52  46  45     2.583755880562   120.44158725   180.05262741
 C     53  52  46     2.641327952988   119.53364323     0.08886039
 C     54  53  52     2.584024770032   120.91098076     0.00000000
 H      1   2   3     2.042330432543   119.48049606   180.30584668
 H      2   1   3     2.039493431194   120.35584384   180.50309720
 H      4   3   2     2.039900902919   119.13350013   180.22436704
 H      5   4   3     2.040974685970   120.49366458   179.32897102
 H     14  13  11     2.040331664253   118.80805911     0.06922170
 H     15  14  13     2.044204682712   120.82030222   179.67643616
 H     17  16  15     2.044307995480   120.21385847   180.05785443
 H     18  17  16     2.040163967439   120.85348283   179.63250440
 H     20  19   9     2.040551373551   119.03958450   359.97033942
 H     21  20  19     2.036732248638   119.18651392   179.01565625
 H     23  22  21     2.036698581958   120.05281212   178.35450582
 H     24  23  22     2.040444944051   119.50476191   179.88353263
 H     27  25   6     2.530778245225    95.60317138   176.55604375
 H     34  32  31     2.043919720734   119.60942361   359.83325547
 H     35  34  32     2.043448051830   119.64233318   179.89485745
 H     36  35  34     2.043199075954   120.14536752   181.93846532
 H     37  36  35     2.043685219472   120.95926456   180.55308766
 H     38  29  28     2.043664930842   119.09504827     0.76563330
 H     39  38  29     2.043066440482   119.81342512   179.12093768
 H     40  39  38     2.043341502839   120.09606361   180.57654607
 H     41  40  39     2.043898097912   120.53878201   182.59747083
 H     48  43  42     2.035316251032   119.56715682     0.03109006
 H     49  48  43     2.042476540548   119.21253999   180.06532136
 H     50  49  48     2.041782438089   120.33103927   179.98995241
 H     51  50  49     2.044752377302   120.54883175   180.01400450
 H     52  46  45     2.044714408825   118.99931406     0.09365187
 H     53  52  46     2.041795045585   120.13416640   180.08074681
 H     54  53  52     2.042490283445   119.88101383   179.97220496
 H     55  54  53     2.035255171569   119.70094102   179.94605447

---------------------
BASIS SET INFORMATION
---------------------
There are 4 groups of distinct atoms

 Group   1 Type C   : 11s6p2d1f contracted to 5s3p2d1f pattern {62111/411/11/1}
 Group   2 Type N   : 11s6p2d1f contracted to 5s3p2d1f pattern {62111/411/11/1}
 Group   3 Type S   : 14s9p3d1f contracted to 5s5p2d1f pattern {73211/51111/21/1}
 Group   4 Type H   : 5s1p contracted to 3s1p pattern {311/1}

Atom   0C    basis set group =>   1
Atom   1C    basis set group =>   1
Atom   2C    basis set group =>   1
Atom   3C    basis set group =>   1
Atom   4C    basis set group =>   1
Atom   5C    basis set group =>   1
Atom   6C    basis set group =>   1
Atom   7N    basis set group =>   2
Atom   8C    basis set group =>   1
Atom   9N    basis set group =>   2
Atom  10C    basis set group =>   1
Atom  11N    basis set group =>   2
Atom  12C    basis set group =>   1
Atom  13C    basis set group =>   1
Atom  14C    basis set group =>   1
Atom  15C    basis set group =>   1
Atom  16C    basis set group =>   1
Atom  17C    basis set group =>   1
Atom  18C    basis set group =>   1
Atom  19C    basis set group =>   1
Atom  20C    basis set group =>   1
Atom  21C    basis set group =>   1
Atom  22C    basis set group =>   1
Atom  23C    basis set group =>   1
Atom  24C    basis set group =>   1
Atom  25S    basis set group =>   3
Atom  26S    basis set group =>   3
Atom  27N    basis set group =>   2
Atom  28C    basis set group =>   1
Atom  29C    basis set group =>   1
Atom  30S    basis set group =>   3
Atom  31C    basis set group =>   1
Atom  32C    basis set group =>   1
Atom  33C    basis set group =>   1
Atom  34C    basis set group =>   1
Atom  35C    basis set group =>   1
Atom  36C    basis set group =>   1
Atom  37C    basis set group =>   1
Atom  38C    basis set group =>   1
Atom  39C    basis set group =>   1
Atom  40C    basis set group =>   1
Atom  41N    basis set group =>   2
Atom  42C    basis set group =>   1
Atom  43C    basis set group =>   1
Atom  44S    basis set group =>   3
Atom  45C    basis set group =>   1
Atom  46C    basis set group =>   1
Atom  47C    basis set group =>   1
Atom  48C    basis set group =>   1
Atom  49C    basis set group =>   1
Atom  50C    basis set group =>   1
Atom  51C    basis set group =>   1
Atom  52C    basis set group =>   1
Atom  53C    basis set group =>   1
Atom  54C    basis set group =>   1
Atom  55H    basis set group =>   4
Atom  56H    basis set group =>   4
Atom  57H    basis set group =>   4
Atom  58H    basis set group =>   4
Atom  59H    basis set group =>   4
Atom  60H    basis set group =>   4
Atom  61H    basis set group =>   4
Atom  62H    basis set group =>   4
Atom  63H    basis set group =>   4
Atom  64H    basis set group =>   4
Atom  65H    basis set group =>   4
Atom  66H    basis set group =>   4
Atom  67H    basis set group =>   4
Atom  68H    basis set group =>   4
Atom  69H    basis set group =>   4
Atom  70H    basis set group =>   4
Atom  71H    basis set group =>   4
Atom  72H    basis set group =>   4
Atom  73H    basis set group =>   4
Atom  74H    basis set group =>   4
Atom  75H    basis set group =>   4
Atom  76H    basis set group =>   4
Atom  77H    basis set group =>   4
Atom  78H    basis set group =>   4
Atom  79H    basis set group =>   4
Atom  80H    basis set group =>   4
Atom  81H    basis set group =>   4
Atom  82H    basis set group =>   4
Atom  83H    basis set group =>   4
---------------------------------
AUXILIARY/J BASIS SET INFORMATION
---------------------------------
There are 4 groups of distinct atoms

 Group   1 Type C   : 12s5p4d2f1g contracted to 6s4p3d1f1g pattern {711111/2111/211/2/1}
 Group   2 Type N   : 12s5p4d2f1g contracted to 6s4p3d1f1g pattern {711111/2111/211/2/1}
 Group   3 Type S   : 14s5p5d2f1g contracted to 8s4p3d1f1g pattern {71111111/2111/311/2/1}
 Group   4 Type H   : 5s2p1d contracted to 3s1p1d pattern {311/2/1}

Atom   0C    basis set group =>   1
Atom   1C    basis set group =>   1
Atom   2C    basis set group =>   1
Atom   3C    basis set group =>   1
Atom   4C    basis set group =>   1
Atom   5C    basis set group =>   1
Atom   6C    basis set group =>   1
Atom   7N    basis set group =>   2
Atom   8C    basis set group =>   1
Atom   9N    basis set group =>   2
Atom  10C    basis set group =>   1
Atom  11N    basis set group =>   2
Atom  12C    basis set group =>   1
Atom  13C    basis set group =>   1
Atom  14C    basis set group =>   1
Atom  15C    basis set group =>   1
Atom  16C    basis set group =>   1
Atom  17C    basis set group =>   1
Atom  18C    basis set group =>   1
Atom  19C    basis set group =>   1
Atom  20C    basis set group =>   1
Atom  21C    basis set group =>   1
Atom  22C    basis set group =>   1
Atom  23C    basis set group =>   1
Atom  24C    basis set group =>   1
Atom  25S    basis set group =>   3
Atom  26S    basis set group =>   3
Atom  27N    basis set group =>   2
Atom  28C    basis set group =>   1
Atom  29C    basis set group =>   1
Atom  30S    basis set group =>   3
Atom  31C    basis set group =>   1
Atom  32C    basis set group =>   1
Atom  33C    basis set group =>   1
Atom  34C    basis set group =>   1
Atom  35C    basis set group =>   1
Atom  36C    basis set group =>   1
Atom  37C    basis set group =>   1
Atom  38C    basis set group =>   1
Atom  39C    basis set group =>   1
Atom  40C    basis set group =>   1
Atom  41N    basis set group =>   2
Atom  42C    basis set group =>   1
Atom  43C    basis set group =>   1
Atom  44S    basis set group =>   3
Atom  45C    basis set group =>   1
Atom  46C    basis set group =>   1
Atom  47C    basis set group =>   1
Atom  48C    basis set group =>   1
Atom  49C    basis set group =>   1
Atom  50C    basis set group =>   1
Atom  51C    basis set group =>   1
Atom  52C    basis set group =>   1
Atom  53C    basis set group =>   1
Atom  54C    basis set group =>   1
Atom  55H    basis set group =>   4
Atom  56H    basis set group =>   4
Atom  57H    basis set group =>   4
Atom  58H    basis set group =>   4
Atom  59H    basis set group =>   4
Atom  60H    basis set group =>   4
Atom  61H    basis set group =>   4
Atom  62H    basis set group =>   4
Atom  63H    basis set group =>   4
Atom  64H    basis set group =>   4
Atom  65H    basis set group =>   4
Atom  66H    basis set group =>   4
Atom  67H    basis set group =>   4
Atom  68H    basis set group =>   4
Atom  69H    basis set group =>   4
Atom  70H    basis set group =>   4
Atom  71H    basis set group =>   4
Atom  72H    basis set group =>   4
Atom  73H    basis set group =>   4
Atom  74H    basis set group =>   4
Atom  75H    basis set group =>   4
Atom  76H    basis set group =>   4
Atom  77H    basis set group =>   4
Atom  78H    basis set group =>   4
Atom  79H    basis set group =>   4
Atom  80H    basis set group =>   4
Atom  81H    basis set group =>   4
Atom  82H    basis set group =>   4
Atom  83H    basis set group =>   4


           ************************************************************
           *        Program running with 36 parallel MPI-processes    *
           *              working on a shared directory               *
           ************************************************************
------------------------------------------------------------------------------
                           ORCA GTO INTEGRAL CALCULATION
                           -- RI-GTO INTEGRALS CHOSEN --
------------------------------------------------------------------------------
------------------------------------------------------------------------------
                   ___                                                        
                  /   \      - P O W E R E D   B Y -                         
                 /     \                                                     
                 |  |  |   _    _      __       _____    __    __             
                 |  |  |  | |  | |    /  \     |  _  \  |  |  /  |          
                  \  \/   | |  | |   /    \    | | | |  |  | /  /          
                 / \  \   | |__| |  /  /\  \   | |_| |  |  |/  /          
                |  |  |   |  __  | /  /__\  \  |    /   |      \           
                |  |  |   | |  | | |   __   |  |    \   |  |\   \          
                \     /   | |  | | |  |  |  |  | |\  \  |  | \   \       
                 \___/    |_|  |_| |__|  |__|  |_| \__\ |__|  \__/        
                                                                              
                      - O R C A' S   B I G   F R I E N D -                    
                                      &                                       
                       - I N T E G R A L  F E E D E R -                       
                                                                              
 v1 FN, 2020, v2 2021                                                         
------------------------------------------------------------------------------


Reading SHARK input file Combo62_Cf10tc_0.21702_-0.21702_ck-1.SHARKINP.tmp ... ok
----------------------
SHARK INTEGRAL PACKAGE
----------------------

Number of atoms                             ...     84
Number of basis functions                   ...   1903
Number of shells                            ...    729
Maximum angular momentum                    ...      3
Integral batch strategy                     ... SHARK/LIBINT Hybrid
RI-J (if used) integral strategy            ... SPLIT-RIJ (Revised 2003 algorithm where possible)
Printlevel                                  ...      1
Contraction scheme used                     ... SEGMENTED contraction
Coulomb Range Separation                    ... NOT USED
Exchange Range Separation                   ... Long Range
   Mu parameter                             ...  0.330000
   Scaling (regular/separated)              ...  0.190000  0.460000
Finite Nucleus Model                        ... NOT USED
Auxiliary Coulomb fitting basis             ... AVAILABLE
   # of basis functions in Aux-J            ...   3022
   # of shells in Aux-J                     ...    978
   Maximum angular momentum in Aux-J        ...      4
Auxiliary J/K fitting basis                 ... NOT available
Auxiliary Correlation fitting basis         ... NOT available
Auxiliary 'external' fitting basis          ... NOT available
Integral threshold                          ...     2.500000e-11
Primitive cut-off                           ...     2.500000e-12
Primitive pair pre-selection threshold      ...     2.500000e-12

Calculating pre-screening integrals         ... done (  0.1 sec) Dimension = 729
Organizing shell pair data                  ... done (  0.8 sec)
Shell pair information
Total number of shell pairs                 ...    266085
Shell pairs after pre-screening             ...     98016
Total number of primitive shell pairs       ...    849606
Primitive shell pairs kept                  ...    193138
          la=0 lb=0:  23193 shell pairs
          la=1 lb=0:  28789 shell pairs
          la=1 lb=1:   8938 shell pairs
          la=2 lb=0:  13794 shell pairs
          la=2 lb=1:   8578 shell pairs
          la=2 lb=2:   2075 shell pairs
          la=3 lb=0:   6268 shell pairs
          la=3 lb=1:   4036 shell pairs
          la=3 lb=2:   1884 shell pairs
          la=3 lb=3:    461 shell pairs

Reading point charge file                   ... ok (4 point charges)
Calculating one electron integrals          ... done (  0.2 sec)
Calculating RI/J V-Matrix + Cholesky decomp.... done (  0.6 sec)
Calculating Nuclear repulsion               ... (+Point charges) done (  0.0 sec) ENN=   7039.250115247769 Eh

SHARK setup successfully completed in   2.5 seconds

Maximum memory used throughout the entire GTOINT-calculation: 185.0 MB
ENUC WAS=  0.000000000
ENUC IS =  0.000000000
n1628:rank32.orca_scf_mpi: Failed to modify UD QP to INIT on mlx5_0: Operation not permitted
n1628:rank34.orca_scf_mpi: Failed to modify UD QP to INIT on mlx5_0: Operation not permitted
n1628:rank33.orca_scf_mpi: Failed to modify UD QP to INIT on mlx5_0: Operation not permitted
n1628:rank32.orca_scf_mpi: Failed to modify UD QP to INIT on mlx5_0: Operation not permitted
n1420:rank15.orca_scf_mpi: Failed to modify UD QP to INIT on mlx5_0: Operation not permitted
n1628:rank34.orca_scf_mpi: Failed to modify UD QP to INIT on mlx5_0: Operation not permitted
n1420:rank0.orca_scf_mpi: Failed to modify UD QP to INIT on mlx5_0: Operation not permitted
n1628:rank35.orca_scf_mpi: Failed to modify UD QP to INIT on mlx5_0: Operation not permitted
n1628:rank33.orca_scf_mpi: Failed to modify UD QP to INIT on mlx5_0: Operation not permitted
n1628:rank32.orca_scf_mpi: Failed to modify UD QP to INIT on mlx5_0: Operation not permitted
n1628:rank34.orca_scf_mpi: Failed to modify UD QP to INIT on mlx5_0: Operation not permitted
n1420:rank15.orca_scf_mpi: Failed to modify UD QP to INIT on mlx5_0: Operation not permitted
n1420:rank0.orca_scf_mpi: Failed to modify UD QP to INIT on mlx5_0: Operation not permitted
n1628:rank33.orca_scf_mpi: Failed to modify UD QP to INIT on mlx5_0: Operation not permitted
n1420:rank3.orca_scf_mpi: Failed to modify UD QP to INIT on mlx5_0: Operation not permitted
n1628:rank35.orca_scf_mpi: Failed to modify UD QP to INIT on mlx5_0: Operation not permitted
n1420:rank15.orca_scf_mpi: Failed to modify UD QP to INIT on mlx5_0: Operation not permitted
n1420:rank0.orca_scf_mpi: Failed to modify UD QP to INIT on mlx5_0: Operation not permitted
n1628:rank35.orca_scf_mpi: Failed to modify UD QP to INIT on mlx5_0: Operation not permitted
n1420:rank3.orca_scf_mpi: Failed to modify UD QP to INIT on mlx5_0: Operation not permitted
n1628:rank32.orca_scf_mpi: Failed to modify UD QP to INIT on mlx5_0: Operation not permitted
n1628:rank34.orca_scf_mpi: Failed to modify UD QP to INIT on mlx5_0: Operation not permitted
n1628:rank33.orca_scf_mpi: Failed to modify UD QP to INIT on mlx5_0: Operation not permitted
n1420:rank3.orca_scf_mpi: Failed to modify UD QP to INIT on mlx5_0: Operation not permitted
n1628:rank35.orca_scf_mpi: Failed to modify UD QP to INIT on mlx5_0: Operation not permitted
n1420:rank0.orca_scf_mpi: Failed to modify UD QP to INIT on mlx5_0: Operation not permitted
n1420:rank3.orca_scf_mpi: Failed to modify UD QP to INIT on mlx5_0: Operation not permitted
n1420:rank9.orca_scf_mpi: Failed to modify UD QP to INIT on mlx5_0: Operation not permitted
n1420:rank11.orca_scf_mpi: Failed to modify UD QP to INIT on mlx5_0: Operation not permitted
n1420:rank20.orca_scf_mpi: Failed to modify UD QP to INIT on mlx5_0: Operation not permitted
n1420:rank18.orca_scf_mpi: Failed to modify UD QP to INIT on mlx5_0: Operation not permitted
n1420:rank27.orca_scf_mpi: Failed to modify UD QP to INIT on mlx5_0: Operation not permitted
n1420:rank15.orca_scf_mpi: Failed to modify UD QP to INIT on mlx5_0: Operation not permitted
n1420:rank20.orca_scf_mpi: Failed to modify UD QP to INIT on mlx5_0: Operation not permitted
n1420:rank9.orca_scf_mpi: Failed to modify UD QP to INIT on mlx5_0: Operation not permitted
n1420:rank18.orca_scf_mpi: Failed to modify UD QP to INIT on mlx5_0: Operation not permitted
n1420:rank11.orca_scf_mpi: Failed to modify UD QP to INIT on mlx5_0: Operation not permitted
n1420:rank27.orca_scf_mpi: Failed to modify UD QP to INIT on mlx5_0: Operation not permitted
n1420:rank20.orca_scf_mpi: Failed to modify UD QP to INIT on mlx5_0: Operation not permitted
n1420:rank9.orca_scf_mpi: Failed to modify UD QP to INIT on mlx5_0: Operation not permitted
n1420:rank11.orca_scf_mpi: Failed to modify UD QP to INIT on mlx5_0: Operation not permitted
n1420:rank27.orca_scf_mpi: Failed to modify UD QP to INIT on mlx5_0: Operation not permitted
n1420:rank18.orca_scf_mpi: Failed to modify UD QP to INIT on mlx5_0: Operation not permitted
n1420:rank22.orca_scf_mpi: Failed to modify UD QP to INIT on mlx5_0: Operation not permitted
n1420:rank20.orca_scf_mpi: Failed to modify UD QP to INIT on mlx5_0: Operation not permitted
n1420:rank22.orca_scf_mpi: Failed to modify UD QP to INIT on mlx5_0: Operation not permitted
n1420:rank9.orca_scf_mpi: Failed to modify UD QP to INIT on mlx5_0: Operation not permitted
n1420:rank22.orca_scf_mpi: Failed to modify UD QP to INIT on mlx5_0: Operation not permitted
n1420:rank27.orca_scf_mpi: Failed to modify UD QP to INIT on mlx5_0: Operation not permitted
n1420:rank11.orca_scf_mpi: Failed to modify UD QP to INIT on mlx5_0: Operation not permitted
n1420:rank18.orca_scf_mpi: Failed to modify UD QP to INIT on mlx5_0: Operation not permitted
n1420:rank22.orca_scf_mpi: Failed to modify UD QP to INIT on mlx5_0: Operation not permitted
n1420:rank23.orca_scf_mpi: Failed to modify UD QP to INIT on mlx5_0: Operation not permitted
n1420:rank23.orca_scf_mpi: Failed to modify UD QP to INIT on mlx5_0: Operation not permitted
n1420:rank23.orca_scf_mpi: Failed to modify UD QP to INIT on mlx5_0: Operation not permitted
n1420:rank8.orca_scf_mpi: Failed to modify UD QP to INIT on mlx5_0: Operation not permitted
n1420:rank8.orca_scf_mpi: Failed to modify UD QP to INIT on mlx5_0: Operation not permitted
n1420:rank8.orca_scf_mpi: Failed to modify UD QP to INIT on mlx5_0: Operation not permitted
n1420:rank23.orca_scf_mpi: Failed to modify UD QP to INIT on mlx5_0: Operation not permitted
n1420:rank8.orca_scf_mpi: Failed to modify UD QP to INIT on mlx5_0: Operation not permitted
n1420:rank14.orca_scf_mpi: Failed to modify UD QP to INIT on mlx5_0: Operation not permitted
n1420:rank10.orca_scf_mpi: Failed to modify UD QP to INIT on mlx5_0: Operation not permitted
n1420:rank7.orca_scf_mpi: Failed to modify UD QP to INIT on mlx5_0: Operation not permitted
n1420:rank26.orca_scf_mpi: Failed to modify UD QP to INIT on mlx5_0: Operation not permitted
n1420:rank21.orca_scf_mpi: Failed to modify UD QP to INIT on mlx5_0: Operation not permitted
n1420:rank19.orca_scf_mpi: Failed to modify UD QP to INIT on mlx5_0: Operation not permitted
n1420:rank28.orca_scf_mpi: Failed to modify UD QP to INIT on mlx5_0: Operation not permitted
n1420:rank1.orca_scf_mpi: Failed to modify UD QP to INIT on mlx5_0: Operation not permitted
n1420:rank29.orca_scf_mpi: Failed to modify UD QP to INIT on mlx5_0: Operation not permitted
n1420:rank31.orca_scf_mpi: Failed to modify UD QP to INIT on mlx5_0: Operation not permitted
n1420:rank5.orca_scf_mpi: Failed to modify UD QP to INIT on mlx5_0: Operation not permitted
n1420:rank14.orca_scf_mpi: Failed to modify UD QP to INIT on mlx5_0: Operation not permitted
n1420:rank6.orca_scf_mpi: Failed to modify UD QP to INIT on mlx5_0: Operation not permitted
n1420:rank13.orca_scf_mpi: Failed to modify UD QP to INIT on mlx5_0: Operation not permitted
n1420:rank24.orca_scf_mpi: Failed to modify UD QP to INIT on mlx5_0: Operation not permitted
n1420:rank17.orca_scf_mpi: Failed to modify UD QP to INIT on mlx5_0: Operation not permitted
n1420:rank30.orca_scf_mpi: Failed to modify UD QP to INIT on mlx5_0: Operation not permitted
n1420:rank10.orca_scf_mpi: Failed to modify UD QP to INIT on mlx5_0: Operation not permitted
n1420:rank2.orca_scf_mpi: Failed to modify UD QP to INIT on mlx5_0: Operation not permitted
n1420:rank7.orca_scf_mpi: Failed to modify UD QP to INIT on mlx5_0: Operation not permitted
n1420:rank26.orca_scf_mpi: Failed to modify UD QP to INIT on mlx5_0: Operation not permitted
n1420:rank12.orca_scf_mpi: Failed to modify UD QP to INIT on mlx5_0: Operation not permitted
n1420:rank4.orca_scf_mpi: Failed to modify UD QP to INIT on mlx5_0: Operation not permitted
n1420:rank25.orca_scf_mpi: Failed to modify UD QP to INIT on mlx5_0: Operation not permitted
n1420:rank16.orca_scf_mpi: Failed to modify UD QP to INIT on mlx5_0: Operation not permitted
n1420:rank14.orca_scf_mpi: Failed to modify UD QP to INIT on mlx5_0: Operation not permitted
n1420:rank21.orca_scf_mpi: Failed to modify UD QP to INIT on mlx5_0: Operation not permitted
n1420:rank29.orca_scf_mpi: Failed to modify UD QP to INIT on mlx5_0: Operation not permitted
n1420:rank19.orca_scf_mpi: Failed to modify UD QP to INIT on mlx5_0: Operation not permitted
n1420:rank31.orca_scf_mpi: Failed to modify UD QP to INIT on mlx5_0: Operation not permitted
n1420:rank28.orca_scf_mpi: Failed to modify UD QP to INIT on mlx5_0: Operation not permitted
n1420:rank1.orca_scf_mpi: Failed to modify UD QP to INIT on mlx5_0: Operation not permitted
n1420:rank10.orca_scf_mpi: Failed to modify UD QP to INIT on mlx5_0: Operation not permitted
n1420:rank5.orca_scf_mpi: Failed to modify UD QP to INIT on mlx5_0: Operation not permitted
n1420:rank7.orca_scf_mpi: Failed to modify UD QP to INIT on mlx5_0: Operation not permitted
n1420:rank26.orca_scf_mpi: Failed to modify UD QP to INIT on mlx5_0: Operation not permitted
n1420:rank6.orca_scf_mpi: Failed to modify UD QP to INIT on mlx5_0: Operation not permitted
n1420:rank24.orca_scf_mpi: Failed to modify UD QP to INIT on mlx5_0: Operation not permitted
n1420:rank2.orca_scf_mpi: Failed to modify UD QP to INIT on mlx5_0: Operation not permitted
n1420:rank17.orca_scf_mpi: Failed to modify UD QP to INIT on mlx5_0: Operation not permitted
n1420:rank30.orca_scf_mpi: Failed to modify UD QP to INIT on mlx5_0: Operation not permitted
n1420:rank12.orca_scf_mpi: Failed to modify UD QP to INIT on mlx5_0: Operation not permitted
n1420:rank21.orca_scf_mpi: Failed to modify UD QP to INIT on mlx5_0: Operation not permitted
n1420:rank4.orca_scf_mpi: Failed to modify UD QP to INIT on mlx5_0: Operation not permitted
n1420:rank13.orca_scf_mpi: Failed to modify UD QP to INIT on mlx5_0: Operation not permitted
n1420:rank25.orca_scf_mpi: Failed to modify UD QP to INIT on mlx5_0: Operation not permitted
n1420:rank29.orca_scf_mpi: Failed to modify UD QP to INIT on mlx5_0: Operation not permitted
n1420:rank31.orca_scf_mpi: Failed to modify UD QP to INIT on mlx5_0: Operation not permitted
n1420:rank28.orca_scf_mpi: Failed to modify UD QP to INIT on mlx5_0: Operation not permitted
n1420:rank19.orca_scf_mpi: Failed to modify UD QP to INIT on mlx5_0: Operation not permitted
n1420:rank16.orca_scf_mpi: Failed to modify UD QP to INIT on mlx5_0: Operation not permitted
n1420:rank1.orca_scf_mpi: Failed to modify UD QP to INIT on mlx5_0: Operation not permitted
n1420:rank5.orca_scf_mpi: Failed to modify UD QP to INIT on mlx5_0: Operation not permitted
n1420:rank6.orca_scf_mpi: Failed to modify UD QP to INIT on mlx5_0: Operation not permitted
n1420:rank24.orca_scf_mpi: Failed to modify UD QP to INIT on mlx5_0: Operation not permitted
n1420:rank2.orca_scf_mpi: Failed to modify UD QP to INIT on mlx5_0: Operation not permitted
n1420:rank30.orca_scf_mpi: Failed to modify UD QP to INIT on mlx5_0: Operation not permitted
n1420:rank17.orca_scf_mpi: Failed to modify UD QP to INIT on mlx5_0: Operation not permitted
n1420:rank12.orca_scf_mpi: Failed to modify UD QP to INIT on mlx5_0: Operation not permitted
n1420:rank25.orca_scf_mpi: Failed to modify UD QP to INIT on mlx5_0: Operation not permitted
n1420:rank4.orca_scf_mpi: Failed to modify UD QP to INIT on mlx5_0: Operation not permitted
n1420:rank13.orca_scf_mpi: Failed to modify UD QP to INIT on mlx5_0: Operation not permitted
n1420:rank16.orca_scf_mpi: Failed to modify UD QP to INIT on mlx5_0: Operation not permitted
n1420:rank14.orca_scf_mpi: Failed to modify UD QP to INIT on mlx5_0: Operation not permitted
n1420:rank26.orca_scf_mpi: Failed to modify UD QP to INIT on mlx5_0: Operation not permitted
n1420:rank7.orca_scf_mpi: Failed to modify UD QP to INIT on mlx5_0: Operation not permitted
n1420:rank10.orca_scf_mpi: Failed to modify UD QP to INIT on mlx5_0: Operation not permitted
n1420:rank29.orca_scf_mpi: Failed to modify UD QP to INIT on mlx5_0: Operation not permitted
n1420:rank21.orca_scf_mpi: Failed to modify UD QP to INIT on mlx5_0: Operation not permitted
n1420:rank31.orca_scf_mpi: Failed to modify UD QP to INIT on mlx5_0: Operation not permitted
n1420:rank6.orca_scf_mpi: Failed to modify UD QP to INIT on mlx5_0: Operation not permitted
n1420:rank5.orca_scf_mpi: Failed to modify UD QP to INIT on mlx5_0: Operation not permitted
n1420:rank24.orca_scf_mpi: Failed to modify UD QP to INIT on mlx5_0: Operation not permitted
n1420:rank30.orca_scf_mpi: Failed to modify UD QP to INIT on mlx5_0: Operation not permitted
n1420:rank2.orca_scf_mpi: Failed to modify UD QP to INIT on mlx5_0: Operation not permitted
n1420:rank1.orca_scf_mpi: Failed to modify UD QP to INIT on mlx5_0: Operation not permitted
n1420:rank4.orca_scf_mpi: Failed to modify UD QP to INIT on mlx5_0: Operation not permitted
n1420:rank17.orca_scf_mpi: Failed to modify UD QP to INIT on mlx5_0: Operation not permitted
n1420:rank25.orca_scf_mpi: Failed to modify UD QP to INIT on mlx5_0: Operation not permitted
n1420:rank19.orca_scf_mpi: Failed to modify UD QP to INIT on mlx5_0: Operation not permitted
n1420:rank13.orca_scf_mpi: Failed to modify UD QP to INIT on mlx5_0: Operation not permitted
n1420:rank28.orca_scf_mpi: Failed to modify UD QP to INIT on mlx5_0: Operation not permitted
n1420:rank16.orca_scf_mpi: Failed to modify UD QP to INIT on mlx5_0: Operation not permitted
n1420:rank12.orca_scf_mpi: Failed to modify UD QP to INIT on mlx5_0: Operation not permitted


           ************************************************************
           *        Program running with 36 parallel MPI-processes    *
           *              working on a shared directory               *
           ************************************************************
-------------------------------------------------------------------------------
                                 ORCA SCF
-------------------------------------------------------------------------------

------------
SCF SETTINGS
------------
Hamiltonian:
 Density Functional     Method          .... DFT(GTOs)
 Exchange Functional    Exchange        .... WB88
 Correlation Functional Correlation     .... LYP
 LDA part of GGA corr.  LDAOpt          .... VWN-5
 Gradients option       PostSCFGGA      .... off
 Hybrid DFT is turned on
   Fraction HF Exchange ScalHFX         ....  0.190000
   Scaling of DF-GGA-X  ScalDFX         ....  0.350000
   Scaling of DF-GGA-C  ScalDFC         ....  0.810000
   Scaling of DF-LDA-C  ScalLDAC        ....  1.000000
   Perturbative correction              ....  0.000000
   Density functional embedding theory  .... OFF
 Long-range corrected/Screened/Range-Separated Hybrid DFT is turned on
   Amount of maximum screened exact exchange              ....  0.460000
   Range separation parameter mu (erf(mu*r12)/r12)        ....  0.330000
 RI-approximation to the Coulomb term is turned on
   Number of AuxJ basis functions       .... 3022
   RIJ-COSX (HFX calculated with COS-X)).... on


General Settings:
 Integral files         IntName         .... Combo62_Cf10tc_0.21702_-0.21702_ck-1
 Hartree-Fock type      HFTyp           .... UHF
 Total Charge           Charge          ....    1
 Multiplicity           Mult            ....    2
 Number of Electrons    NEL             ....  403
 Basis Dimension        Dim             .... 1903
 Nuclear Repulsion      ENuc            ....   7039.2501152478 Eh

Convergence Acceleration:
 DIIS                   CNVDIIS         .... on
   Start iteration      DIISMaxIt       ....    12
   Startup error        DIISStart       ....  0.200000
   # of expansion vecs  DIISMaxEq       ....     5
   Bias factor          DIISBfac        ....   1.050
   Max. coefficient     DIISMaxC        ....  10.000
 Trust-Rad. Augm. Hess. CNVTRAH         .... auto
   Auto Start mean grad. ratio tolernc. ....  1.125000
   Auto Start start iteration           ....    20
   Auto Start num. interpolation iter.  ....    10
   Max. Number of Micro iterations      ....    16
   Max. Number of Macro iterations      .... Maxiter - #DIIS iter
   Number of Davidson start vectors     ....     2
   Converg. threshold I  (grad. norm)   ....   1.000e-05
   Converg. threshold II (energy diff.) ....   1.000e-08
   Grad. Scal. Fac. for Micro threshold ....   0.100
   Minimum threshold for Micro iter.    ....   0.010
   NR start threshold (gradient norm)   ....   0.001
   Initial trust radius                 ....   0.400
   Minimum AH scaling param. (alpha)    ....   1.000
   Maximum AH scaling param. (alpha)    .... 1000.000
   Orbital update algorithm             .... Taylor
   White noise on init. David. guess    .... on
   Maximum white noise                  ....   0.010
   Quad. conv. algorithm                .... NR
 SOSCF                  CNVSOSCF        .... off
 Level Shifting         CNVShift        .... on
   Level shift para.    LevelShift      ....    0.2500
   Turn off err/grad.   ShiftErr        ....    0.0010
 Zerner damping         CNVZerner       .... off
 Static damping         CNVDamp         .... on
   Fraction old density DampFac         ....    0.7000
   Max. Damping (<1)    DampMax         ....    0.9800
   Min. Damping (>=0)   DampMin         ....    0.0000
   Turn off err/grad.   DampErr         ....    0.1000
 Fernandez-Rico         CNVRico         .... off

SCF Procedure:
 Maximum # iterations   MaxIter         ....   500
 SCF integral mode      SCFMode         .... Direct
   Integral package                     .... SHARK and LIBINT hybrid scheme
 Reset frequency        DirectResetFreq ....    20
 Integral Threshold     Thresh          ....  2.500e-11 Eh
 Primitive CutOff       TCut            ....  2.500e-12 Eh

Convergence Tolerance:
 Convergence Check Mode ConvCheckMode   .... Total+1el-Energy
 Convergence forced     ConvForced      .... 0
 Energy Change          TolE            ....  1.000e-08 Eh
 1-El. energy change                    ....  1.000e-05 Eh
 DIIS Error             TolErr          ....  5.000e-07


Diagonalization of the overlap matrix:
Smallest eigenvalue                        ... 4.068e-06
Time for diagonalization                   ...    0.485 sec
Threshold for overlap eigenvalues          ... 1.000e-08
Number of eigenvalues below threshold      ... 0
Time for construction of square roots      ...    0.336 sec
Total time needed                          ...    0.833 sec

Time for model grid setup =    0.446 sec

------------------------------
INITIAL GUESS: MODEL POTENTIAL
------------------------------
Loading Hartree-Fock densities                     ... done
Calculating cut-offs                               ... done
Initializing the effective Hamiltonian             ... done
Setting up the integral package (SHARK)            ... done
Starting the Coulomb interaction                   ... done (   0.6 sec)
Reading the grid                                   ... done
Mapping shells                                     ... done
Starting the XC term evaluation                    ... done (   0.2 sec)
  promolecular density results
     # of electrons  =    403.984495034
     EX              =   -376.520781361
     EC              =    -14.033649803
     EX+EC           =   -390.554431164
Transforming the Hamiltonian                       ... done (   0.3 sec)
Diagonalizing the Hamiltonian                      ... done (   0.4 sec)
Back transforming the eigenvectors                 ... done (   0.2 sec)
Now organizing SCF variables                       ... done
                      ------------------
                      INITIAL GUESS DONE (   2.3 sec)
                      ------------------
-------------------
DFT GRID GENERATION
-------------------

General Integration Accuracy     IntAcc      ... 4.388
Radial Grid Type                 RadialGrid  ... OptM3 with GC (2021)
Angular Grid (max. ang.)         AngularGrid ... 4 (Lebedev-302)
Angular grid pruning method      GridPruning ... 4 (adaptive)
Weight generation scheme         WeightScheme... Becke
Basis function cutoff            BFCut       ... 1.0000e-11
Integration weight cutoff        WCut        ... 1.0000e-14
Angular grids for H and He will be reduced by one unit
Partially contracted basis set               ... off
Rotationally invariant grid construction     ... off

Total number of grid points                  ...   424387
Total number of batches                      ...     6671
Average number of points per batch           ...       63
Average number of grid points per atom       ...     5052
Time for grid setup =    2.105 sec

--------------------
COSX GRID GENERATION
--------------------

GRIDX 1
-------
General Integration Accuracy     IntAcc      ... 3.816
Radial Grid Type                 RadialGrid  ... OptM3 with GC (2021)
Angular Grid (max. ang.)         AngularGrid ... 1 (Lebedev-50)
Angular grid pruning method      GridPruning ... 4 (adaptive)
Weight generation scheme         WeightScheme... Becke
Basis function cutoff            BFCut       ... 1.0000e-11
Integration weight cutoff        WCut        ... 1.0000e-14
Angular grids for H and He will be reduced by one unit
Partially contracted basis set               ... on
Rotationally invariant grid construction     ... off

Total number of grid points                  ...    53521
Total number of batches                      ...      865
Average number of points per batch           ...       61
Average number of grid points per atom       ...      637
UseSFitting                                  ... on

GRIDX 2
-------
General Integration Accuracy     IntAcc      ... 4.020
Radial Grid Type                 RadialGrid  ... OptM3 with GC (2021)
Angular Grid (max. ang.)         AngularGrid ... 2 (Lebedev-110)
Angular grid pruning method      GridPruning ... 4 (adaptive)
Weight generation scheme         WeightScheme... Becke
Basis function cutoff            BFCut       ... 1.0000e-11
Integration weight cutoff        WCut        ... 1.0000e-14
Angular grids for H and He will be reduced by one unit
Partially contracted basis set               ... on
Rotationally invariant grid construction     ... off

Total number of grid points                  ...   117203
Total number of batches                      ...     1873
Average number of points per batch           ...       62
Average number of grid points per atom       ...     1395
UseSFitting                                  ... on

GRIDX 3
-------
General Integration Accuracy     IntAcc      ... 4.338
Radial Grid Type                 RadialGrid  ... OptM3 with GC (2021)
Angular Grid (max. ang.)         AngularGrid ... 3 (Lebedev-194)
Angular grid pruning method      GridPruning ... 4 (adaptive)
Weight generation scheme         WeightScheme... Becke
Basis function cutoff            BFCut       ... 1.0000e-11
Integration weight cutoff        WCut        ... 1.0000e-14
Angular grids for H and He will be reduced by one unit
Partially contracted basis set               ... on
Rotationally invariant grid construction     ... off

Total number of grid points                  ...   258626
Total number of batches                      ...     4083
Average number of points per batch           ...       63
Average number of grid points per atom       ...     3079
UseSFitting                                  ... on

Time for X-Grid setup             =    6.348 sec

--------------
SCF ITERATIONS
--------------
ITER       Energy         Delta-E        Max-DP      RMS-DP      [F,P]     Damp
               ***  Starting incremental Fock matrix formation  ***
  0  -3635.2255306768   0.000000000000 0.02974839  0.00027748  0.0938551 0.7000
  1  -3635.6721397109  -0.446609034109 0.02854933  0.00022619  0.0509271 0.7000
                               ***Turning on DIIS***
  2  -3635.8903772362  -0.218237525274 0.05548717  0.00049666  0.0235546 0.0000
  3  -3636.2281150957  -0.337737859507 0.02590771  0.00014045  0.0232231 0.0000
  4  -3636.2958719911  -0.067756895462 0.01249956  0.00006772  0.0050289 0.0000
  5  -3636.2990769283  -0.003204937169 0.00426269  0.00002642  0.0034964 0.0000
  6  -3636.2997925103  -0.000715581959 0.00261529  0.00001294  0.0025691 0.0000
  7  -3636.3000633888  -0.000270878477 0.00185065  0.00000776  0.0018204 0.0000
  8  -3636.3001914859  -0.000128097131 0.00130998  0.00000471  0.0012553 0.0000
  9  -3636.3002574872  -0.000066001296 0.15706804  0.00026664  0.0008347 0.0000
               *** Restarting incremental Fock matrix formation ***
                                   *** Resetting DIIS ***
 10  -3636.2310444605   0.069213026679 0.10933460  0.00039490  0.0488750 0.0000
 11  -3636.3130921324  -0.082047671852 0.04315886  0.00011691  0.0259733 0.0000
 12  -3636.3353505843  -0.022258451941 0.01888635  0.00005204  0.0122776 0.0000
 13  -3636.3388607403  -0.003510155987 0.00788653  0.00002689  0.0045029 0.0000
 14  -3636.3401914930  -0.001330752743 0.00571276  0.00001706  0.0018787 0.0000
 15  -3636.3408197048  -0.000628211737 0.00329567  0.00001044  0.0010432 0.0000
 16  -3636.3411190181  -0.000299313316 0.00429980  0.00001550  0.0007237 0.0000
 17  -3636.3414399420  -0.000320923947 0.00137825  0.00000538  0.0005051 0.0000
 18  -3636.3415015997  -0.000061657659 0.00067698  0.00000280  0.0004108 0.0000
 19  -3636.3415254143  -0.000023814603 0.00055060  0.00000199  0.0003231 0.0000
 20  -3636.3415398058  -0.000014391527 0.00084111  0.00000275  0.0002209 0.0000
 21  -3636.3415545771  -0.000014771283 0.00048122  0.00000153  0.0001597 0.0000
 22  -3636.3415598219  -0.000005244837 0.00051967  0.00000167  0.0000981 0.0000
 23  -3636.3415629769  -0.000003154967 0.00017266  0.00000075  0.0000490 0.0000
 24  -3636.3415635528  -0.000000575935 0.00009734  0.00000053  0.0000402 0.0000
 25  -3636.3415637608  -0.000000208010 0.00006129  0.00000048  0.0000285 0.0000
 26  -3636.3415637935  -0.000000032685 0.00006961  0.00000053  0.0000238 0.0000
 27  -3636.3415638184  -0.000000024902 0.00010671  0.00000070  0.0000165 0.0000
 28  -3636.3415638233  -0.000000004911 0.00007319  0.00000049  0.0000116 0.0000
 29  -3636.3415637519   0.000000071487 0.00022692  0.00000164  0.0000085 0.0000
               *** Restarting incremental Fock matrix formation ***
                                   *** Resetting DIIS ***
 30  -3636.3415640462  -0.000000294359 0.00023547  0.00000234  0.0000047 0.0000
 31  -3636.3415640452   0.000000000972 0.00004325  0.00000029  0.0000042 0.0000
 32  -3636.3415639776   0.000000067688 0.00020206  0.00000122  0.0000031 0.0000
 33  -3636.3415639786  -0.000000001081 0.00007708  0.00000035  0.0000015 0.0000
 34  -3636.3415640144  -0.000000035757 0.00006236  0.00000040  0.0000012 0.0000
                            ***DIIS convergence achieved***

               *****************************************************
               *                     SUCCESS                       *
               *           SCF CONVERGED AFTER  35 CYCLES          *
               *****************************************************

Old exchange energy                            =   -104.237695126 Eh
New exchange energy                            =   -104.237679038 Eh
Exchange energy change after final integration =      0.000016088 Eh
Total energy after final integration           =  -3636.341547919 Eh
Final COS-X integration done in                =    50.242 sec

----------------
TOTAL SCF ENERGY
----------------

Total Energy       :        -3636.34154792 Eh          -98949.88403 eV

Components:
Nuclear Repulsion  :         7039.25011525 Eh          191547.73373 eV
Electronic Energy  :       -10675.59166317 Eh         -290497.61777 eV
One Electron Energy:       -18944.89257722 Eh         -515516.73539 eV
Two Electron Energy:         8269.30091406 Eh          225019.11762 eV
Max COSX asymmetry :            0.00000097 Eh               0.00003 eV

Virial components:
Potential Energy   :        -7261.85120643 Eh         -197605.01737 eV
Kinetic Energy     :         3625.50965852 Eh           98655.13334 eV
Virial Ratio       :            2.00298769


DFT components:
N(Alpha)           :      201.999872351833 electrons
N(Beta)            :      200.999874613642 electrons
N(Total)           :      402.999746965475 electrons
E(XC)              :     -293.145067949556 Eh       
DFET-embed. en.    :        0.000000000000 Eh       

---------------
SCF CONVERGENCE
---------------

  Last Energy change         ...    7.5984e-09  Tolerance :   1.0000e-08
  Last MAX-Density change    ...    0.0000e+00  Tolerance :   1.0000e-07
  Last RMS-Density change    ...    0.0000e+00  Tolerance :   5.0000e-09
  Last DIIS Error            ...    5.9218e-07  Tolerance :   5.0000e-07

             **** THE GBW FILE WAS UPDATED (Combo62_Cf10tc_0.21702_-0.21702_ck-1.gbw) ****
             **** DENSITY Combo62_Cf10tc_0.21702_-0.21702_ck-1.scfp WAS UPDATED ****
             **** ENERGY FILE WAS UPDATED (Combo62_Cf10tc_0.21702_-0.21702_ck-1.en.tmp) ****
----------------------
UHF SPIN CONTAMINATION
----------------------

Warning: in a DFT calculation there is little theoretical justification to 
         calculate <S**2> as in Hartree-Fock theory. We will do it anyways
         but you should keep in mind that the values have only limited relevance

Expectation value of <S**2>     :     0.768057
Ideal value S*(S+1) for S=0.5   :     0.750000
Deviation                       :     0.018057

             **** THE GBW FILE WAS UPDATED (Combo62_Cf10tc_0.21702_-0.21702_ck-1.gbw) ****
             **** DENSITY Combo62_Cf10tc_0.21702_-0.21702_ck-1.scfp WAS UPDATED ****
----------------
ORBITAL ENERGIES
----------------
                 SPIN UP ORBITALS
  NO   OCC          E(Eh)            E(eV) 
   0   1.0000     -89.151567     -2425.9375 
   1   1.0000     -89.024443     -2422.4783 
   2   1.0000     -89.003636     -2421.9121 
   3   1.0000     -88.954059     -2420.5630 
   4   1.0000     -14.650070      -398.6487 
   5   1.0000     -14.510617      -394.8540 
   6   1.0000     -14.484924      -394.1548 
   7   1.0000     -14.483720      -394.1221 
   8   1.0000     -14.477408      -393.9503 
   9   1.0000     -10.492143      -285.5057 
  10   1.0000     -10.491627      -285.4917 
  11   1.0000     -10.475655      -285.0571 
  12   1.0000     -10.475132      -285.0428 
  13   1.0000     -10.444232      -284.2020 
  14   1.0000     -10.434853      -283.9468 
  15   1.0000     -10.428166      -283.7648 
  16   1.0000     -10.426662      -283.7239 
  17   1.0000     -10.426647      -283.7235 
  18   1.0000     -10.425215      -283.6845 
  19   1.0000     -10.422168      -283.6016 
  20   1.0000     -10.421922      -283.5949 
  21   1.0000     -10.420957      -283.5686 
  22   1.0000     -10.420762      -283.5633 
  23   1.0000     -10.420299      -283.5507 
  24   1.0000     -10.419363      -283.5253 
  25   1.0000     -10.400500      -283.0120 
  26   1.0000     -10.398840      -282.9668 
  27   1.0000     -10.396483      -282.9027 
  28   1.0000     -10.393141      -282.8118 
  29   1.0000     -10.388632      -282.6891 
  30   1.0000     -10.388589      -282.6879 
  31   1.0000     -10.387166      -282.6492 
  32   1.0000     -10.382762      -282.5293 
  33   1.0000     -10.374988      -282.3178 
  34   1.0000     -10.373344      -282.2730 
  35   1.0000     -10.365887      -282.0701 
  36   1.0000     -10.346840      -281.5518 
  37   1.0000     -10.345840      -281.5246 
  38   1.0000     -10.345172      -281.5064 
  39   1.0000     -10.344372      -281.4847 
  40   1.0000     -10.341497      -281.4064 
  41   1.0000     -10.337962      -281.3103 
  42   1.0000     -10.337825      -281.3065 
  43   1.0000     -10.335821      -281.2520 
  44   1.0000     -10.334866      -281.2260 
  45   1.0000     -10.333880      -281.1992 
  46   1.0000     -10.332450      -281.1603 
  47   1.0000     -10.331243      -281.1274 
  48   1.0000     -10.330642      -281.1111 
  49   1.0000     -10.328340      -281.0484 
  50   1.0000     -10.328227      -281.0454 
  51   1.0000     -10.326448      -280.9969 
  52   1.0000     -10.324866      -280.9539 
  53   1.0000     -10.324839      -280.9532 
  54   1.0000     -10.321400      -280.8596 
  55   1.0000      -8.228980      -223.9219 
  56   1.0000      -8.102502      -220.4803 
  57   1.0000      -8.082683      -219.9410 
  58   1.0000      -8.033257      -218.5960 
  59   1.0000      -6.191888      -168.4898 
  60   1.0000      -6.188798      -168.4058 
  61   1.0000      -6.187717      -168.3763 
  62   1.0000      -6.066593      -165.0804 
  63   1.0000      -6.062992      -164.9824 
  64   1.0000      -6.057921      -164.8444 
  65   1.0000      -6.046369      -164.5301 
  66   1.0000      -6.041910      -164.4087 
  67   1.0000      -6.039505      -164.3433 
  68   1.0000      -5.995802      -163.1541 
  69   1.0000      -5.995528      -163.1466 
  70   1.0000      -5.988131      -162.9453 
  71   1.0000      -1.273143       -34.6440 
  72   1.0000      -1.209358       -32.9083 
  73   1.0000      -1.156191       -31.4616 
  74   1.0000      -1.148040       -31.2398 
  75   1.0000      -1.137894       -30.9637 
  76   1.0000      -1.102609       -30.0035 
  77   1.0000      -1.088285       -29.6137 
  78   1.0000      -1.082648       -29.4604 
  79   1.0000      -1.078852       -29.3571 
  80   1.0000      -1.049862       -28.5682 
  81   1.0000      -1.042153       -28.3584 
  82   1.0000      -1.035565       -28.1792 
  83   1.0000      -1.033933       -28.1348 
  84   1.0000      -1.020592       -27.7717 
  85   1.0000      -1.018713       -27.7206 
  86   1.0000      -1.003796       -27.3147 
  87   1.0000      -0.986179       -26.8353 
  88   1.0000      -0.984830       -26.7986 
  89   1.0000      -0.982176       -26.7264 
  90   1.0000      -0.980808       -26.6891 
  91   1.0000      -0.946855       -25.7652 
  92   1.0000      -0.941964       -25.6322 
  93   1.0000      -0.937369       -25.5071 
  94   1.0000      -0.926377       -25.2080 
  95   1.0000      -0.921528       -25.0760 
  96   1.0000      -0.915752       -24.9189 
  97   1.0000      -0.912929       -24.8421 
  98   1.0000      -0.903430       -24.5836 
  99   1.0000      -0.901880       -24.5414 
 100   1.0000      -0.898591       -24.4519 
 101   1.0000      -0.864471       -23.5235 
 102   1.0000      -0.861782       -23.4503 
 103   1.0000      -0.857300       -23.3283 
 104   1.0000      -0.851190       -23.1621 
 105   1.0000      -0.848607       -23.0918 
 106   1.0000      -0.834839       -22.7171 
 107   1.0000      -0.818440       -22.2709 
 108   1.0000      -0.813422       -22.1343 
 109   1.0000      -0.811025       -22.0691 
 110   1.0000      -0.801133       -21.7999 
 111   1.0000      -0.795089       -21.6355 
 112   1.0000      -0.775713       -21.1082 
 113   1.0000      -0.774101       -21.0644 
 114   1.0000      -0.773345       -21.0438 
 115   1.0000      -0.769410       -20.9367 
 116   1.0000      -0.761047       -20.7091 
 117   1.0000      -0.756459       -20.5843 
 118   1.0000      -0.730975       -19.8908 
 119   1.0000      -0.730180       -19.8692 
 120   1.0000      -0.728604       -19.8263 
 121   1.0000      -0.725886       -19.7524 
 122   1.0000      -0.716379       -19.4937 
 123   1.0000      -0.715435       -19.4680 
 124   1.0000      -0.710716       -19.3396 
 125   1.0000      -0.706936       -19.2367 
 126   1.0000      -0.701616       -19.0919 
 127   1.0000      -0.699284       -19.0285 
 128   1.0000      -0.696308       -18.9475 
 129   1.0000      -0.682525       -18.5724 
 130   1.0000      -0.678498       -18.4629 
 131   1.0000      -0.669165       -18.2089 
 132   1.0000      -0.668295       -18.1852 
 133   1.0000      -0.667404       -18.1610 
 134   1.0000      -0.653439       -17.7810 
 135   1.0000      -0.645997       -17.5785 
 136   1.0000      -0.642266       -17.4769 
 137   1.0000      -0.640354       -17.4249 
 138   1.0000      -0.638412       -17.3721 
 139   1.0000      -0.635565       -17.2946 
 140   1.0000      -0.635059       -17.2808 
 141   1.0000      -0.627964       -17.0878 
 142   1.0000      -0.626183       -17.0393 
 143   1.0000      -0.621564       -16.9136 
 144   1.0000      -0.614843       -16.7307 
 145   1.0000      -0.610270       -16.6063 
 146   1.0000      -0.607920       -16.5423 
 147   1.0000      -0.605367       -16.4729 
 148   1.0000      -0.604163       -16.4401 
 149   1.0000      -0.604144       -16.4396 
 150   1.0000      -0.598997       -16.2995 
 151   1.0000      -0.594274       -16.1710 
 152   1.0000      -0.590399       -16.0656 
 153   1.0000      -0.585439       -15.9306 
 154   1.0000      -0.583692       -15.8831 
 155   1.0000      -0.581366       -15.8198 
 156   1.0000      -0.580142       -15.7865 
 157   1.0000      -0.578818       -15.7504 
 158   1.0000      -0.572612       -15.5816 
 159   1.0000      -0.569321       -15.4920 
 160   1.0000      -0.567289       -15.4367 
 161   1.0000      -0.566507       -15.4154 
 162   1.0000      -0.561717       -15.2851 
 163   1.0000      -0.553522       -15.0621 
 164   1.0000      -0.553236       -15.0543 
 165   1.0000      -0.549196       -14.9444 
 166   1.0000      -0.541068       -14.7232 
 167   1.0000      -0.536889       -14.6095 
 168   1.0000      -0.534755       -14.5514 
 169   1.0000      -0.533396       -14.5145 
 170   1.0000      -0.529782       -14.4161 
 171   1.0000      -0.522720       -14.2239 
 172   1.0000      -0.512528       -13.9466 
 173   1.0000      -0.510782       -13.8991 
 174   1.0000      -0.505294       -13.7497 
 175   1.0000      -0.504546       -13.7294 
 176   1.0000      -0.502497       -13.6736 
 177   1.0000      -0.501017       -13.6334 
 178   1.0000      -0.499021       -13.5791 
 179   1.0000      -0.491923       -13.3859 
 180   1.0000      -0.488297       -13.2872 
 181   1.0000      -0.485721       -13.2171 
 182   1.0000      -0.468455       -12.7473 
 183   1.0000      -0.465425       -12.6649 
 184   1.0000      -0.463654       -12.6167 
 185   1.0000      -0.461125       -12.5478 
 186   1.0000      -0.455398       -12.3920 
 187   1.0000      -0.450181       -12.2500 
 188   1.0000      -0.440756       -11.9936 
 189   1.0000      -0.429176       -11.6785 
 190   1.0000      -0.420238       -11.4352 
 191   1.0000      -0.419863       -11.4250 
 192   1.0000      -0.410484       -11.1698 
 193   1.0000      -0.407409       -11.0862 
 194   1.0000      -0.400869       -10.9082 
 195   1.0000      -0.396013       -10.7761 
 196   1.0000      -0.391395       -10.6504 
 197   1.0000      -0.381828       -10.3901 
 198   1.0000      -0.360136        -9.7998 
 199   1.0000      -0.354955        -9.6588 
 200   1.0000      -0.339554        -9.2397 
 201   1.0000      -0.332863        -9.0577 
 202   0.0000      -0.171619        -4.6700 
 203   0.0000      -0.148125        -4.0307 
 204   0.0000      -0.145951        -3.9715 
 205   0.0000      -0.141482        -3.8499 
 206   0.0000      -0.126967        -3.4549 
 207   0.0000      -0.106828        -2.9069 
 208   0.0000      -0.106024        -2.8850 
 209   0.0000      -0.105402        -2.8681 
 210   0.0000      -0.094310        -2.5663 
 211   0.0000      -0.071228        -1.9382 
 212   0.0000      -0.067526        -1.8375 
 213   0.0000      -0.066372        -1.8061 
 214   0.0000      -0.063301        -1.7225 
 215   0.0000      -0.057464        -1.5637 
 216   0.0000      -0.056762        -1.5446 
 217   0.0000      -0.056165        -1.5283 
 218   0.0000      -0.043270        -1.1774 
 219   0.0000      -0.039828        -1.0838 
 220   0.0000      -0.038407        -1.0451 
 221   0.0000      -0.035907        -0.9771 
 222   0.0000      -0.029043        -0.7903 
 223   0.0000      -0.023620        -0.6427 
 224   0.0000      -0.020819        -0.5665 
 225   0.0000      -0.015492        -0.4216 
 226   0.0000      -0.014775        -0.4021 
 227   0.0000      -0.013933        -0.3791 
 228   0.0000      -0.003752        -0.1021 
 229   0.0000      -0.001674        -0.0455 
 230   0.0000       0.006782         0.1846 
 231   0.0000       0.007468         0.2032 
 232   0.0000       0.009527         0.2592 
 233   0.0000       0.012586         0.3425 
 234   0.0000       0.013133         0.3574 
 235   0.0000       0.017095         0.4652 
 236   0.0000       0.018786         0.5112 
 237   0.0000       0.021048         0.5728 
 238   0.0000       0.022090         0.6011 
 239   0.0000       0.023745         0.6461 
 240   0.0000       0.026038         0.7085 
 241   0.0000       0.027931         0.7601 
 242   0.0000       0.031093         0.8461 
 243   0.0000       0.033300         0.9061 
 244   0.0000       0.035136         0.9561 
 245   0.0000       0.039082         1.0635 
 246   0.0000       0.041985         1.1425 
 247   0.0000       0.044752         1.2178 
 248   0.0000       0.049367         1.3434 
 249   0.0000       0.052939         1.4405 
 250   0.0000       0.054918         1.4944 
 251   0.0000       0.059434         1.6173 
 252   0.0000       0.063736         1.7344 
 253   0.0000       0.064481         1.7546 
 254   0.0000       0.065762         1.7895 
 255   0.0000       0.072320         1.9679 
 256   0.0000       0.073847         2.0095 
 257   0.0000       0.078972         2.1489 
 258   0.0000       0.080461         2.1895 
 259   0.0000       0.081976         2.2307 
 260   0.0000       0.085618         2.3298 
 261   0.0000       0.086764         2.3610 
 262   0.0000       0.089051         2.4232 
 263   0.0000       0.091161         2.4806 
 264   0.0000       0.091781         2.4975 
 265   0.0000       0.092948         2.5292 
 266   0.0000       0.094024         2.5585 
 267   0.0000       0.095404         2.5961 
 268   0.0000       0.098692         2.6856 
 269   0.0000       0.101411         2.7595 
 270   0.0000       0.106168         2.8890 
 271   0.0000       0.107746         2.9319 
 272   0.0000       0.109945         2.9917 
 273   0.0000       0.111444         3.0325 
 274   0.0000       0.113802         3.0967 
 275   0.0000       0.115984         3.1561 
 276   0.0000       0.117464         3.1964 
 277   0.0000       0.117808         3.2057 
 278   0.0000       0.120823         3.2878 
 279   0.0000       0.124336         3.3833 
 280   0.0000       0.126029         3.4294 
 281   0.0000       0.127878         3.4797 
 282   0.0000       0.129871         3.5340 
 283   0.0000       0.130115         3.5406 
 284   0.0000       0.130770         3.5584 
 285   0.0000       0.137451         3.7402 
 286   0.0000       0.139207         3.7880 
 287   0.0000       0.141027         3.8375 
 288   0.0000       0.143878         3.9151 
 289   0.0000       0.147481         4.0132 
 290   0.0000       0.149330         4.0635 
 291   0.0000       0.150652         4.0994 
 292   0.0000       0.151811         4.1310 
 293   0.0000       0.153003         4.1634 
 294   0.0000       0.154824         4.2130 
 295   0.0000       0.157089         4.2746 
 296   0.0000       0.158437         4.3113 
 297   0.0000       0.160143         4.3577 
 298   0.0000       0.162249         4.4150 
 299   0.0000       0.163991         4.4624 
 300   0.0000       0.165934         4.5153 
 301   0.0000       0.168035         4.5725 
 302   0.0000       0.169760         4.6194 
 303   0.0000       0.171896         4.6775 
 304   0.0000       0.173592         4.7237 
 305   0.0000       0.174830         4.7574 
 306   0.0000       0.175906         4.7866 
 307   0.0000       0.178343         4.8530 
 308   0.0000       0.180104         4.9009 
 309   0.0000       0.182538         4.9671 
 310   0.0000       0.185507         5.0479 
 311   0.0000       0.188378         5.1260 
 312   0.0000       0.189012         5.1433 
 313   0.0000       0.191776         5.2185 
 314   0.0000       0.194085         5.2813 
 315   0.0000       0.195126         5.3097 
 316   0.0000       0.195959         5.3323 
 317   0.0000       0.198113         5.3909 
 318   0.0000       0.200928         5.4675 
 319   0.0000       0.202080         5.4989 
 320   0.0000       0.202671         5.5150 
 321   0.0000       0.206152         5.6097 
 322   0.0000       0.207119         5.6360 
 323   0.0000       0.210059         5.7160 
 324   0.0000       0.210761         5.7351 
 325   0.0000       0.212422         5.7803 
 326   0.0000       0.212540         5.7835 
 327   0.0000       0.214036         5.8242 
 328   0.0000       0.216354         5.8873 
 329   0.0000       0.218086         5.9344 
 330   0.0000       0.219669         5.9775 
 331   0.0000       0.220303         5.9948 
 332   0.0000       0.222621         6.0578 
 333   0.0000       0.225441         6.1346 
 334   0.0000       0.229218         6.2373 
 335   0.0000       0.230439         6.2706 
 336   0.0000       0.233522         6.3545 
 337   0.0000       0.234852         6.3907 
 338   0.0000       0.236171         6.4265 
 339   0.0000       0.237567         6.4645 
 340   0.0000       0.239238         6.5100 
 341   0.0000       0.241310         6.5664 
 342   0.0000       0.242443         6.5972 
 343   0.0000       0.245566         6.6822 
 344   0.0000       0.248901         6.7729 
 345   0.0000       0.253236         6.8909 
 346   0.0000       0.256634         6.9834 
 347   0.0000       0.258255         7.0275 
 348   0.0000       0.259139         7.0515 
 349   0.0000       0.261151         7.1063 
 350   0.0000       0.261635         7.1194 
 351   0.0000       0.262597         7.1456 
 352   0.0000       0.263565         7.1720 
 353   0.0000       0.264481         7.1969 
 354   0.0000       0.266672         7.2565 
 355   0.0000       0.269570         7.3354 
 356   0.0000       0.269969         7.3462 
 357   0.0000       0.274664         7.4740 
 358   0.0000       0.277102         7.5403 
 359   0.0000       0.278959         7.5909 
 360   0.0000       0.280429         7.6309 
 361   0.0000       0.281956         7.6724 
 362   0.0000       0.283633         7.7180 
 363   0.0000       0.285088         7.7576 
 364   0.0000       0.287634         7.8269 
 365   0.0000       0.288784         7.8582 
 366   0.0000       0.290673         7.9096 
 367   0.0000       0.292061         7.9474 
 368   0.0000       0.293058         7.9745 
 369   0.0000       0.294072         8.0021 
 370   0.0000       0.295045         8.0286 
 371   0.0000       0.296823         8.0770 
 372   0.0000       0.300535         8.1780 
 373   0.0000       0.303194         8.2503 
 374   0.0000       0.303800         8.2668 
 375   0.0000       0.305630         8.3166 
 376   0.0000       0.306569         8.3422 
 377   0.0000       0.308827         8.4036 
 378   0.0000       0.311837         8.4855 
 379   0.0000       0.314040         8.5455 
 380   0.0000       0.315748         8.5919 
 381   0.0000       0.316852         8.6220 
 382   0.0000       0.318360         8.6630 
 383   0.0000       0.320436         8.7195 
 384   0.0000       0.322186         8.7671 
 385   0.0000       0.325950         8.8695 
 386   0.0000       0.327172         8.9028 
 387   0.0000       0.330330         8.9887 
 388   0.0000       0.331454         9.0193 
 389   0.0000       0.333315         9.0700 
 390   0.0000       0.334779         9.1098 
 391   0.0000       0.336913         9.1679 
 392   0.0000       0.337975         9.1968 
 393   0.0000       0.339789         9.2461 
 394   0.0000       0.341532         9.2936 
 395   0.0000       0.342627         9.3234 
 396   0.0000       0.344240         9.3672 
 397   0.0000       0.345732         9.4079 
 398   0.0000       0.346972         9.4416 
 399   0.0000       0.349112         9.4998 
 400   0.0000       0.351841         9.5741 
 401   0.0000       0.352417         9.5898 
 402   0.0000       0.352531         9.5929 
 403   0.0000       0.354225         9.6390 
 404   0.0000       0.355478         9.6730 
 405   0.0000       0.357355         9.7241 
 406   0.0000       0.358956         9.7677 
 407   0.0000       0.359830         9.7915 
 408   0.0000       0.361778         9.8445 
 409   0.0000       0.363346         9.8871 
 410   0.0000       0.365116         9.9353 
 411   0.0000       0.368217        10.0197 
 412   0.0000       0.369077        10.0431 
 413   0.0000       0.370708        10.0875 
 414   0.0000       0.373587        10.1658 
 415   0.0000       0.374112        10.1801 
 416   0.0000       0.375804        10.2261 
 417   0.0000       0.377608        10.2752 
 418   0.0000       0.379590        10.3292 
 419   0.0000       0.383215        10.4278 
 420   0.0000       0.384871        10.4729 
 421   0.0000       0.386235        10.5100 
 422   0.0000       0.388233        10.5644 
 423   0.0000       0.390282        10.6201 
 424   0.0000       0.391024        10.6403 
 425   0.0000       0.391849        10.6628 
 426   0.0000       0.394378        10.7316 
 427   0.0000       0.398626        10.8472 
 428   0.0000       0.398757        10.8507 
 429   0.0000       0.400022        10.8851 
 430   0.0000       0.403229        10.9724 
 431   0.0000       0.409016        11.1299 
 432   0.0000       0.409279        11.1370 
 433   0.0000       0.410279        11.1643 
 434   0.0000       0.411821        11.2062 
 435   0.0000       0.414834        11.2882 
 436   0.0000       0.416520        11.3341 
 437   0.0000       0.418623        11.3913 
 438   0.0000       0.419681        11.4201 
 439   0.0000       0.422991        11.5102 
 440   0.0000       0.425055        11.5663 
 441   0.0000       0.426708        11.6113 
 442   0.0000       0.430823        11.7233 
 443   0.0000       0.432237        11.7618 
 444   0.0000       0.432878        11.7792 
 445   0.0000       0.435934        11.8624 
 446   0.0000       0.436855        11.8874 
 447   0.0000       0.441246        12.0069 
 448   0.0000       0.443307        12.0630 
 449   0.0000       0.443912        12.0795 
 450   0.0000       0.445574        12.1247 
 451   0.0000       0.448831        12.2133 
 452   0.0000       0.450637        12.2625 
 453   0.0000       0.453841        12.3496 
 454   0.0000       0.456077        12.4105 
 455   0.0000       0.459634        12.5073 
 456   0.0000       0.460820        12.5396 
 457   0.0000       0.464168        12.6307 
 458   0.0000       0.467558        12.7229 
 459   0.0000       0.470001        12.7894 
 460   0.0000       0.472194        12.8491 
 461   0.0000       0.474383        12.9086 
 462   0.0000       0.478899        13.0315 
 463   0.0000       0.479090        13.0367 
 464   0.0000       0.480833        13.0841 
 465   0.0000       0.484057        13.1719 
 466   0.0000       0.486693        13.2436 
 467   0.0000       0.488208        13.2848 
 468   0.0000       0.490434        13.3454 
 469   0.0000       0.493562        13.4305 
 470   0.0000       0.497313        13.5326 
 471   0.0000       0.498276        13.5588 
 472   0.0000       0.499101        13.5812 
 473   0.0000       0.500683        13.6243 
 474   0.0000       0.504345        13.7239 
 475   0.0000       0.505231        13.7480 
 476   0.0000       0.507979        13.8228 
 477   0.0000       0.512621        13.9491 
 478   0.0000       0.515270        14.0212 
 479   0.0000       0.517356        14.0780 
 480   0.0000       0.519556        14.1378 
 481   0.0000       0.525363        14.2959 
 482   0.0000       0.526027        14.3139 
 483   0.0000       0.530882        14.4460 
 484   0.0000       0.534946        14.5566 
 485   0.0000       0.536413        14.5965 
 486   0.0000       0.536686        14.6040 
 487   0.0000       0.543679        14.7943 
 488   0.0000       0.545016        14.8306 
 489   0.0000       0.548391        14.9225 
 490   0.0000       0.549586        14.9550 
 491   0.0000       0.551886        15.0176 
 492   0.0000       0.553525        15.0622 
 493   0.0000       0.555572        15.1179 
 494   0.0000       0.557266        15.1640 
 495   0.0000       0.559149        15.2152 
 496   0.0000       0.560254        15.2453 
 497   0.0000       0.560749        15.2588 
 498   0.0000       0.566634        15.4189 
 499   0.0000       0.567033        15.4298 
 500   0.0000       0.570258        15.5175 
 501   0.0000       0.572088        15.5673 
 502   0.0000       0.577287        15.7088 
 503   0.0000       0.579102        15.7582 
 504   0.0000       0.581574        15.8254 
 505   0.0000       0.584659        15.9094 
 506   0.0000       0.585833        15.9413 
 507   0.0000       0.588373        16.0104 
 508   0.0000       0.591339        16.0911 
 509   0.0000       0.593618        16.1532 
 510   0.0000       0.597009        16.2454 
 511   0.0000       0.599432        16.3114 
 512   0.0000       0.603258        16.4155 
 513   0.0000       0.604447        16.4478 
 514   0.0000       0.606475        16.5030 
 515   0.0000       0.608303        16.5528 
 516   0.0000       0.611422        16.6376 
 517   0.0000       0.612522        16.6676 
 518   0.0000       0.616117        16.7654 
 519   0.0000       0.617673        16.8077 
 520   0.0000       0.619732        16.8638 
 521   0.0000       0.621222        16.9043 
 522   0.0000       0.623015        16.9531 
 523   0.0000       0.623960        16.9788 
 524   0.0000       0.625539        17.0218 
 525   0.0000       0.627977        17.0881 
 526   0.0000       0.629200        17.1214 
 527   0.0000       0.633249        17.2316 
 528   0.0000       0.635935        17.3047 
 529   0.0000       0.638824        17.3833 
 530   0.0000       0.640826        17.4378 
 531   0.0000       0.642763        17.4905 
 532   0.0000       0.644071        17.5261 
 533   0.0000       0.644983        17.5509 
 534   0.0000       0.646710        17.5979 
 535   0.0000       0.650292        17.6954 
 536   0.0000       0.651010        17.7149 
 537   0.0000       0.653776        17.7901 
 538   0.0000       0.655114        17.8265 
 539   0.0000       0.655605        17.8399 
 540   0.0000       0.657127        17.8813 
 541   0.0000       0.658508        17.9189 
 542   0.0000       0.660924        17.9846 
 543   0.0000       0.664760        18.0890 
 544   0.0000       0.666745        18.1431 
 545   0.0000       0.667576        18.1657 
 546   0.0000       0.671313        18.2674 
 547   0.0000       0.672692        18.3049 
 548   0.0000       0.673320        18.3220 
 549   0.0000       0.676516        18.4089 
 550   0.0000       0.677662        18.4401 
 551   0.0000       0.678309        18.4577 
 552   0.0000       0.682651        18.5759 
 553   0.0000       0.683861        18.6088 
 554   0.0000       0.688953        18.7474 
 555   0.0000       0.691381        18.8134 
 556   0.0000       0.693979        18.8841 
 557   0.0000       0.695754        18.9324 
 558   0.0000       0.699354        19.0304 
 559   0.0000       0.699675        19.0391 
 560   0.0000       0.702655        19.1202 
 561   0.0000       0.704908        19.1815 
 562   0.0000       0.708147        19.2696 
 563   0.0000       0.709184        19.2979 
 564   0.0000       0.709792        19.3144 
 565   0.0000       0.712037        19.3755 
 566   0.0000       0.716089        19.4858 
 567   0.0000       0.716836        19.5061 
 568   0.0000       0.718909        19.5625 
 569   0.0000       0.722373        19.6568 
 570   0.0000       0.725143        19.7321 
 571   0.0000       0.726109        19.7584 
 572   0.0000       0.730025        19.8650 
 573   0.0000       0.731008        19.8917 
 574   0.0000       0.734856        19.9964 
 575   0.0000       0.740857        20.1597 
 576   0.0000       0.743419        20.2295 
 577   0.0000       0.745627        20.2895 
 578   0.0000       0.747025        20.3276 
 579   0.0000       0.749353        20.3909 
 580   0.0000       0.751350        20.4453 
 581   0.0000       0.754265        20.5246 
 582   0.0000       0.757637        20.6163 
 583   0.0000       0.761118        20.7111 
 584   0.0000       0.762267        20.7423 
 585   0.0000       0.765147        20.8207 
 586   0.0000       0.769040        20.9266 
 587   0.0000       0.769440        20.9375 
 588   0.0000       0.770806        20.9747 
 589   0.0000       0.771213        20.9858 
 590   0.0000       0.773171        21.0391 
 591   0.0000       0.778277        21.1780 
 592   0.0000       0.780184        21.2299 
 593   0.0000       0.782812        21.3014 
 594   0.0000       0.783256        21.3135 
 595   0.0000       0.788045        21.4438 
 596   0.0000       0.789490        21.4831 
 597   0.0000       0.791590        21.5403 
 598   0.0000       0.796118        21.6635 
 599   0.0000       0.796928        21.6855 
 600   0.0000       0.802334        21.8326 
 601   0.0000       0.803174        21.8555 
 602   0.0000       0.805793        21.9267 
 603   0.0000       0.807142        21.9635 
 604   0.0000       0.810121        22.0445 
 605   0.0000       0.816328        22.2134 
 606   0.0000       0.816951        22.2304 
 607   0.0000       0.820819        22.3356 
 608   0.0000       0.821418        22.3519 
 609   0.0000       0.824720        22.4418 
 610   0.0000       0.828761        22.5517 
 611   0.0000       0.830742        22.6056 
 612   0.0000       0.833295        22.6751 
 613   0.0000       0.835692        22.7403 
 614   0.0000       0.837347        22.7854 
 615   0.0000       0.838856        22.8264 
 616   0.0000       0.843056        22.9407 
 617   0.0000       0.844316        22.9750 
 618   0.0000       0.849714        23.1219 
 619   0.0000       0.852301        23.1923 
 620   0.0000       0.854597        23.2548 
 621   0.0000       0.854906        23.2632 
 622   0.0000       0.858030        23.3482 
 623   0.0000       0.859459        23.3871 
 624   0.0000       0.863366        23.4934 
 625   0.0000       0.864948        23.5364 
 626   0.0000       0.867075        23.5943 
 627   0.0000       0.869255        23.6536 
 628   0.0000       0.875175        23.8147 
 629   0.0000       0.877371        23.8745 
 630   0.0000       0.879521        23.9330 
 631   0.0000       0.887126        24.1399 
 632   0.0000       0.891225        24.2515 
 633   0.0000       0.892404        24.2835 
 634   0.0000       0.894797        24.3487 
 635   0.0000       0.895811        24.3763 
 636   0.0000       0.901258        24.5245 
 637   0.0000       0.903029        24.5727 
 638   0.0000       0.909488        24.7484 
 639   0.0000       0.913808        24.8660 
 640   0.0000       0.921071        25.0636 
 641   0.0000       0.923976        25.1427 
 642   0.0000       0.928580        25.2680 
 643   0.0000       0.931871        25.3575 
 644   0.0000       0.934866        25.4390 
 645   0.0000       0.935832        25.4653 
 646   0.0000       0.940211        25.5844 
 647   0.0000       0.941889        25.6301 
 648   0.0000       0.943472        25.6732 
 649   0.0000       0.946148        25.7460 
 650   0.0000       0.952654        25.9230 
 651   0.0000       0.953725        25.9522 
 652   0.0000       0.956926        26.0393 
 653   0.0000       0.962707        26.1966 
 654   0.0000       0.967491        26.3268 
 655   0.0000       0.970696        26.4140 
 656   0.0000       0.973380        26.4870 
 657   0.0000       0.976796        26.5800 
 658   0.0000       0.977746        26.6058 
 659   0.0000       0.980670        26.6854 
 660   0.0000       0.984020        26.7765 
 661   0.0000       0.992323        27.0025 
 662   0.0000       0.994338        27.0573 
 663   0.0000       0.996400        27.1134 
 664   0.0000       0.998207        27.1626 
 665   0.0000       1.003854        27.3162 
 666   0.0000       1.004898        27.3447 
 667   0.0000       1.006388        27.3852 
 668   0.0000       1.008946        27.4548 
 669   0.0000       1.014103        27.5951 
 670   0.0000       1.016091        27.6492 
 671   0.0000       1.028486        27.9865 
 672   0.0000       1.031630        28.0721 
 673   0.0000       1.033515        28.1234 
 674   0.0000       1.037328        28.2271 
 675   0.0000       1.039178        28.2775 
 676   0.0000       1.041549        28.3420 
 677   0.0000       1.044287        28.4165 
 678   0.0000       1.046236        28.4695 
 679   0.0000       1.050824        28.5944 
 680   0.0000       1.052089        28.6288 
 681   0.0000       1.056505        28.7490 
 682   0.0000       1.058360        28.7994 
 683   0.0000       1.061913        28.8961 
 684   0.0000       1.066900        29.0318 
 685   0.0000       1.067267        29.0418 
 686   0.0000       1.075758        29.2729 
 687   0.0000       1.081855        29.4388 
 688   0.0000       1.086646        29.5692 
 689   0.0000       1.089869        29.6568 
 690   0.0000       1.093238        29.7485 
 691   0.0000       1.095322        29.8052 
 692   0.0000       1.096342        29.8330 
 693   0.0000       1.099628        29.9224 
 694   0.0000       1.100365        29.9425 
 695   0.0000       1.104432        30.0531 
 696   0.0000       1.108239        30.1567 
 697   0.0000       1.111977        30.2584 
 698   0.0000       1.115036        30.3417 
 699   0.0000       1.117607        30.4116 
 700   0.0000       1.120904        30.5014 
 701   0.0000       1.126911        30.6648 
 702   0.0000       1.128163        30.6989 
 703   0.0000       1.129989        30.7486 
 704   0.0000       1.135011        30.8852 
 705   0.0000       1.140279        31.0286 
 706   0.0000       1.144646        31.1474 
 707   0.0000       1.145657        31.1749 
 708   0.0000       1.149630        31.2830 
 709   0.0000       1.149704        31.2850 
 710   0.0000       1.154747        31.4223 
 711   0.0000       1.156837        31.4791 
 712   0.0000       1.159908        31.5627 
 713   0.0000       1.165273        31.7087 
 714   0.0000       1.171176        31.8693 
 715   0.0000       1.176175        32.0054 
 716   0.0000       1.179476        32.0952 
 717   0.0000       1.182011        32.1641 
 718   0.0000       1.183677        32.2095 
 719   0.0000       1.188483        32.3403 
 720   0.0000       1.190510        32.3954 
 721   0.0000       1.200593        32.6698 
 722   0.0000       1.202390        32.7187 
 723   0.0000       1.204391        32.7731 
 724   0.0000       1.205844        32.8127 
 725   0.0000       1.209092        32.9011 
 726   0.0000       1.211430        32.9647 
 727   0.0000       1.217010        33.1165 
 728   0.0000       1.220167        33.2024 
 729   0.0000       1.224912        33.3316 
 730   0.0000       1.225297        33.3420 
 731   0.0000       1.228243        33.4222 
 732   0.0000       1.231694        33.5161 
 733   0.0000       1.232456        33.5368 
 734   0.0000       1.233387        33.5622 
 735   0.0000       1.235726        33.6258 
 736   0.0000       1.237560        33.6757 
 737   0.0000       1.238499        33.7013 
 738   0.0000       1.239622        33.7318 
 739   0.0000       1.242616        33.8133 
 740   0.0000       1.246832        33.9280 
 741   0.0000       1.248609        33.9764 
 742   0.0000       1.254364        34.1330 
 743   0.0000       1.255214        34.1561 
 744   0.0000       1.263452        34.3803 
 745   0.0000       1.267637        34.4942 
 746   0.0000       1.268920        34.5291 
 747   0.0000       1.271564        34.6010 
 748   0.0000       1.275383        34.7049 
 749   0.0000       1.278914        34.8010 
 750   0.0000       1.282625        34.9020 
 751   0.0000       1.286136        34.9975 
 752   0.0000       1.289820        35.0978 
 753   0.0000       1.291480        35.1429 
 754   0.0000       1.296191        35.2711 
 755   0.0000       1.298220        35.3264 
 756   0.0000       1.303210        35.4622 
 757   0.0000       1.306308        35.5465 
 758   0.0000       1.310223        35.6530 
 759   0.0000       1.310881        35.6709 
 760   0.0000       1.313480        35.7416 
 761   0.0000       1.314196        35.7611 
 762   0.0000       1.318304        35.8729 
 763   0.0000       1.320861        35.9425 
 764   0.0000       1.322310        35.9819 
 765   0.0000       1.327324        36.1183 
 766   0.0000       1.333930        36.2981 
 767   0.0000       1.334335        36.3091 
 768   0.0000       1.336435        36.3662 
 769   0.0000       1.337601        36.3980 
 770   0.0000       1.347966        36.6800 
 771   0.0000       1.348873        36.7047 
 772   0.0000       1.351823        36.7850 
 773   0.0000       1.353227        36.8232 
 774   0.0000       1.363124        37.0925 
 775   0.0000       1.369114        37.2555 
 776   0.0000       1.371948        37.3326 
 777   0.0000       1.373253        37.3681 
 778   0.0000       1.376283        37.4506 
 779   0.0000       1.378067        37.4991 
 780   0.0000       1.378538        37.5119 
 781   0.0000       1.383454        37.6457 
 782   0.0000       1.388490        37.7827 
 783   0.0000       1.389975        37.8232 
 784   0.0000       1.391527        37.8654 
 785   0.0000       1.396611        38.0037 
 786   0.0000       1.397781        38.0356 
 787   0.0000       1.401844        38.1461 
 788   0.0000       1.408011        38.3139 
 789   0.0000       1.410337        38.3772 
 790   0.0000       1.410983        38.3948 
 791   0.0000       1.413954        38.4756 
 792   0.0000       1.414624        38.4939 
 793   0.0000       1.419764        38.6338 
 794   0.0000       1.421023        38.6680 
 795   0.0000       1.423734        38.7418 
 796   0.0000       1.424499        38.7626 
 797   0.0000       1.434335        39.0302 
 798   0.0000       1.436259        39.0826 
 799   0.0000       1.443751        39.2865 
 800   0.0000       1.445866        39.3440 
 801   0.0000       1.446503        39.3614 
 802   0.0000       1.447921        39.3999 
 803   0.0000       1.451616        39.5005 
 804   0.0000       1.455137        39.5963 
 805   0.0000       1.457274        39.6544 
 806   0.0000       1.459932        39.7268 
 807   0.0000       1.460573        39.7442 
 808   0.0000       1.461560        39.7711 
 809   0.0000       1.463816        39.8325 
 810   0.0000       1.464783        39.8588 
 811   0.0000       1.467369        39.9291 
 812   0.0000       1.471946        40.0537 
 813   0.0000       1.474936        40.1350 
 814   0.0000       1.477972        40.2177 
 815   0.0000       1.479162        40.2501 
 816   0.0000       1.481610        40.3167 
 817   0.0000       1.486688        40.4548 
 818   0.0000       1.487866        40.4869 
 819   0.0000       1.488088        40.4929 
 820   0.0000       1.489901        40.5423 
 821   0.0000       1.492169        40.6040 
 822   0.0000       1.495833        40.7037 
 823   0.0000       1.498959        40.7888 
 824   0.0000       1.500076        40.8191 
 825   0.0000       1.501444        40.8564 
 826   0.0000       1.501990        40.8712 
 827   0.0000       1.505732        40.9731 
 828   0.0000       1.509545        41.0768 
 829   0.0000       1.513003        41.1709 
 830   0.0000       1.515286        41.2330 
 831   0.0000       1.517067        41.2815 
 832   0.0000       1.518631        41.3240 
 833   0.0000       1.522525        41.4300 
 834   0.0000       1.528707        41.5982 
 835   0.0000       1.529570        41.6217 
 836   0.0000       1.530664        41.6515 
 837   0.0000       1.535067        41.7713 
 838   0.0000       1.538828        41.8736 
 839   0.0000       1.540553        41.9206 
 840   0.0000       1.549402        42.1614 
 841   0.0000       1.550804        42.1995 
 842   0.0000       1.553429        42.2710 
 843   0.0000       1.553988        42.2862 
 844   0.0000       1.555997        42.3408 
 845   0.0000       1.557315        42.3767 
 846   0.0000       1.558921        42.4204 
 847   0.0000       1.561634        42.4942 
 848   0.0000       1.565470        42.5986 
 849   0.0000       1.569167        42.6992 
 850   0.0000       1.570486        42.7351 
 851   0.0000       1.572395        42.7870 
 852   0.0000       1.574389        42.8413 
 853   0.0000       1.576065        42.8869 
 854   0.0000       1.577796        42.9340 
 855   0.0000       1.579861        42.9902 
 856   0.0000       1.582144        43.0523 
 857   0.0000       1.584289        43.1107 
 858   0.0000       1.590807        43.2881 
 859   0.0000       1.591381        43.3037 
 860   0.0000       1.593657        43.3656 
 861   0.0000       1.595147        43.4062 
 862   0.0000       1.597892        43.4809 
 863   0.0000       1.601208        43.5711 
 864   0.0000       1.604670        43.6653 
 865   0.0000       1.606581        43.7173 
 866   0.0000       1.608576        43.7716 
 867   0.0000       1.610574        43.8259 
 868   0.0000       1.611964        43.8638 
 869   0.0000       1.615921        43.9714 
 870   0.0000       1.616040        43.9747 
 871   0.0000       1.617115        44.0039 
 872   0.0000       1.617460        44.0133 
 873   0.0000       1.619368        44.0652 
 874   0.0000       1.624737        44.2113 
 875   0.0000       1.625554        44.2336 
 876   0.0000       1.630445        44.3667 
 877   0.0000       1.632813        44.4311 
 878   0.0000       1.634041        44.4645 
 879   0.0000       1.634922        44.4885 
 880   0.0000       1.637678        44.5635 
 881   0.0000       1.638387        44.5828 
 882   0.0000       1.640794        44.6483 
 883   0.0000       1.644898        44.7599 
 884   0.0000       1.649254        44.8785 
 885   0.0000       1.652315        44.9618 
 886   0.0000       1.656768        45.0830 
 887   0.0000       1.657454        45.1016 
 888   0.0000       1.664195        45.2850 
 889   0.0000       1.667226        45.3675 
 890   0.0000       1.668408        45.3997 
 891   0.0000       1.670684        45.4616 
 892   0.0000       1.672882        45.5214 
 893   0.0000       1.675805        45.6010 
 894   0.0000       1.680756        45.7357 
 895   0.0000       1.681515        45.7564 
 896   0.0000       1.685064        45.8529 
 897   0.0000       1.685166        45.8557 
 898   0.0000       1.687006        45.9058 
 899   0.0000       1.691542        46.0292 
 900   0.0000       1.694480        46.1092 
 901   0.0000       1.698874        46.2287 
 902   0.0000       1.700594        46.2755 
 903   0.0000       1.703829        46.3636 
 904   0.0000       1.704654        46.3860 
 905   0.0000       1.706259        46.4297 
 906   0.0000       1.707431        46.4616 
 907   0.0000       1.708700        46.4961 
 908   0.0000       1.710845        46.5545 
 909   0.0000       1.711848        46.5818 
 910   0.0000       1.719673        46.7947 
 911   0.0000       1.720512        46.8175 
 912   0.0000       1.724804        46.9343 
 913   0.0000       1.727605        47.0105 
 914   0.0000       1.731292        47.1109 
 915   0.0000       1.733604        47.1738 
 916   0.0000       1.736087        47.2413 
 917   0.0000       1.737943        47.2918 
 918   0.0000       1.742513        47.4162 
 919   0.0000       1.753614        47.7183 
 920   0.0000       1.757301        47.8186 
 921   0.0000       1.759636        47.8821 
 922   0.0000       1.761243        47.9259 
 923   0.0000       1.762397        47.9573 
 924   0.0000       1.772496        48.2321 
 925   0.0000       1.775016        48.3007 
 926   0.0000       1.779109        48.4120 
 927   0.0000       1.781587        48.4795 
 928   0.0000       1.783040        48.5190 
 929   0.0000       1.785035        48.5733 
 930   0.0000       1.790405        48.7194 
 931   0.0000       1.792969        48.7892 
 932   0.0000       1.799568        48.9687 
 933   0.0000       1.800287        48.9883 
 934   0.0000       1.801533        49.0222 
 935   0.0000       1.808085        49.2005 
 936   0.0000       1.812506        49.3208 
 937   0.0000       1.816576        49.4315 
 938   0.0000       1.819103        49.5003 
 939   0.0000       1.822926        49.6043 
 940   0.0000       1.824319        49.6422 
 941   0.0000       1.826567        49.7034 
 942   0.0000       1.829441        49.7816 
 943   0.0000       1.839864        50.0652 
 944   0.0000       1.844403        50.1887 
 945   0.0000       1.846033        50.2331 
 946   0.0000       1.848805        50.3086 
 947   0.0000       1.849697        50.3328 
 948   0.0000       1.854031        50.4508 
 949   0.0000       1.856886        50.5284 
 950   0.0000       1.857985        50.5583 
 951   0.0000       1.864964        50.7482 
 952   0.0000       1.869763        50.8788 
 953   0.0000       1.871556        50.9276 
 954   0.0000       1.875185        51.0264 
 955   0.0000       1.878527        51.1173 
 956   0.0000       1.878866        51.1265 
 957   0.0000       1.881639        51.2020 
 958   0.0000       1.886725        51.3404 
 959   0.0000       1.888561        51.3904 
 960   0.0000       1.895023        51.5662 
 961   0.0000       1.897251        51.6268 
 962   0.0000       1.900721        51.7213 
 963   0.0000       1.901919        51.7538 
 964   0.0000       1.903770        51.8042 
 965   0.0000       1.907288        51.9000 
 966   0.0000       1.914442        52.0946 
 967   0.0000       1.921227        52.2793 
 968   0.0000       1.923479        52.3405 
 969   0.0000       1.927433        52.4481 
 970   0.0000       1.929066        52.4925 
 971   0.0000       1.929952        52.5167 
 972   0.0000       1.936309        52.6896 
 973   0.0000       1.936417        52.6926 
 974   0.0000       1.936813        52.7034 
 975   0.0000       1.947767        53.0014 
 976   0.0000       1.949050        53.0363 
 977   0.0000       1.950800        53.0840 
 978   0.0000       1.951200        53.0948 
 979   0.0000       1.963017        53.4164 
 980   0.0000       1.972857        53.6842 
 981   0.0000       1.975720        53.7621 
 982   0.0000       1.980409        53.8897 
 983   0.0000       1.983190        53.9653 
 984   0.0000       1.983708        53.9794 
 985   0.0000       1.991256        54.1848 
 986   0.0000       1.999400        54.4064 
 987   0.0000       2.001778        54.4711 
 988   0.0000       2.004722        54.5512 
 989   0.0000       2.008081        54.6427 
 990   0.0000       2.009391        54.6783 
 991   0.0000       2.016148        54.8622 
 992   0.0000       2.018638        54.9299 
 993   0.0000       2.020667        54.9852 
 994   0.0000       2.021703        55.0133 
 995   0.0000       2.027132        55.1611 
 996   0.0000       2.032919        55.3185 
 997   0.0000       2.036196        55.4077 
 998   0.0000       2.036647        55.4200 
 999   0.0000       2.039422        55.4955 
 1000   0.0000       2.043162        55.5973 
 1001   0.0000       2.047120        55.7050 
 1002   0.0000       2.051661        55.8285 
 1003   0.0000       2.058610        56.0176 
 1004   0.0000       2.059417        56.0396 
 1005   0.0000       2.062546        56.1247 
 1006   0.0000       2.064689        56.1830 
 1007   0.0000       2.067139        56.2497 
 1008   0.0000       2.068130        56.2767 
 1009   0.0000       2.072129        56.3855 
 1010   0.0000       2.077398        56.5289 
 1011   0.0000       2.083314        56.6899 
 1012   0.0000       2.085879        56.7597 
 1013   0.0000       2.087417        56.8015 
 1014   0.0000       2.090366        56.8818 
 1015   0.0000       2.094866        57.0042 
 1016   0.0000       2.095158        57.0121 
 1017   0.0000       2.100422        57.1554 
 1018   0.0000       2.106328        57.3161 
 1019   0.0000       2.111622        57.4602 
 1020   0.0000       2.114204        57.5304 
 1021   0.0000       2.114801        57.5467 
 1022   0.0000       2.122064        57.7443 
 1023   0.0000       2.125019        57.8247 
 1024   0.0000       2.127130        57.8822 
 1025   0.0000       2.130508        57.9741 
 1026   0.0000       2.133228        58.0481 
 1027   0.0000       2.135632        58.1135 
 1028   0.0000       2.138835        58.2007 
 1029   0.0000       2.145551        58.3834 
 1030   0.0000       2.149304        58.4855 
 1031   0.0000       2.152060        58.5605 
 1032   0.0000       2.153873        58.6099 
 1033   0.0000       2.157395        58.7057 
 1034   0.0000       2.159411        58.7606 
 1035   0.0000       2.160275        58.7841 
 1036   0.0000       2.162975        58.8576 
 1037   0.0000       2.166377        58.9501 
 1038   0.0000       2.168424        59.0058 
 1039   0.0000       2.172052        59.1045 
 1040   0.0000       2.177078        59.2413 
 1041   0.0000       2.184754        59.4502 
 1042   0.0000       2.185269        59.4642 
 1043   0.0000       2.189559        59.5809 
 1044   0.0000       2.194770        59.7227 
 1045   0.0000       2.199822        59.8602 
 1046   0.0000       2.203527        59.9610 
 1047   0.0000       2.206711        60.0477 
 1048   0.0000       2.208642        60.1002 
 1049   0.0000       2.212683        60.2102 
 1050   0.0000       2.216584        60.3163 
 1051   0.0000       2.219789        60.4035 
 1052   0.0000       2.224876        60.5420 
 1053   0.0000       2.230653        60.6992 
 1054   0.0000       2.231609        60.7252 
 1055   0.0000       2.234979        60.8169 
 1056   0.0000       2.238689        60.9178 
 1057   0.0000       2.239616        60.9430 
 1058   0.0000       2.244586        61.0783 
 1059   0.0000       2.250769        61.2465 
 1060   0.0000       2.256793        61.4105 
 1061   0.0000       2.259988        61.4974 
 1062   0.0000       2.262451        61.5644 
 1063   0.0000       2.266017        61.6615 
 1064   0.0000       2.270786        61.7912 
 1065   0.0000       2.277568        61.9758 
 1066   0.0000       2.280803        62.0638 
 1067   0.0000       2.282052        62.0978 
 1068   0.0000       2.286499        62.2188 
 1069   0.0000       2.292143        62.3724 
 1070   0.0000       2.301451        62.6257 
 1071   0.0000       2.308876        62.8277 
 1072   0.0000       2.320239        63.1369 
 1073   0.0000       2.325556        63.2816 
 1074   0.0000       2.336201        63.5713 
 1075   0.0000       2.340319        63.6833 
 1076   0.0000       2.343631        63.7734 
 1077   0.0000       2.345388        63.8213 
 1078   0.0000       2.351475        63.9869 
 1079   0.0000       2.352842        64.0241 
 1080   0.0000       2.360137        64.2226 
 1081   0.0000       2.362014        64.2737 
 1082   0.0000       2.375470        64.6398 
 1083   0.0000       2.376625        64.6713 
 1084   0.0000       2.381794        64.8119 
 1085   0.0000       2.383610        64.8613 
 1086   0.0000       2.384232        64.8783 
 1087   0.0000       2.387201        64.9590 
 1088   0.0000       2.393143        65.1207 
 1089   0.0000       2.393944        65.1425 
 1090   0.0000       2.399007        65.2803 
 1091   0.0000       2.406257        65.4776 
 1092   0.0000       2.408085        65.5273 
 1093   0.0000       2.408167        65.5296 
 1094   0.0000       2.412613        65.6505 
 1095   0.0000       2.413626        65.6781 
 1096   0.0000       2.421717        65.8983 
 1097   0.0000       2.434602        66.2489 
 1098   0.0000       2.437433        66.3259 
 1099   0.0000       2.442678        66.4686 
 1100   0.0000       2.446904        66.5836 
 1101   0.0000       2.454956        66.8027 
 1102   0.0000       2.462471        67.0072 
 1103   0.0000       2.462650        67.0121 
 1104   0.0000       2.467875        67.1543 
 1105   0.0000       2.482373        67.5488 
 1106   0.0000       2.484011        67.5934 
 1107   0.0000       2.488123        67.7053 
 1108   0.0000       2.490274        67.7638 
 1109   0.0000       2.495566        67.9078 
 1110   0.0000       2.495883        67.9164 
 1111   0.0000       2.498269        67.9813 
 1112   0.0000       2.501793        68.0772 
 1113   0.0000       2.503190        68.1153 
 1114   0.0000       2.508808        68.2681 
 1115   0.0000       2.511405        68.3388 
 1116   0.0000       2.513802        68.4040 
 1117   0.0000       2.519691        68.5643 
 1118   0.0000       2.524925        68.7067 
 1119   0.0000       2.531479        68.8850 
 1120   0.0000       2.535919        69.0059 
 1121   0.0000       2.540660        69.1349 
 1122   0.0000       2.543688        69.2173 
 1123   0.0000       2.546293        69.2882 
 1124   0.0000       2.549349        69.3713 
 1125   0.0000       2.553778        69.4918 
 1126   0.0000       2.559353        69.6435 
 1127   0.0000       2.565994        69.8242 
 1128   0.0000       2.568228        69.8850 
 1129   0.0000       2.573410        70.0260 
 1130   0.0000       2.578038        70.1520 
 1131   0.0000       2.580478        70.2184 
 1132   0.0000       2.585935        70.3669 
 1133   0.0000       2.586619        70.3855 
 1134   0.0000       2.588721        70.4427 
 1135   0.0000       2.593045        70.5603 
 1136   0.0000       2.597297        70.6761 
 1137   0.0000       2.599003        70.7225 
 1138   0.0000       2.601095        70.7794 
 1139   0.0000       2.601690        70.7956 
 1140   0.0000       2.602035        70.8050 
 1141   0.0000       2.607059        70.9417 
 1142   0.0000       2.607608        70.9566 
 1143   0.0000       2.614418        71.1419 
 1144   0.0000       2.616001        71.1850 
 1145   0.0000       2.617885        71.2363 
 1146   0.0000       2.619559        71.2818 
 1147   0.0000       2.619713        71.2860 
 1148   0.0000       2.627123        71.4877 
 1149   0.0000       2.629628        71.5558 
 1150   0.0000       2.633796        71.6692 
 1151   0.0000       2.636604        71.7456 
 1152   0.0000       2.637919        71.7814 
 1153   0.0000       2.640544        71.8529 
 1154   0.0000       2.643580        71.9355 
 1155   0.0000       2.649692        72.1018 
 1156   0.0000       2.652926        72.1898 
 1157   0.0000       2.654256        72.2260 
 1158   0.0000       2.656650        72.2911 
 1159   0.0000       2.658671        72.3461 
 1160   0.0000       2.663051        72.4653 
 1161   0.0000       2.665171        72.5230 
 1162   0.0000       2.667303        72.5810 
 1163   0.0000       2.668983        72.6267 
 1164   0.0000       2.670485        72.6676 
 1165   0.0000       2.672736        72.7289 
 1166   0.0000       2.674274        72.7707 
 1167   0.0000       2.676052        72.8191 
 1168   0.0000       2.679781        72.9205 
 1169   0.0000       2.680850        72.9496 
 1170   0.0000       2.682885        73.0050 
 1171   0.0000       2.684055        73.0369 
 1172   0.0000       2.686775        73.1109 
 1173   0.0000       2.689586        73.1874 
 1174   0.0000       2.692472        73.2659 
 1175   0.0000       2.697770        73.4101 
 1176   0.0000       2.700030        73.4716 
 1177   0.0000       2.701124        73.5013 
 1178   0.0000       2.701933        73.5233 
 1179   0.0000       2.703058        73.5540 
 1180   0.0000       2.706284        73.6417 
 1181   0.0000       2.708332        73.6974 
 1182   0.0000       2.711424        73.7816 
 1183   0.0000       2.712469        73.8100 
 1184   0.0000       2.713694        73.8434 
 1185   0.0000       2.715428        73.8905 
 1186   0.0000       2.718022        73.9611 
 1187   0.0000       2.720456        74.0274 
 1188   0.0000       2.722487        74.0826 
 1189   0.0000       2.723690        74.1154 
 1190   0.0000       2.727680        74.2240 
 1191   0.0000       2.730025        74.2878 
 1192   0.0000       2.742408        74.6247 
 1193   0.0000       2.746753        74.7430 
 1194   0.0000       2.747646        74.7672 
 1195   0.0000       2.748555        74.7920 
 1196   0.0000       2.749798        74.8258 
 1197   0.0000       2.751375        74.8687 
 1198   0.0000       2.753782        74.9342 
 1199   0.0000       2.758379        75.0593 
 1200   0.0000       2.762730        75.1777 
 1201   0.0000       2.764298        75.2204 
 1202   0.0000       2.764813        75.2344 
 1203   0.0000       2.767220        75.2999 
 1204   0.0000       2.771031        75.4036 
 1205   0.0000       2.772745        75.4502 
 1206   0.0000       2.776425        75.5504 
 1207   0.0000       2.777723        75.5857 
 1208   0.0000       2.780780        75.6689 
 1209   0.0000       2.784234        75.7629 
 1210   0.0000       2.786086        75.8133 
 1211   0.0000       2.787939        75.8637 
 1212   0.0000       2.790989        75.9467 
 1213   0.0000       2.792416        75.9855 
 1214   0.0000       2.797498        76.1238 
 1215   0.0000       2.798907        76.1621 
 1216   0.0000       2.802650        76.2640 
 1217   0.0000       2.804423        76.3122 
 1218   0.0000       2.809082        76.4390 
 1219   0.0000       2.812280        76.5260 
 1220   0.0000       2.813999        76.5728 
 1221   0.0000       2.816033        76.6282 
 1222   0.0000       2.816753        76.6477 
 1223   0.0000       2.818662        76.6997 
 1224   0.0000       2.822781        76.8118 
 1225   0.0000       2.828982        76.9805 
 1226   0.0000       2.835745        77.1646 
 1227   0.0000       2.837975        77.2252 
 1228   0.0000       2.842759        77.3554 
 1229   0.0000       2.843631        77.3791 
 1230   0.0000       2.845541        77.4311 
 1231   0.0000       2.848482        77.5111 
 1232   0.0000       2.851438        77.5916 
 1233   0.0000       2.852322        77.6156 
 1234   0.0000       2.856516        77.7298 
 1235   0.0000       2.859189        77.8025 
 1236   0.0000       2.860403        77.8355 
 1237   0.0000       2.861613        77.8685 
 1238   0.0000       2.863356        77.9159 
 1239   0.0000       2.863847        77.9292 
 1240   0.0000       2.867046        78.0163 
 1241   0.0000       2.870403        78.1076 
 1242   0.0000       2.872861        78.1745 
 1243   0.0000       2.874963        78.2317 
 1244   0.0000       2.877483        78.3003 
 1245   0.0000       2.881122        78.3993 
 1246   0.0000       2.886165        78.5366 
 1247   0.0000       2.887283        78.5670 
 1248   0.0000       2.889603        78.6301 
 1249   0.0000       2.892406        78.7064 
 1250   0.0000       2.895707        78.7962 
 1251   0.0000       2.897460        78.8439 
 1252   0.0000       2.900372        78.9231 
 1253   0.0000       2.903545        79.0095 
 1254   0.0000       2.907260        79.1106 
 1255   0.0000       2.908820        79.1530 
 1256   0.0000       2.909504        79.1716 
 1257   0.0000       2.914112        79.2970 
 1258   0.0000       2.920027        79.4580 
 1259   0.0000       2.922791        79.5332 
 1260   0.0000       2.924651        79.5838 
 1261   0.0000       2.925478        79.6063 
 1262   0.0000       2.928574        79.6906 
 1263   0.0000       2.931341        79.7658 
 1264   0.0000       2.933481        79.8241 
 1265   0.0000       2.935830        79.8880 
 1266   0.0000       2.938006        79.9472 
 1267   0.0000       2.941586        80.0446 
 1268   0.0000       2.944780        80.1315 
 1269   0.0000       2.948804        80.2410 
 1270   0.0000       2.951745        80.3211 
 1271   0.0000       2.953860        80.3786 
 1272   0.0000       2.960462        80.5583 
 1273   0.0000       2.961915        80.5978 
 1274   0.0000       2.966513        80.7229 
 1275   0.0000       2.968881        80.7874 
 1276   0.0000       2.971360        80.8548 
 1277   0.0000       2.972040        80.8733 
 1278   0.0000       2.973913        80.9243 
 1279   0.0000       2.981697        81.1361 
 1280   0.0000       2.984349        81.2083 
 1281   0.0000       2.985239        81.2325 
 1282   0.0000       2.992039        81.4175 
 1283   0.0000       2.994589        81.4869 
 1284   0.0000       2.996495        81.5388 
 1285   0.0000       3.005834        81.7929 
 1286   0.0000       3.011954        81.9594 
 1287   0.0000       3.012558        81.9759 
 1288   0.0000       3.014548        82.0300 
 1289   0.0000       3.017578        82.1125 
 1290   0.0000       3.018192        82.1292 
 1291   0.0000       3.021109        82.2086 
 1292   0.0000       3.022294        82.2408 
 1293   0.0000       3.030574        82.4661 
 1294   0.0000       3.032621        82.5218 
 1295   0.0000       3.036111        82.6168 
 1296   0.0000       3.038257        82.6752 
 1297   0.0000       3.040636        82.7399 
 1298   0.0000       3.041069        82.7517 
 1299   0.0000       3.046730        82.9057 
 1300   0.0000       3.049045        82.9687 
 1301   0.0000       3.051308        83.0303 
 1302   0.0000       3.054570        83.1191 
 1303   0.0000       3.057266        83.1924 
 1304   0.0000       3.064819        83.3980 
 1305   0.0000       3.066097        83.4327 
 1306   0.0000       3.070594        83.5551 
 1307   0.0000       3.071214        83.5720 
 1308   0.0000       3.073568        83.6360 
 1309   0.0000       3.076342        83.7115 
 1310   0.0000       3.079114        83.7870 
 1311   0.0000       3.081426        83.8499 
 1312   0.0000       3.088786        84.0501 
 1313   0.0000       3.090250        84.0900 
 1314   0.0000       3.092847        84.1606 
 1315   0.0000       3.093922        84.1899 
 1316   0.0000       3.095662        84.2372 
 1317   0.0000       3.097355        84.2833 
 1318   0.0000       3.101903        84.4071 
 1319   0.0000       3.106375        84.5288 
 1320   0.0000       3.110457        84.6398 
 1321   0.0000       3.111934        84.6800 
 1322   0.0000       3.113483        84.7222 
 1323   0.0000       3.116259        84.7977 
 1324   0.0000       3.117656        84.8357 
 1325   0.0000       3.122916        84.9789 
 1326   0.0000       3.127222        85.0960 
 1327   0.0000       3.128799        85.1389 
 1328   0.0000       3.129818        85.1667 
 1329   0.0000       3.132244        85.2327 
 1330   0.0000       3.136490        85.3482 
 1331   0.0000       3.137986        85.3889 
 1332   0.0000       3.141736        85.4910 
 1333   0.0000       3.143444        85.5375 
 1334   0.0000       3.146269        85.6143 
 1335   0.0000       3.148624        85.6784 
 1336   0.0000       3.150486        85.7291 
 1337   0.0000       3.152258        85.7773 
 1338   0.0000       3.156160        85.8835 
 1339   0.0000       3.159064        85.9625 
 1340   0.0000       3.162128        86.0459 
 1341   0.0000       3.162702        86.0615 
 1342   0.0000       3.165741        86.1442 
 1343   0.0000       3.167729        86.1983 
 1344   0.0000       3.171588        86.3033 
 1345   0.0000       3.174292        86.3769 
 1346   0.0000       3.178701        86.4968 
 1347   0.0000       3.179657        86.5229 
 1348   0.0000       3.183083        86.6161 
 1349   0.0000       3.185992        86.6953 
 1350   0.0000       3.188164        86.7543 
 1351   0.0000       3.189275        86.7846 
 1352   0.0000       3.192038        86.8598 
 1353   0.0000       3.195505        86.9541 
 1354   0.0000       3.199525        87.0635 
 1355   0.0000       3.203111        87.1611 
 1356   0.0000       3.206971        87.2661 
 1357   0.0000       3.207535        87.2815 
 1358   0.0000       3.211899        87.4002 
 1359   0.0000       3.214586        87.4733 
 1360   0.0000       3.217174        87.5438 
 1361   0.0000       3.219370        87.6035 
 1362   0.0000       3.222596        87.6913 
 1363   0.0000       3.226021        87.7845 
 1364   0.0000       3.228422        87.8498 
 1365   0.0000       3.231305        87.9283 
 1366   0.0000       3.236352        88.0656 
 1367   0.0000       3.238617        88.1272 
 1368   0.0000       3.242390        88.2299 
 1369   0.0000       3.243170        88.2511 
 1370   0.0000       3.246518        88.3422 
 1371   0.0000       3.251726        88.4840 
 1372   0.0000       3.256901        88.6248 
 1373   0.0000       3.261074        88.7383 
 1374   0.0000       3.265062        88.8468 
 1375   0.0000       3.268758        88.9474 
 1376   0.0000       3.271700        89.0275 
 1377   0.0000       3.272880        89.0596 
 1378   0.0000       3.273537        89.0775 
 1379   0.0000       3.276524        89.1588 
 1380   0.0000       3.277163        89.1761 
 1381   0.0000       3.278249        89.2057 
 1382   0.0000       3.282221        89.3138 
 1383   0.0000       3.284630        89.3793 
 1384   0.0000       3.286656        89.4345 
 1385   0.0000       3.288571        89.4866 
 1386   0.0000       3.293013        89.6074 
 1387   0.0000       3.294026        89.6350 
 1388   0.0000       3.295423        89.6730 
 1389   0.0000       3.302768        89.8729 
 1390   0.0000       3.303625        89.8962 
 1391   0.0000       3.307543        90.0028 
 1392   0.0000       3.308908        90.0400 
 1393   0.0000       3.313150        90.1554 
 1394   0.0000       3.314641        90.1960 
 1395   0.0000       3.317800        90.2819 
 1396   0.0000       3.320910        90.3665 
 1397   0.0000       3.323273        90.4309 
 1398   0.0000       3.324858        90.4740 
 1399   0.0000       3.327829        90.5548 
 1400   0.0000       3.329539        90.6014 
 1401   0.0000       3.332559        90.6835 
 1402   0.0000       3.336036        90.7781 
 1403   0.0000       3.337375        90.8146 
 1404   0.0000       3.341643        90.9307 
 1405   0.0000       3.344807        91.0168 
 1406   0.0000       3.346398        91.0601 
 1407   0.0000       3.347385        91.0870 
 1408   0.0000       3.349909        91.1557 
 1409   0.0000       3.351424        91.1969 
 1410   0.0000       3.354186        91.2720 
 1411   0.0000       3.354498        91.2805 
 1412   0.0000       3.359972        91.4295 
 1413   0.0000       3.363592        91.5280 
 1414   0.0000       3.366045        91.5948 
 1415   0.0000       3.367634        91.6380 
 1416   0.0000       3.368908        91.6726 
 1417   0.0000       3.371850        91.7527 
 1418   0.0000       3.375743        91.8586 
 1419   0.0000       3.377030        91.8936 
 1420   0.0000       3.381500        92.0153 
 1421   0.0000       3.383264        92.0633 
 1422   0.0000       3.387542        92.1797 
 1423   0.0000       3.387887        92.1891 
 1424   0.0000       3.389931        92.2447 
 1425   0.0000       3.390915        92.2715 
 1426   0.0000       3.393063        92.3299 
 1427   0.0000       3.395945        92.4084 
 1428   0.0000       3.400553        92.5338 
 1429   0.0000       3.402056        92.5747 
 1430   0.0000       3.403511        92.6142 
 1431   0.0000       3.409152        92.7678 
 1432   0.0000       3.409843        92.7866 
 1433   0.0000       3.412694        92.8641 
 1434   0.0000       3.413162        92.8769 
 1435   0.0000       3.415591        92.9430 
 1436   0.0000       3.418676        93.0269 
 1437   0.0000       3.420837        93.0857 
 1438   0.0000       3.423273        93.1520 
 1439   0.0000       3.426107        93.2291 
 1440   0.0000       3.427275        93.2609 
 1441   0.0000       3.432675        93.4078 
 1442   0.0000       3.433655        93.4345 
 1443   0.0000       3.434961        93.4700 
 1444   0.0000       3.437830        93.5481 
 1445   0.0000       3.438914        93.5776 
 1446   0.0000       3.443159        93.6931 
 1447   0.0000       3.445064        93.7450 
 1448   0.0000       3.447641        93.8151 
 1449   0.0000       3.449253        93.8589 
 1450   0.0000       3.453707        93.9802 
 1451   0.0000       3.454907        94.0128 
 1452   0.0000       3.456038        94.0436 
 1453   0.0000       3.460441        94.1634 
 1454   0.0000       3.461692        94.1974 
 1455   0.0000       3.463757        94.2536 
 1456   0.0000       3.466006        94.3148 
 1457   0.0000       3.474074        94.5344 
 1458   0.0000       3.474707        94.5516 
 1459   0.0000       3.475835        94.5823 
 1460   0.0000       3.479090        94.6708 
 1461   0.0000       3.481649        94.7405 
 1462   0.0000       3.484792        94.8260 
 1463   0.0000       3.487768        94.9070 
 1464   0.0000       3.489445        94.9526 
 1465   0.0000       3.491423        95.0065 
 1466   0.0000       3.500544        95.2546 
 1467   0.0000       3.504586        95.3646 
 1468   0.0000       3.506721        95.4227 
 1469   0.0000       3.512324        95.5752 
 1470   0.0000       3.513495        95.6071 
 1471   0.0000       3.516816        95.6974 
 1472   0.0000       3.519638        95.7742 
 1473   0.0000       3.526999        95.9745 
 1474   0.0000       3.530641        96.0736 
 1475   0.0000       3.536517        96.2335 
 1476   0.0000       3.538235        96.2803 
 1477   0.0000       3.541980        96.3822 
 1478   0.0000       3.543399        96.4208 
 1479   0.0000       3.545717        96.4839 
 1480   0.0000       3.548126        96.5494 
 1481   0.0000       3.557984        96.8177 
 1482   0.0000       3.564712        97.0008 
 1483   0.0000       3.565776        97.0297 
 1484   0.0000       3.570926        97.1698 
 1485   0.0000       3.575991        97.3077 
 1486   0.0000       3.579940        97.4151 
 1487   0.0000       3.580079        97.4189 
 1488   0.0000       3.582251        97.4780 
 1489   0.0000       3.586996        97.6071 
 1490   0.0000       3.588719        97.6540 
 1491   0.0000       3.590230        97.6951 
 1492   0.0000       3.598295        97.9146 
 1493   0.0000       3.601394        97.9989 
 1494   0.0000       3.608059        98.1803 
 1495   0.0000       3.612102        98.2903 
 1496   0.0000       3.613567        98.3302 
 1497   0.0000       3.615257        98.3761 
 1498   0.0000       3.618537        98.4654 
 1499   0.0000       3.621235        98.5388 
 1500   0.0000       3.628147        98.7269 
 1501   0.0000       3.632560        98.8470 
 1502   0.0000       3.637883        98.9918 
 1503   0.0000       3.643024        99.1317 
 1504   0.0000       3.645371        99.1956 
 1505   0.0000       3.647328        99.2488 
 1506   0.0000       3.654967        99.4567 
 1507   0.0000       3.658263        99.5464 
 1508   0.0000       3.667140        99.7880 
 1509   0.0000       3.672599        99.9365 
 1510   0.0000       3.677398       100.0671 
 1511   0.0000       3.681491       100.1785 
 1512   0.0000       3.689953       100.4087 
 1513   0.0000       3.690628       100.4271 
 1514   0.0000       3.704830       100.8135 
 1515   0.0000       3.709708       100.9463 
 1516   0.0000       3.711436       100.9933 
 1517   0.0000       3.714220       101.0691 
 1518   0.0000       3.718659       101.1899 
 1519   0.0000       3.723751       101.3284 
 1520   0.0000       3.727299       101.4250 
 1521   0.0000       3.734320       101.6160 
 1522   0.0000       3.738611       101.7328 
 1523   0.0000       3.752790       102.1186 
 1524   0.0000       3.758523       102.2746 
 1525   0.0000       3.765618       102.4677 
 1526   0.0000       3.767704       102.5244 
 1527   0.0000       3.776022       102.7508 
 1528   0.0000       3.777709       102.7967 
 1529   0.0000       3.784136       102.9716 
 1530   0.0000       3.785939       103.0206 
 1531   0.0000       3.787213       103.0553 
 1532   0.0000       3.793839       103.2356 
 1533   0.0000       3.807268       103.6010 
 1534   0.0000       3.815937       103.8369 
 1535   0.0000       3.818758       103.9137 
 1536   0.0000       3.825319       104.0922 
 1537   0.0000       3.828483       104.1783 
 1538   0.0000       3.833113       104.3043 
 1539   0.0000       3.837929       104.4354 
 1540   0.0000       3.843608       104.5899 
 1541   0.0000       3.848187       104.7145 
 1542   0.0000       3.852004       104.8184 
 1543   0.0000       3.853512       104.8594 
 1544   0.0000       3.867017       105.2269 
 1545   0.0000       3.877778       105.5197 
 1546   0.0000       3.880832       105.6028 
 1547   0.0000       3.883423       105.6733 
 1548   0.0000       3.891358       105.8892 
 1549   0.0000       3.894522       105.9753 
 1550   0.0000       3.895439       106.0003 
 1551   0.0000       3.909357       106.3790 
 1552   0.0000       3.911900       106.4482 
 1553   0.0000       3.915189       106.5377 
 1554   0.0000       3.917296       106.5950 
 1555   0.0000       3.920090       106.6711 
 1556   0.0000       3.922544       106.7378 
 1557   0.0000       3.925371       106.8148 
 1558   0.0000       3.931996       106.9951 
 1559   0.0000       3.934006       107.0498 
 1560   0.0000       3.936950       107.1299 
 1561   0.0000       3.941602       107.2565 
 1562   0.0000       3.945932       107.3743 
 1563   0.0000       3.951601       107.5285 
 1564   0.0000       3.956121       107.6515 
 1565   0.0000       3.962418       107.8229 
 1566   0.0000       3.968995       108.0018 
 1567   0.0000       3.977160       108.2240 
 1568   0.0000       3.983271       108.3903 
 1569   0.0000       3.988443       108.5311 
 1570   0.0000       3.993405       108.6661 
 1571   0.0000       3.995218       108.7154 
 1572   0.0000       4.000670       108.8638 
 1573   0.0000       4.017242       109.3147 
 1574   0.0000       4.020511       109.4037 
 1575   0.0000       4.029523       109.6489 
 1576   0.0000       4.032426       109.7279 
 1577   0.0000       4.040061       109.9356 
 1578   0.0000       4.047147       110.1285 
 1579   0.0000       4.048132       110.1553 
 1580   0.0000       4.054949       110.3408 
 1581   0.0000       4.058272       110.4312 
 1582   0.0000       4.061265       110.5127 
 1583   0.0000       4.063181       110.5648 
 1584   0.0000       4.067089       110.6711 
 1585   0.0000       4.067583       110.6845 
 1586   0.0000       4.073133       110.8356 
 1587   0.0000       4.075670       110.9046 
 1588   0.0000       4.078582       110.9839 
 1589   0.0000       4.079493       111.0086 
 1590   0.0000       4.083943       111.1297 
 1591   0.0000       4.086937       111.2112 
 1592   0.0000       4.089966       111.2936 
 1593   0.0000       4.091978       111.3484 
 1594   0.0000       4.096897       111.4822 
 1595   0.0000       4.098366       111.5222 
 1596   0.0000       4.100954       111.5926 
 1597   0.0000       4.111007       111.8662 
 1598   0.0000       4.112907       111.9179 
 1599   0.0000       4.117480       112.0423 
 1600   0.0000       4.125448       112.2591 
 1601   0.0000       4.127461       112.3139 
 1602   0.0000       4.130423       112.3945 
 1603   0.0000       4.141564       112.6977 
 1604   0.0000       4.144707       112.7832 
 1605   0.0000       4.146128       112.8219 
 1606   0.0000       4.153473       113.0217 
 1607   0.0000       4.156584       113.1064 
 1608   0.0000       4.159817       113.1944 
 1609   0.0000       4.161758       113.2472 
 1610   0.0000       4.163230       113.2872 
 1611   0.0000       4.168125       113.4205 
 1612   0.0000       4.168900       113.4415 
 1613   0.0000       4.178560       113.7044 
 1614   0.0000       4.185477       113.8926 
 1615   0.0000       4.191636       114.0602 
 1616   0.0000       4.196460       114.1915 
 1617   0.0000       4.199029       114.2614 
 1618   0.0000       4.202913       114.3671 
 1619   0.0000       4.204017       114.3971 
 1620   0.0000       4.205516       114.4379 
 1621   0.0000       4.209117       114.5359 
 1622   0.0000       4.211031       114.5880 
 1623   0.0000       4.213658       114.6595 
 1624   0.0000       4.215756       114.7165 
 1625   0.0000       4.218568       114.7931 
 1626   0.0000       4.221829       114.8818 
 1627   0.0000       4.223202       114.9192 
 1628   0.0000       4.225825       114.9905 
 1629   0.0000       4.226631       115.0125 
 1630   0.0000       4.236706       115.2866 
 1631   0.0000       4.238476       115.3348 
 1632   0.0000       4.240592       115.3924 
 1633   0.0000       4.241692       115.4223 
 1634   0.0000       4.251048       115.6769 
 1635   0.0000       4.252032       115.7037 
 1636   0.0000       4.258100       115.8688 
 1637   0.0000       4.260906       115.9451 
 1638   0.0000       4.264228       116.0355 
 1639   0.0000       4.271343       116.2291 
 1640   0.0000       4.272779       116.2682 
 1641   0.0000       4.278933       116.4357 
 1642   0.0000       4.283152       116.5505 
 1643   0.0000       4.283519       116.5605 
 1644   0.0000       4.291596       116.7803 
 1645   0.0000       4.297690       116.9461 
 1646   0.0000       4.302003       117.0634 
 1647   0.0000       4.308460       117.2392 
 1648   0.0000       4.314096       117.3925 
 1649   0.0000       4.317098       117.4742 
 1650   0.0000       4.319299       117.5341 
 1651   0.0000       4.320867       117.5768 
 1652   0.0000       4.333363       117.9168 
 1653   0.0000       4.342069       118.1537 
 1654   0.0000       4.349033       118.3432 
 1655   0.0000       4.354788       118.4998 
 1656   0.0000       4.359828       118.6369 
 1657   0.0000       4.365024       118.7783 
 1658   0.0000       4.370097       118.9164 
 1659   0.0000       4.382502       119.2539 
 1660   0.0000       4.394010       119.5671 
 1661   0.0000       4.406706       119.9126 
 1662   0.0000       4.408395       119.9585 
 1663   0.0000       4.410870       120.0259 
 1664   0.0000       4.412626       120.0737 
 1665   0.0000       4.419236       120.2535 
 1666   0.0000       4.422783       120.3500 
 1667   0.0000       4.425468       120.4231 
 1668   0.0000       4.432294       120.6089 
 1669   0.0000       4.446776       121.0029 
 1670   0.0000       4.460964       121.3890 
 1671   0.0000       4.474861       121.7672 
 1672   0.0000       4.481080       121.9364 
 1673   0.0000       4.489304       122.1602 
 1674   0.0000       4.500932       122.4766 
 1675   0.0000       4.502917       122.5306 
 1676   0.0000       4.509591       122.7122 
 1677   0.0000       4.515796       122.8811 
 1678   0.0000       4.521618       123.0395 
 1679   0.0000       4.527292       123.1939 
 1680   0.0000       4.533479       123.3622 
 1681   0.0000       4.552661       123.8842 
 1682   0.0000       4.555923       123.9730 
 1683   0.0000       4.558268       124.0368 
 1684   0.0000       4.566197       124.2525 
 1685   0.0000       4.586910       124.8162 
 1686   0.0000       4.588769       124.8668 
 1687   0.0000       4.592864       124.9782 
 1688   0.0000       4.601641       125.2170 
 1689   0.0000       4.608889       125.4142 
 1690   0.0000       4.611730       125.4916 
 1691   0.0000       4.624092       125.8279 
 1692   0.0000       4.628864       125.9578 
 1693   0.0000       4.633818       126.0926 
 1694   0.0000       4.639449       126.2458 
 1695   0.0000       4.648987       126.5054 
 1696   0.0000       4.652384       126.5978 
 1697   0.0000       4.655153       126.6732 
 1698   0.0000       4.668750       127.0431 
 1699   0.0000       4.678533       127.3094 
 1700   0.0000       4.687397       127.5505 
 1701   0.0000       4.688803       127.5888 
 1702   0.0000       4.707258       128.0910 
 1703   0.0000       4.715063       128.3034 
 1704   0.0000       4.722702       128.5112 
 1705   0.0000       4.734481       128.8318 
 1706   0.0000       4.735412       128.8571 
 1707   0.0000       4.739593       128.9709 
 1708   0.0000       4.741386       129.0197 
 1709   0.0000       4.743842       129.0865 
 1710   0.0000       4.744651       129.1085 
 1711   0.0000       4.755189       129.3953 
 1712   0.0000       4.764545       129.6499 
 1713   0.0000       4.769127       129.7745 
 1714   0.0000       4.777480       130.0018 
 1715   0.0000       4.786610       130.2503 
 1716   0.0000       4.801498       130.6554 
 1717   0.0000       4.808174       130.8371 
 1718   0.0000       4.811696       130.9329 
 1719   0.0000       4.828651       131.3943 
 1720   0.0000       4.840688       131.7218 
 1721   0.0000       4.848606       131.9373 
 1722   0.0000       4.859481       132.2332 
 1723   0.0000       4.881914       132.8436 
 1724   0.0000       4.887071       132.9840 
 1725   0.0000       4.895304       133.2080 
 1726   0.0000       4.900116       133.3389 
 1727   0.0000       4.912056       133.6638 
 1728   0.0000       4.915465       133.7566 
 1729   0.0000       4.918305       133.8339 
 1730   0.0000       4.925532       134.0305 
 1731   0.0000       4.933147       134.2378 
 1732   0.0000       4.934344       134.2703 
 1733   0.0000       4.944960       134.5592 
 1734   0.0000       4.949040       134.6702 
 1735   0.0000       4.952070       134.7527 
 1736   0.0000       4.959258       134.9483 
 1737   0.0000       4.959763       134.9620 
 1738   0.0000       4.972979       135.3216 
 1739   0.0000       4.977550       135.4460 
 1740   0.0000       4.981824       135.5623 
 1741   0.0000       4.988503       135.7441 
 1742   0.0000       4.999301       136.0379 
 1743   0.0000       5.008555       136.2897 
 1744   0.0000       5.013346       136.4201 
 1745   0.0000       5.025899       136.7617 
 1746   0.0000       5.027464       136.8042 
 1747   0.0000       5.039150       137.1223 
 1748   0.0000       5.042806       137.2217 
 1749   0.0000       5.058698       137.6542 
 1750   0.0000       5.084386       138.3532 
 1751   0.0000       5.086941       138.4227 
 1752   0.0000       5.093793       138.6092 
 1753   0.0000       5.097636       138.7137 
 1754   0.0000       5.106243       138.9479 
 1755   0.0000       5.108681       139.0143 
 1756   0.0000       5.111262       139.0845 
 1757   0.0000       5.116184       139.2184 
 1758   0.0000       5.122533       139.3912 
 1759   0.0000       5.136409       139.7688 
 1760   0.0000       5.137950       139.8107 
 1761   0.0000       5.147748       140.0773 
 1762   0.0000       5.155053       140.2761 
 1763   0.0000       5.162498       140.4787 
 1764   0.0000       5.163852       140.5155 
 1765   0.0000       5.174139       140.7955 
 1766   0.0000       5.193106       141.3116 
 1767   0.0000       5.194924       141.3611 
 1768   0.0000       5.201752       141.5469 
 1769   0.0000       5.213190       141.8581 
 1770   0.0000       5.229331       142.2973 
 1771   0.0000       5.232120       142.3732 
 1772   0.0000       5.236080       142.4810 
 1773   0.0000       5.263333       143.2226 
 1774   0.0000       5.271769       143.4521 
 1775   0.0000       5.273754       143.5061 
 1776   0.0000       5.280440       143.6881 
 1777   0.0000       5.284972       143.8114 
 1778   0.0000       5.291124       143.9788 
 1779   0.0000       5.305123       144.3597 
 1780   0.0000       5.310537       144.5070 
 1781   0.0000       5.321489       144.8051 
 1782   0.0000       5.328916       145.0072 
 1783   0.0000       5.336354       145.2096 
 1784   0.0000       5.344573       145.4332 
 1785   0.0000       5.358909       145.8233 
 1786   0.0000       5.379703       146.3892 
 1787   0.0000       5.390501       146.6830 
 1788   0.0000       5.399448       146.9265 
 1789   0.0000       5.411508       147.2546 
 1790   0.0000       5.423367       147.5773 
 1791   0.0000       5.436040       147.9222 
 1792   0.0000       5.440975       148.0565 
 1793   0.0000       5.457593       148.5087 
 1794   0.0000       5.472216       148.9066 
 1795   0.0000       5.484688       149.2460 
 1796   0.0000       5.485446       149.2666 
 1797   0.0000       5.492606       149.4614 
 1798   0.0000       5.496046       149.5550 
 1799   0.0000       5.499729       149.6552 
 1800   0.0000       5.528094       150.4271 
 1801   0.0000       5.535852       150.6382 
 1802   0.0000       5.542733       150.8254 
 1803   0.0000       5.552575       151.0932 
 1804   0.0000       5.567810       151.5078 
 1805   0.0000       5.580239       151.8460 
 1806   0.0000       5.588181       152.0621 
 1807   0.0000       5.590209       152.1173 
 1808   0.0000       5.596677       152.2933 
 1809   0.0000       5.600462       152.3963 
 1810   0.0000       5.621848       152.9783 
 1811   0.0000       5.659115       153.9923 
 1812   0.0000       5.679631       154.5506 
 1813   0.0000       5.692796       154.9089 
 1814   0.0000       5.730830       155.9438 
 1815   0.0000       5.731801       155.9702 
 1816   0.0000       5.739117       156.1693 
 1817   0.0000       5.773759       157.1120 
 1818   0.0000       5.813806       158.2017 
 1819   0.0000       5.837630       158.8500 
 1820   0.0000       5.843312       159.0046 
 1821   0.0000       5.892454       160.3418 
 1822   0.0000       5.903022       160.6294 
 1823   0.0000       5.916956       161.0085 
 1824   0.0000       5.985282       162.8678 
 1825   0.0000       6.043805       164.4603 
 1826   0.0000       6.051565       164.6715 
 1827   0.0000       6.053569       164.7260 
 1828   0.0000       6.088908       165.6876 
 1829   0.0000       6.109377       166.2446 
 1830   0.0000       6.124917       166.6675 
 1831   0.0000       6.167027       167.8133 
 1832   0.0000       6.201749       168.7582 
 1833   0.0000       6.247277       169.9970 
 1834   0.0000       6.284219       171.0023 
 1835   0.0000       6.822616       185.6528 
 1836   0.0000       8.748013       238.0455 
 1837   0.0000       8.848237       240.7728 
 1838   0.0000       8.892726       241.9834 
 1839   0.0000       8.956105       243.7080 
 1840   0.0000       8.971391       244.1240 
 1841   0.0000       9.043648       246.0902 
 1842   0.0000       9.305309       253.2103 
 1843   0.0000       9.314257       253.4538 
 1844   0.0000       9.417575       256.2652 
 1845   0.0000       9.461814       257.4691 
 1846   0.0000       9.527539       259.2575 
 1847   0.0000       9.576596       260.5924 
 1848   0.0000      19.622312       533.9503 
 1849   0.0000      20.252155       551.0892 
 1850   0.0000      20.391445       554.8794 
 1851   0.0000      20.695508       563.1534 
 1852   0.0000      22.055287       600.1549 
 1853   0.0000      22.058550       600.2437 
 1854   0.0000      22.120397       601.9266 
 1855   0.0000      22.238681       605.1453 
 1856   0.0000      22.259378       605.7085 
 1857   0.0000      22.357182       608.3698 
 1858   0.0000      22.392267       609.3246 
 1859   0.0000      22.439421       610.6077 
 1860   0.0000      22.564015       613.9981 
 1861   0.0000      22.568768       614.1274 
 1862   0.0000      22.583383       614.5251 
 1863   0.0000      22.595051       614.8426 
 1864   0.0000      22.605969       615.1397 
 1865   0.0000      22.621736       615.5687 
 1866   0.0000      22.660022       616.6105 
 1867   0.0000      22.673564       616.9791 
 1868   0.0000      22.680500       617.1678 
 1869   0.0000      22.695581       617.5781 
 1870   0.0000      22.731014       618.5423 
 1871   0.0000      22.737112       618.7083 
 1872   0.0000      22.738000       618.7324 
 1873   0.0000      22.742833       618.8640 
 1874   0.0000      22.756947       619.2480 
 1875   0.0000      22.758026       619.2774 
 1876   0.0000      22.787672       620.0841 
 1877   0.0000      22.815878       620.8516 
 1878   0.0000      22.837179       621.4312 
 1879   0.0000      22.841810       621.5573 
 1880   0.0000      22.843006       621.5898 
 1881   0.0000      22.845213       621.6498 
 1882   0.0000      22.869006       622.2973 
 1883   0.0000      22.874088       622.4356 
 1884   0.0000      22.917517       623.6173 
 1885   0.0000      22.930039       623.9581 
 1886   0.0000      22.944821       624.3603 
 1887   0.0000      22.994648       625.7162 
 1888   0.0000      23.192497       631.0999 
 1889   0.0000      23.261053       632.9654 
 1890   0.0000      23.282020       633.5360 
 1891   0.0000      23.287608       633.6880 
 1892   0.0000      23.288321       633.7074 
 1893   0.0000      23.295884       633.9132 
 1894   0.0000      23.333815       634.9454 
 1895   0.0000      23.393237       636.5623 
 1896   0.0000      23.507122       639.6613 
 1897   0.0000      23.530005       640.2840 
 1898   0.0000      32.479550       883.8135 
 1899   0.0000      32.501258       884.4042 
 1900   0.0000      33.029967       898.7911 
 1901   0.0000      33.179682       902.8651 
 1902   0.0000      33.195095       903.2845 

                 SPIN DOWN ORBITALS
  NO   OCC          E(Eh)            E(eV) 
   0   1.0000     -89.149526     -2425.8819 
   1   1.0000     -89.024443     -2422.4783 
   2   1.0000     -89.003636     -2421.9121 
   3   1.0000     -88.954059     -2420.5630 
   4   1.0000     -14.642642      -398.4466 
   5   1.0000     -14.510617      -394.8540 
   6   1.0000     -14.484917      -394.1546 
   7   1.0000     -14.483713      -394.1219 
   8   1.0000     -14.477405      -393.9502 
   9   1.0000     -10.492054      -285.5033 
  10   1.0000     -10.491481      -285.4877 
  11   1.0000     -10.473605      -285.0013 
  12   1.0000     -10.473021      -284.9854 
  13   1.0000     -10.444515      -284.2097 
  14   1.0000     -10.434857      -283.9469 
  15   1.0000     -10.428872      -283.7840 
  16   1.0000     -10.427398      -283.7439 
  17   1.0000     -10.426648      -283.7235 
  18   1.0000     -10.425216      -283.6846 
  19   1.0000     -10.421785      -283.5912 
  20   1.0000     -10.420987      -283.5695 
  21   1.0000     -10.420407      -283.5537 
  22   1.0000     -10.420401      -283.5535 
  23   1.0000     -10.419384      -283.5258 
  24   1.0000     -10.418735      -283.5082 
  25   1.0000     -10.400253      -283.0053 
  26   1.0000     -10.398595      -282.9602 
  27   1.0000     -10.396484      -282.9027 
  28   1.0000     -10.393121      -282.8112 
  29   1.0000     -10.388632      -282.6891 
  30   1.0000     -10.388590      -282.6879 
  31   1.0000     -10.387168      -282.6492 
  32   1.0000     -10.382762      -282.5293 
  33   1.0000     -10.374988      -282.3178 
  34   1.0000     -10.373344      -282.2730 
  35   1.0000     -10.365887      -282.0701 
  36   1.0000     -10.346840      -281.5518 
  37   1.0000     -10.345840      -281.5246 
  38   1.0000     -10.345172      -281.5064 
  39   1.0000     -10.344372      -281.4847 
  40   1.0000     -10.341497      -281.4064 
  41   1.0000     -10.337962      -281.3102 
  42   1.0000     -10.337825      -281.3065 
  43   1.0000     -10.335821      -281.2520 
  44   1.0000     -10.334866      -281.2260 
  45   1.0000     -10.333880      -281.1992 
  46   1.0000     -10.332450      -281.1602 
  47   1.0000     -10.331243      -281.1274 
  48   1.0000     -10.330642      -281.1111 
  49   1.0000     -10.328340      -281.0484 
  50   1.0000     -10.328227      -281.0453 
  51   1.0000     -10.326448      -280.9969 
  52   1.0000     -10.324867      -280.9539 
  53   1.0000     -10.324839      -280.9532 
  54   1.0000     -10.321400      -280.8596 
  55   1.0000      -8.227053      -223.8695 
  56   1.0000      -8.102502      -220.4803 
  57   1.0000      -8.082683      -219.9410 
  58   1.0000      -8.033257      -218.5960 
  59   1.0000      -6.190706      -168.4577 
  60   1.0000      -6.186663      -168.3477 
  61   1.0000      -6.182375      -168.2310 
  62   1.0000      -6.066593      -165.0804 
  63   1.0000      -6.062992      -164.9824 
  64   1.0000      -6.057921      -164.8444 
  65   1.0000      -6.046369      -164.5301 
  66   1.0000      -6.041910      -164.4087 
  67   1.0000      -6.039505      -164.3433 
  68   1.0000      -5.995802      -163.1541 
  69   1.0000      -5.995527      -163.1466 
  70   1.0000      -5.988131      -162.9453 
  71   1.0000      -1.262731       -34.3606 
  72   1.0000      -1.209352       -32.9081 
  73   1.0000      -1.156191       -31.4616 
  74   1.0000      -1.142507       -31.0892 
  75   1.0000      -1.134568       -30.8732 
  76   1.0000      -1.101940       -29.9853 
  77   1.0000      -1.088275       -29.6135 
  78   1.0000      -1.080343       -29.3976 
  79   1.0000      -1.077068       -29.3085 
  80   1.0000      -1.049861       -28.5682 
  81   1.0000      -1.042153       -28.3584 
  82   1.0000      -1.035563       -28.1791 
  83   1.0000      -1.032257       -28.0891 
  84   1.0000      -1.020590       -27.7717 
  85   1.0000      -1.015435       -27.6314 
  86   1.0000      -1.002228       -27.2720 
  87   1.0000      -0.986123       -26.8338 
  88   1.0000      -0.982880       -26.7455 
  89   1.0000      -0.981743       -26.7146 
  90   1.0000      -0.980779       -26.6884 
  91   1.0000      -0.942608       -25.6497 
  92   1.0000      -0.939061       -25.5531 
  93   1.0000      -0.937344       -25.5064 
  94   1.0000      -0.926373       -25.2079 
  95   1.0000      -0.921378       -25.0720 
  96   1.0000      -0.915744       -24.9187 
  97   1.0000      -0.912873       -24.8405 
  98   1.0000      -0.902914       -24.5695 
  99   1.0000      -0.899989       -24.4899 
 100   1.0000      -0.897564       -24.4239 
 101   1.0000      -0.864338       -23.5198 
 102   1.0000      -0.861458       -23.4415 
 103   1.0000      -0.855721       -23.2854 
 104   1.0000      -0.850169       -23.1343 
 105   1.0000      -0.847853       -23.0712 
 106   1.0000      -0.833684       -22.6857 
 107   1.0000      -0.817293       -22.2397 
 108   1.0000      -0.811345       -22.0778 
 109   1.0000      -0.808172       -21.9915 
 110   1.0000      -0.801113       -21.7994 
 111   1.0000      -0.794872       -21.6296 
 112   1.0000      -0.775630       -21.1060 
 113   1.0000      -0.773277       -21.0419 
 114   1.0000      -0.772935       -21.0326 
 115   1.0000      -0.769337       -20.9347 
 116   1.0000      -0.760976       -20.7072 
 117   1.0000      -0.756274       -20.5793 
 118   1.0000      -0.730069       -19.8662 
 119   1.0000      -0.728365       -19.8198 
 120   1.0000      -0.726097       -19.7581 
 121   1.0000      -0.723127       -19.6773 
 122   1.0000      -0.715386       -19.4667 
 123   1.0000      -0.714525       -19.4432 
 124   1.0000      -0.706263       -19.2184 
 125   1.0000      -0.703813       -19.1517 
 126   1.0000      -0.700986       -19.0748 
 127   1.0000      -0.696725       -18.9589 
 128   1.0000      -0.694765       -18.9055 
 129   1.0000      -0.681935       -18.5564 
 130   1.0000      -0.677776       -18.4432 
 131   1.0000      -0.668066       -18.1790 
 132   1.0000      -0.667815       -18.1722 
 133   1.0000      -0.662075       -18.0160 
 134   1.0000      -0.653310       -17.7775 
 135   1.0000      -0.645640       -17.5688 
 136   1.0000      -0.642150       -17.4738 
 137   1.0000      -0.639946       -17.4138 
 138   1.0000      -0.638118       -17.3641 
 139   1.0000      -0.635203       -17.2847 
 140   1.0000      -0.627544       -17.0763 
 141   1.0000      -0.623650       -16.9704 
 142   1.0000      -0.623462       -16.9653 
 143   1.0000      -0.621563       -16.9136 
 144   1.0000      -0.613125       -16.6840 
 145   1.0000      -0.609510       -16.5856 
 146   1.0000      -0.607025       -16.5180 
 147   1.0000      -0.604066       -16.4375 
 148   1.0000      -0.603566       -16.4239 
 149   1.0000      -0.599015       -16.3000 
 150   1.0000      -0.594264       -16.1708 
 151   1.0000      -0.589669       -16.0457 
 152   1.0000      -0.585409       -15.9298 
 153   1.0000      -0.582855       -15.8603 
 154   1.0000      -0.582151       -15.8411 
 155   1.0000      -0.580808       -15.8046 
 156   1.0000      -0.580036       -15.7836 
 157   1.0000      -0.578792       -15.7497 
 158   1.0000      -0.570972       -15.5369 
 159   1.0000      -0.569274       -15.4907 
 160   1.0000      -0.566420       -15.4131 
 161   1.0000      -0.561203       -15.2711 
 162   1.0000      -0.553673       -15.0662 
 163   1.0000      -0.553448       -15.0601 
 164   1.0000      -0.549212       -14.9448 
 165   1.0000      -0.548726       -14.9316 
 166   1.0000      -0.541062       -14.7230 
 167   1.0000      -0.536880       -14.6092 
 168   1.0000      -0.534748       -14.5512 
 169   1.0000      -0.533385       -14.5142 
 170   1.0000      -0.529771       -14.4158 
 171   1.0000      -0.522715       -14.2238 
 172   1.0000      -0.512528       -13.9466 
 173   1.0000      -0.510765       -13.8986 
 174   1.0000      -0.505291       -13.7497 
 175   1.0000      -0.501017       -13.6334 
 176   1.0000      -0.500362       -13.6155 
 177   1.0000      -0.499004       -13.5786 
 178   1.0000      -0.491922       -13.3859 
 179   1.0000      -0.488295       -13.2872 
 180   1.0000      -0.485720       -13.2171 
 181   1.0000      -0.480929       -13.0867 
 182   1.0000      -0.468456       -12.7473 
 183   1.0000      -0.465415       -12.6646 
 184   1.0000      -0.460761       -12.5379 
 185   1.0000      -0.455351       -12.3907 
 186   1.0000      -0.450181       -12.2501 
 187   1.0000      -0.448200       -12.1961 
 188   1.0000      -0.440832       -11.9956 
 189   1.0000      -0.428859       -11.6698 
 190   1.0000      -0.419876       -11.4254 
 191   1.0000      -0.410484       -11.1698 
 192   1.0000      -0.407408       -11.0861 
 193   1.0000      -0.400869       -10.9082 
 194   1.0000      -0.396013       -10.7760 
 195   1.0000      -0.391396       -10.6504 
 196   1.0000      -0.381824       -10.3900 
 197   1.0000      -0.360135        -9.7998 
 198   1.0000      -0.354954        -9.6588 
 199   1.0000      -0.339552        -9.2397 
 200   1.0000      -0.332861        -9.0576 
 201   0.0000      -0.271067        -7.3761 
 202   0.0000      -0.167425        -4.5559 
 203   0.0000      -0.146145        -3.9768 
 204   0.0000      -0.137209        -3.7337 
 205   0.0000      -0.135842        -3.6965 
 206   0.0000      -0.126413        -3.4399 
 207   0.0000      -0.104958        -2.8561 
 208   0.0000      -0.102897        -2.8000 
 209   0.0000      -0.094223        -2.5639 
 210   0.0000      -0.085949        -2.3388 
 211   0.0000      -0.071227        -1.9382 
 212   0.0000      -0.067522        -1.8374 
 213   0.0000      -0.066372        -1.8061 
 214   0.0000      -0.062536        -1.7017 
 215   0.0000      -0.057460        -1.5636 
 216   0.0000      -0.056168        -1.5284 
 217   0.0000      -0.054827        -1.4919 
 218   0.0000      -0.043269        -1.1774 
 219   0.0000      -0.039186        -1.0663 
 220   0.0000      -0.038407        -1.0451 
 221   0.0000      -0.035462        -0.9650 
 222   0.0000      -0.024130        -0.6566 
 223   0.0000      -0.023408        -0.6370 
 224   0.0000      -0.020363        -0.5541 
 225   0.0000      -0.015448        -0.4204 
 226   0.0000      -0.014302        -0.3892 
 227   0.0000      -0.013711        -0.3731 
 228   0.0000      -0.002698        -0.0734 
 229   0.0000      -0.001634        -0.0445 
 230   0.0000       0.006984         0.1900 
 231   0.0000       0.007498         0.2040 
 232   0.0000       0.009602         0.2613 
 233   0.0000       0.013139         0.3575 
 234   0.0000       0.014082         0.3832 
 235   0.0000       0.017422         0.4741 
 236   0.0000       0.019178         0.5219 
 237   0.0000       0.021216         0.5773 
 238   0.0000       0.025864         0.7038 
 239   0.0000       0.026133         0.7111 
 240   0.0000       0.027958         0.7608 
 241   0.0000       0.030894         0.8407 
 242   0.0000       0.032046         0.8720 
 243   0.0000       0.033697         0.9169 
 244   0.0000       0.035218         0.9583 
 245   0.0000       0.039625         1.0782 
 246   0.0000       0.042083         1.1451 
 247   0.0000       0.044920         1.2223 
 248   0.0000       0.049629         1.3505 
 249   0.0000       0.052956         1.4410 
 250   0.0000       0.055014         1.4970 
 251   0.0000       0.060029         1.6335 
 252   0.0000       0.063811         1.7364 
 253   0.0000       0.064527         1.7559 
 254   0.0000       0.066054         1.7974 
 255   0.0000       0.072760         1.9799 
 256   0.0000       0.073889         2.0106 
 257   0.0000       0.079155         2.1539 
 258   0.0000       0.080549         2.1918 
 259   0.0000       0.083179         2.2634 
 260   0.0000       0.086123         2.3435 
 261   0.0000       0.086834         2.3629 
 262   0.0000       0.089795         2.4434 
 263   0.0000       0.091234         2.4826 
 264   0.0000       0.092775         2.5245 
 265   0.0000       0.094337         2.5670 
 266   0.0000       0.094886         2.5820 
 267   0.0000       0.095735         2.6051 
 268   0.0000       0.098859         2.6901 
 269   0.0000       0.101834         2.7710 
 270   0.0000       0.106852         2.9076 
 271   0.0000       0.108470         2.9516 
 272   0.0000       0.110053         2.9947 
 273   0.0000       0.111876         3.0443 
 274   0.0000       0.114808         3.1241 
 275   0.0000       0.116463         3.1691 
 276   0.0000       0.117883         3.2078 
 277   0.0000       0.119235         3.2445 
 278   0.0000       0.121419         3.3040 
 279   0.0000       0.125247         3.4082 
 280   0.0000       0.126537         3.4432 
 281   0.0000       0.128189         3.4882 
 282   0.0000       0.130114         3.5406 
 283   0.0000       0.130600         3.5538 
 284   0.0000       0.131710         3.5840 
 285   0.0000       0.137771         3.7489 
 286   0.0000       0.140087         3.8120 
 287   0.0000       0.141383         3.8472 
 288   0.0000       0.144968         3.9448 
 289   0.0000       0.147932         4.0254 
 290   0.0000       0.150022         4.0823 
 291   0.0000       0.151277         4.1165 
 292   0.0000       0.152569         4.1516 
 293   0.0000       0.153307         4.1717 
 294   0.0000       0.155286         4.2255 
 295   0.0000       0.158585         4.3153 
 296   0.0000       0.160427         4.3654 
 297   0.0000       0.162067         4.4101 
 298   0.0000       0.163352         4.4450 
 299   0.0000       0.164286         4.4705 
 300   0.0000       0.167370         4.5544 
 301   0.0000       0.168201         4.5770 
 302   0.0000       0.170490         4.6393 
 303   0.0000       0.171987         4.6800 
 304   0.0000       0.173870         4.7312 
 305   0.0000       0.175124         4.7654 
 306   0.0000       0.176706         4.8084 
 307   0.0000       0.178864         4.8671 
 308   0.0000       0.180737         4.9181 
 309   0.0000       0.183026         4.9804 
 310   0.0000       0.186107         5.0642 
 311   0.0000       0.189103         5.1458 
 312   0.0000       0.191261         5.2045 
 313   0.0000       0.192484         5.2378 
 314   0.0000       0.194238         5.2855 
 315   0.0000       0.195421         5.3177 
 316   0.0000       0.196087         5.3358 
 317   0.0000       0.198625         5.4049 
 318   0.0000       0.201421         5.4809 
 319   0.0000       0.202480         5.5098 
 320   0.0000       0.203054         5.5254 
 321   0.0000       0.206277         5.6131 
 322   0.0000       0.207830         5.6553 
 323   0.0000       0.210379         5.7247 
 324   0.0000       0.211140         5.7454 
 325   0.0000       0.213208         5.8017 
 326   0.0000       0.213401         5.8069 
 327   0.0000       0.215057         5.8520 
 328   0.0000       0.217412         5.9161 
 329   0.0000       0.218752         5.9525 
 330   0.0000       0.220182         5.9915 
 331   0.0000       0.220917         6.0115 
 332   0.0000       0.224323         6.1042 
 333   0.0000       0.225885         6.1466 
 334   0.0000       0.229646         6.2490 
 335   0.0000       0.231268         6.2931 
 336   0.0000       0.233950         6.3661 
 337   0.0000       0.235842         6.4176 
 338   0.0000       0.237122         6.4524 
 339   0.0000       0.238928         6.5016 
 340   0.0000       0.239952         6.5294 
 341   0.0000       0.241897         6.5824 
 342   0.0000       0.242786         6.6065 
 343   0.0000       0.246365         6.7039 
 344   0.0000       0.249447         6.7878 
 345   0.0000       0.253667         6.9026 
 346   0.0000       0.257006         6.9935 
 347   0.0000       0.259218         7.0537 
 348   0.0000       0.259468         7.0605 
 349   0.0000       0.261916         7.1271 
 350   0.0000       0.262314         7.1379 
 351   0.0000       0.263662         7.1746 
 352   0.0000       0.264453         7.1961 
 353   0.0000       0.266709         7.2575 
 354   0.0000       0.267026         7.2661 
 355   0.0000       0.270464         7.3597 
 356   0.0000       0.272253         7.4084 
 357   0.0000       0.274890         7.4801 
 358   0.0000       0.277554         7.5526 
 359   0.0000       0.279614         7.6087 
 360   0.0000       0.281608         7.6629 
 361   0.0000       0.282603         7.6900 
 362   0.0000       0.284562         7.7433 
 363   0.0000       0.285617         7.7720 
 364   0.0000       0.288602         7.8533 
 365   0.0000       0.289010         7.8644 
 366   0.0000       0.292370         7.9558 
 367   0.0000       0.293486         7.9862 
 368   0.0000       0.294396         8.0109 
 369   0.0000       0.295109         8.0303 
 370   0.0000       0.296544         8.0694 
 371   0.0000       0.296882         8.0786 
 372   0.0000       0.300902         8.1879 
 373   0.0000       0.303545         8.2599 
 374   0.0000       0.303989         8.2720 
 375   0.0000       0.305686         8.3181 
 376   0.0000       0.306700         8.3457 
 377   0.0000       0.309428         8.4200 
 378   0.0000       0.311928         8.4880 
 379   0.0000       0.314310         8.5528 
 380   0.0000       0.316089         8.6012 
 381   0.0000       0.317206         8.6316 
 382   0.0000       0.318480         8.6663 
 383   0.0000       0.320643         8.7251 
 384   0.0000       0.322499         8.7756 
 385   0.0000       0.326225         8.8770 
 386   0.0000       0.327437         8.9100 
 387   0.0000       0.330751         9.0002 
 388   0.0000       0.332739         9.0543 
 389   0.0000       0.333981         9.0881 
 390   0.0000       0.335098         9.1185 
 391   0.0000       0.337453         9.1826 
 392   0.0000       0.338317         9.2061 
 393   0.0000       0.340041         9.2530 
 394   0.0000       0.341983         9.3058 
 395   0.0000       0.342792         9.3279 
 396   0.0000       0.344827         9.3832 
 397   0.0000       0.345991         9.4149 
 398   0.0000       0.347189         9.4475 
 399   0.0000       0.349360         9.5066 
 400   0.0000       0.352063         9.5801 
 401   0.0000       0.352637         9.5958 
 402   0.0000       0.352866         9.6020 
 403   0.0000       0.354442         9.6449 
 404   0.0000       0.355769         9.6810 
 405   0.0000       0.357630         9.7316 
 406   0.0000       0.359057         9.7704 
 407   0.0000       0.360094         9.7987 
 408   0.0000       0.361954         9.8493 
 409   0.0000       0.363614         9.8945 
 410   0.0000       0.365267         9.9394 
 411   0.0000       0.368356        10.0235 
 412   0.0000       0.369278        10.0486 
 413   0.0000       0.371864        10.1189 
 414   0.0000       0.373741        10.1700 
 415   0.0000       0.374346        10.1865 
 416   0.0000       0.376123        10.2348 
 417   0.0000       0.378299        10.2940 
 418   0.0000       0.379742        10.3333 
 419   0.0000       0.383327        10.4309 
 420   0.0000       0.385278        10.4840 
 421   0.0000       0.386450        10.5158 
 422   0.0000       0.388436        10.5699 
 423   0.0000       0.390525        10.6267 
 424   0.0000       0.391450        10.6519 
 425   0.0000       0.391916        10.6646 
 426   0.0000       0.394641        10.7387 
 427   0.0000       0.398900        10.8546 
 428   0.0000       0.398930        10.8554 
 429   0.0000       0.400247        10.8913 
 430   0.0000       0.403369        10.9762 
 431   0.0000       0.409050        11.1308 
 432   0.0000       0.409480        11.1425 
 433   0.0000       0.410788        11.1781 
 434   0.0000       0.411946        11.2096 
 435   0.0000       0.415369        11.3028 
 436   0.0000       0.417052        11.3486 
 437   0.0000       0.418967        11.4007 
 438   0.0000       0.420026        11.4295 
 439   0.0000       0.423178        11.5153 
 440   0.0000       0.425469        11.5776 
 441   0.0000       0.426840        11.6149 
 442   0.0000       0.431239        11.7346 
 443   0.0000       0.432505        11.7691 
 444   0.0000       0.433403        11.7935 
 445   0.0000       0.436407        11.8752 
 446   0.0000       0.437188        11.8965 
 447   0.0000       0.442105        12.0303 
 448   0.0000       0.443742        12.0748 
 449   0.0000       0.444845        12.1048 
 450   0.0000       0.445905        12.1337 
 451   0.0000       0.450608        12.2617 
 452   0.0000       0.453522        12.3410 
 453   0.0000       0.454550        12.3689 
 454   0.0000       0.456917        12.4333 
 455   0.0000       0.459933        12.5154 
 456   0.0000       0.461656        12.5623 
 457   0.0000       0.464477        12.6391 
 458   0.0000       0.467618        12.7245 
 459   0.0000       0.470135        12.7930 
 460   0.0000       0.472947        12.8696 
 461   0.0000       0.475497        12.9389 
 462   0.0000       0.479378        13.0445 
 463   0.0000       0.479644        13.0518 
 464   0.0000       0.481307        13.0970 
 465   0.0000       0.484640        13.1877 
 466   0.0000       0.488270        13.2865 
 467   0.0000       0.488552        13.2942 
 468   0.0000       0.490646        13.3511 
 469   0.0000       0.493646        13.4328 
 470   0.0000       0.497826        13.5465 
 471   0.0000       0.498620        13.5681 
 472   0.0000       0.499607        13.5950 
 473   0.0000       0.501263        13.6401 
 474   0.0000       0.504856        13.7378 
 475   0.0000       0.505738        13.7618 
 476   0.0000       0.508505        13.8371 
 477   0.0000       0.513190        13.9646 
 478   0.0000       0.515776        14.0350 
 479   0.0000       0.517793        14.0899 
 480   0.0000       0.519874        14.1465 
 481   0.0000       0.525633        14.3032 
 482   0.0000       0.526274        14.3206 
 483   0.0000       0.531108        14.4522 
 484   0.0000       0.535767        14.5790 
 485   0.0000       0.536567        14.6007 
 486   0.0000       0.537225        14.6186 
 487   0.0000       0.544373        14.8131 
 488   0.0000       0.546449        14.8696 
 489   0.0000       0.548966        14.9381 
 490   0.0000       0.550086        14.9686 
 491   0.0000       0.552354        15.0303 
 492   0.0000       0.555001        15.1023 
 493   0.0000       0.557065        15.1585 
 494   0.0000       0.558003        15.1840 
 495   0.0000       0.559395        15.2219 
 496   0.0000       0.561017        15.2661 
 497   0.0000       0.561146        15.2695 
 498   0.0000       0.567349        15.4384 
 499   0.0000       0.567476        15.4418 
 500   0.0000       0.570735        15.5305 
 501   0.0000       0.573077        15.5942 
 502   0.0000       0.577746        15.7213 
 503   0.0000       0.579665        15.7735 
 504   0.0000       0.582891        15.8613 
 505   0.0000       0.585657        15.9365 
 506   0.0000       0.586384        15.9563 
 507   0.0000       0.588731        16.0202 
 508   0.0000       0.591870        16.1056 
 509   0.0000       0.593968        16.1627 
 510   0.0000       0.597519        16.2593 
 511   0.0000       0.599848        16.3227 
 512   0.0000       0.603960        16.4346 
 513   0.0000       0.605160        16.4672 
 514   0.0000       0.607063        16.5190 
 515   0.0000       0.609233        16.5781 
 516   0.0000       0.612141        16.6572 
 517   0.0000       0.613771        16.7016 
 518   0.0000       0.617677        16.8078 
 519   0.0000       0.617943        16.8151 
 520   0.0000       0.620493        16.8845 
 521   0.0000       0.622344        16.9348 
 522   0.0000       0.623452        16.9650 
 523   0.0000       0.624134        16.9836 
 524   0.0000       0.625885        17.0312 
 525   0.0000       0.628339        17.0980 
 526   0.0000       0.629485        17.1291 
 527   0.0000       0.633454        17.2372 
 528   0.0000       0.636115        17.3096 
 529   0.0000       0.639270        17.3954 
 530   0.0000       0.641060        17.4441 
 531   0.0000       0.642934        17.4951 
 532   0.0000       0.644229        17.5304 
 533   0.0000       0.645191        17.5565 
 534   0.0000       0.647388        17.6163 
 535   0.0000       0.650657        17.7053 
 536   0.0000       0.651442        17.7266 
 537   0.0000       0.654147        17.8002 
 538   0.0000       0.655220        17.8294 
 539   0.0000       0.656151        17.8548 
 540   0.0000       0.657288        17.8857 
 541   0.0000       0.658825        17.9275 
 542   0.0000       0.661057        17.9883 
 543   0.0000       0.665153        18.0997 
 544   0.0000       0.666988        18.1497 
 545   0.0000       0.668002        18.1773 
 546   0.0000       0.671506        18.2726 
 547   0.0000       0.672900        18.3105 
 548   0.0000       0.673362        18.3231 
 549   0.0000       0.676760        18.4156 
 550   0.0000       0.677782        18.4434 
 551   0.0000       0.678387        18.4599 
 552   0.0000       0.682915        18.5831 
 553   0.0000       0.684035        18.6135 
 554   0.0000       0.689083        18.7509 
 555   0.0000       0.691967        18.8294 
 556   0.0000       0.694190        18.8899 
 557   0.0000       0.695986        18.9387 
 558   0.0000       0.699417        19.0321 
 559   0.0000       0.699895        19.0451 
 560   0.0000       0.702840        19.1252 
 561   0.0000       0.705046        19.1853 
 562   0.0000       0.708363        19.2755 
 563   0.0000       0.709497        19.3064 
 564   0.0000       0.710195        19.3254 
 565   0.0000       0.715275        19.4636 
 566   0.0000       0.716390        19.4940 
 567   0.0000       0.717257        19.5176 
 568   0.0000       0.719143        19.5689 
 569   0.0000       0.722780        19.6678 
 570   0.0000       0.725380        19.7386 
 571   0.0000       0.726346        19.7649 
 572   0.0000       0.730544        19.8791 
 573   0.0000       0.731115        19.8946 
 574   0.0000       0.734988        20.0001 
 575   0.0000       0.741108        20.1666 
 576   0.0000       0.744451        20.2575 
 577   0.0000       0.746171        20.3044 
 578   0.0000       0.747473        20.3398 
 579   0.0000       0.749946        20.4071 
 580   0.0000       0.751812        20.4579 
 581   0.0000       0.756594        20.5880 
 582   0.0000       0.758150        20.6303 
 583   0.0000       0.762200        20.7405 
 584   0.0000       0.762711        20.7544 
 585   0.0000       0.765501        20.8303 
 586   0.0000       0.769188        20.9307 
 587   0.0000       0.770015        20.9532 
 588   0.0000       0.771323        20.9888 
 589   0.0000       0.771581        20.9958 
 590   0.0000       0.773371        21.0445 
 591   0.0000       0.778622        21.1874 
 592   0.0000       0.780468        21.2376 
 593   0.0000       0.783034        21.3074 
 594   0.0000       0.784105        21.3366 
 595   0.0000       0.789935        21.4952 
 596   0.0000       0.790465        21.5096 
 597   0.0000       0.792343        21.5608 
 598   0.0000       0.796319        21.6689 
 599   0.0000       0.797131        21.6910 
 600   0.0000       0.802704        21.8427 
 601   0.0000       0.803541        21.8655 
 602   0.0000       0.806022        21.9330 
 603   0.0000       0.807375        21.9698 
 604   0.0000       0.810480        22.0543 
 605   0.0000       0.817099        22.2344 
 606   0.0000       0.817233        22.2380 
 607   0.0000       0.821549        22.3555 
 608   0.0000       0.822308        22.3761 
 609   0.0000       0.825769        22.4703 
 610   0.0000       0.828993        22.5580 
 611   0.0000       0.830998        22.6126 
 612   0.0000       0.833748        22.6874 
 613   0.0000       0.835815        22.7437 
 614   0.0000       0.837799        22.7977 
 615   0.0000       0.839031        22.8312 
 616   0.0000       0.843360        22.9490 
 617   0.0000       0.845044        22.9948 
 618   0.0000       0.849790        23.1239 
 619   0.0000       0.852525        23.1984 
 620   0.0000       0.854774        23.2596 
 621   0.0000       0.855629        23.2829 
 622   0.0000       0.858517        23.3614 
 623   0.0000       0.859577        23.3903 
 624   0.0000       0.863608        23.5000 
 625   0.0000       0.865077        23.5400 
 626   0.0000       0.867751        23.6127 
 627   0.0000       0.869483        23.6598 
 628   0.0000       0.875640        23.8274 
 629   0.0000       0.877692        23.8832 
 630   0.0000       0.879659        23.9367 
 631   0.0000       0.887728        24.1563 
 632   0.0000       0.891252        24.2522 
 633   0.0000       0.893170        24.3044 
 634   0.0000       0.894992        24.3540 
 635   0.0000       0.896343        24.3907 
 636   0.0000       0.901425        24.5290 
 637   0.0000       0.903187        24.5770 
 638   0.0000       0.909457        24.7476 
 639   0.0000       0.914348        24.8807 
 640   0.0000       0.921135        25.0654 
 641   0.0000       0.924289        25.1512 
 642   0.0000       0.928681        25.2707 
 643   0.0000       0.932493        25.3744 
 644   0.0000       0.935188        25.4477 
 645   0.0000       0.935912        25.4675 
 646   0.0000       0.941509        25.6198 
 647   0.0000       0.942239        25.6396 
 648   0.0000       0.943747        25.6807 
 649   0.0000       0.946623        25.7589 
 650   0.0000       0.952872        25.9290 
 651   0.0000       0.953735        25.9524 
 652   0.0000       0.956986        26.0409 
 653   0.0000       0.963067        26.2064 
 654   0.0000       0.969662        26.3859 
 655   0.0000       0.971211        26.4280 
 656   0.0000       0.973892        26.5009 
 657   0.0000       0.977798        26.6072 
 658   0.0000       0.979794        26.6615 
 659   0.0000       0.981498        26.7079 
 660   0.0000       0.984526        26.7903 
 661   0.0000       0.993227        27.0271 
 662   0.0000       0.995084        27.0776 
 663   0.0000       0.997045        27.1310 
 664   0.0000       0.998433        27.1687 
 665   0.0000       1.004121        27.3235 
 666   0.0000       1.005000        27.3474 
 667   0.0000       1.006570        27.3902 
 668   0.0000       1.009118        27.4595 
 669   0.0000       1.014300        27.6005 
 670   0.0000       1.016321        27.6555 
 671   0.0000       1.029317        28.0091 
 672   0.0000       1.031834        28.0776 
 673   0.0000       1.033883        28.1334 
 674   0.0000       1.037782        28.2395 
 675   0.0000       1.039504        28.2863 
 676   0.0000       1.042093        28.3568 
 677   0.0000       1.044711        28.4280 
 678   0.0000       1.046921        28.4882 
 679   0.0000       1.051155        28.6034 
 680   0.0000       1.052746        28.6467 
 681   0.0000       1.057107        28.7653 
 682   0.0000       1.059165        28.8214 
 683   0.0000       1.062358        28.9082 
 684   0.0000       1.067472        29.0474 
 685   0.0000       1.067834        29.0572 
 686   0.0000       1.076046        29.2807 
 687   0.0000       1.082015        29.4431 
 688   0.0000       1.086865        29.5751 
 689   0.0000       1.090249        29.6672 
 690   0.0000       1.093605        29.7585 
 691   0.0000       1.096191        29.8289 
 692   0.0000       1.097857        29.8742 
 693   0.0000       1.100738        29.9526 
 694   0.0000       1.101151        29.9638 
 695   0.0000       1.104757        30.0620 
 696   0.0000       1.108556        30.1653 
 697   0.0000       1.112258        30.2661 
 698   0.0000       1.116033        30.3688 
 699   0.0000       1.118281        30.4300 
 700   0.0000       1.121525        30.5182 
 701   0.0000       1.127323        30.6760 
 702   0.0000       1.128831        30.7170 
 703   0.0000       1.130393        30.7596 
 704   0.0000       1.135768        30.9058 
 705   0.0000       1.141637        31.0655 
 706   0.0000       1.145737        31.1771 
 707   0.0000       1.146372        31.1944 
 708   0.0000       1.150413        31.3043 
 709   0.0000       1.151727        31.3401 
 710   0.0000       1.155007        31.4293 
 711   0.0000       1.157140        31.4874 
 712   0.0000       1.160764        31.5860 
 713   0.0000       1.165466        31.7139 
 714   0.0000       1.171280        31.8721 
 715   0.0000       1.176217        32.0065 
 716   0.0000       1.179506        32.0960 
 717   0.0000       1.182184        32.1689 
 718   0.0000       1.183880        32.2150 
 719   0.0000       1.188960        32.3533 
 720   0.0000       1.190877        32.4054 
 721   0.0000       1.200800        32.6754 
 722   0.0000       1.202754        32.7286 
 723   0.0000       1.205067        32.7915 
 724   0.0000       1.206780        32.8382 
 725   0.0000       1.210777        32.9469 
 726   0.0000       1.211892        32.9773 
 727   0.0000       1.217321        33.1250 
 728   0.0000       1.221998        33.2523 
 729   0.0000       1.225242        33.3405 
 730   0.0000       1.225633        33.3512 
 731   0.0000       1.228730        33.4354 
 732   0.0000       1.232128        33.5279 
 733   0.0000       1.233330        33.5606 
 734   0.0000       1.234986        33.6057 
 735   0.0000       1.236097        33.6359 
 736   0.0000       1.237867        33.6841 
 737   0.0000       1.238737        33.7078 
 738   0.0000       1.240173        33.7468 
 739   0.0000       1.243111        33.8268 
 740   0.0000       1.247512        33.9465 
 741   0.0000       1.248955        33.9858 
 742   0.0000       1.254550        34.1381 
 743   0.0000       1.255564        34.1656 
 744   0.0000       1.263964        34.3942 
 745   0.0000       1.268145        34.5080 
 746   0.0000       1.270266        34.5657 
 747   0.0000       1.271858        34.6090 
 748   0.0000       1.275663        34.7126 
 749   0.0000       1.279225        34.8095 
 750   0.0000       1.282734        34.9050 
 751   0.0000       1.286850        35.0170 
 752   0.0000       1.290021        35.1033 
 753   0.0000       1.293248        35.1911 
 754   0.0000       1.296248        35.2727 
 755   0.0000       1.298711        35.3397 
 756   0.0000       1.303491        35.4698 
 757   0.0000       1.306576        35.5537 
 758   0.0000       1.310663        35.6650 
 759   0.0000       1.311132        35.6777 
 760   0.0000       1.314251        35.7626 
 761   0.0000       1.315697        35.8019 
 762   0.0000       1.318497        35.8781 
 763   0.0000       1.321021        35.9468 
 764   0.0000       1.322492        35.9868 
 765   0.0000       1.327604        36.1259 
 766   0.0000       1.334067        36.3018 
 767   0.0000       1.335032        36.3281 
 768   0.0000       1.337546        36.3965 
 769   0.0000       1.341368        36.5005 
 770   0.0000       1.348585        36.6969 
 771   0.0000       1.349868        36.7318 
 772   0.0000       1.351980        36.7892 
 773   0.0000       1.353470        36.8298 
 774   0.0000       1.364007        37.1165 
 775   0.0000       1.369380        37.2627 
 776   0.0000       1.372635        37.3513 
 777   0.0000       1.373394        37.3719 
 778   0.0000       1.377036        37.4711 
 779   0.0000       1.378367        37.5073 
 780   0.0000       1.378813        37.5194 
 781   0.0000       1.384028        37.6613 
 782   0.0000       1.390857        37.8471 
 783   0.0000       1.391027        37.8518 
 784   0.0000       1.393772        37.9265 
 785   0.0000       1.397163        38.0188 
 786   0.0000       1.398081        38.0437 
 787   0.0000       1.402579        38.1661 
 788   0.0000       1.408201        38.3191 
 789   0.0000       1.410721        38.3877 
 790   0.0000       1.411390        38.4059 
 791   0.0000       1.414519        38.4910 
 792   0.0000       1.415333        38.5132 
 793   0.0000       1.420453        38.6525 
 794   0.0000       1.422239        38.7011 
 795   0.0000       1.424569        38.7645 
 796   0.0000       1.425178        38.7811 
 797   0.0000       1.434696        39.0401 
 798   0.0000       1.436771        39.0965 
 799   0.0000       1.444058        39.2948 
 800   0.0000       1.446413        39.3589 
 801   0.0000       1.447096        39.3775 
 802   0.0000       1.449667        39.4475 
 803   0.0000       1.453263        39.5453 
 804   0.0000       1.455298        39.6007 
 805   0.0000       1.458163        39.6786 
 806   0.0000       1.460817        39.7508 
 807   0.0000       1.461353        39.7654 
 808   0.0000       1.463171        39.8149 
 809   0.0000       1.465121        39.8680 
 810   0.0000       1.466354        39.9015 
 811   0.0000       1.468720        39.9659 
 812   0.0000       1.472207        40.0608 
 813   0.0000       1.475180        40.1417 
 814   0.0000       1.479281        40.2533 
 815   0.0000       1.480421        40.2843 
 816   0.0000       1.482091        40.3298 
 817   0.0000       1.486938        40.4616 
 818   0.0000       1.488152        40.4947 
 819   0.0000       1.489771        40.5387 
 820   0.0000       1.490856        40.5682 
 821   0.0000       1.493161        40.6310 
 822   0.0000       1.496927        40.7335 
 823   0.0000       1.499393        40.8005 
 824   0.0000       1.501435        40.8561 
 825   0.0000       1.501744        40.8645 
 826   0.0000       1.502297        40.8796 
 827   0.0000       1.505869        40.9768 
 828   0.0000       1.510273        41.0966 
 829   0.0000       1.513150        41.1749 
 830   0.0000       1.515489        41.2386 
 831   0.0000       1.517478        41.2927 
 832   0.0000       1.519313        41.3426 
 833   0.0000       1.522743        41.4359 
 834   0.0000       1.529765        41.6270 
 835   0.0000       1.530750        41.6538 
 836   0.0000       1.531747        41.6810 
 837   0.0000       1.535645        41.7870 
 838   0.0000       1.539058        41.8799 
 839   0.0000       1.540847        41.9286 
 840   0.0000       1.549637        42.1678 
 841   0.0000       1.551046        42.2061 
 842   0.0000       1.553879        42.2832 
 843   0.0000       1.554233        42.2928 
 844   0.0000       1.556344        42.3503 
 845   0.0000       1.557739        42.3882 
 846   0.0000       1.559111        42.4256 
 847   0.0000       1.562119        42.5074 
 848   0.0000       1.566455        42.6254 
 849   0.0000       1.570263        42.7290 
 850   0.0000       1.570975        42.7484 
 851   0.0000       1.572866        42.7999 
 852   0.0000       1.574714        42.8501 
 853   0.0000       1.576438        42.8970 
 854   0.0000       1.578589        42.9556 
 855   0.0000       1.580079        42.9961 
 856   0.0000       1.582994        43.0754 
 857   0.0000       1.585269        43.1374 
 858   0.0000       1.590980        43.2928 
 859   0.0000       1.591928        43.3186 
 860   0.0000       1.593890        43.3720 
 861   0.0000       1.595331        43.4112 
 862   0.0000       1.598073        43.4858 
 863   0.0000       1.601387        43.5759 
 864   0.0000       1.605323        43.6831 
 865   0.0000       1.606737        43.7215 
 866   0.0000       1.608738        43.7760 
 867   0.0000       1.610710        43.8297 
 868   0.0000       1.612058        43.8663 
 869   0.0000       1.616520        43.9877 
 870   0.0000       1.617893        44.0251 
 871   0.0000       1.618968        44.0544 
 872   0.0000       1.619118        44.0584 
 873   0.0000       1.619939        44.0808 
 874   0.0000       1.625897        44.2429 
 875   0.0000       1.627061        44.2746 
 876   0.0000       1.630629        44.3717 
 877   0.0000       1.632916        44.4339 
 878   0.0000       1.634312        44.4719 
 879   0.0000       1.635272        44.4980 
 880   0.0000       1.638045        44.5735 
 881   0.0000       1.638473        44.5851 
 882   0.0000       1.641294        44.6619 
 883   0.0000       1.645024        44.7634 
 884   0.0000       1.649407        44.8826 
 885   0.0000       1.652513        44.9672 
 886   0.0000       1.657593        45.1054 
 887   0.0000       1.659562        45.1590 
 888   0.0000       1.664493        45.2932 
 889   0.0000       1.668187        45.3937 
 890   0.0000       1.668462        45.4011 
 891   0.0000       1.670716        45.4625 
 892   0.0000       1.672902        45.5220 
 893   0.0000       1.675850        45.6022 
 894   0.0000       1.680933        45.7405 
 895   0.0000       1.684727        45.8438 
 896   0.0000       1.686428        45.8900 
 897   0.0000       1.688393        45.9435 
 898   0.0000       1.691698        46.0334 
 899   0.0000       1.694535        46.1106 
 900   0.0000       1.697697        46.1967 
 901   0.0000       1.699109        46.2351 
 902   0.0000       1.701674        46.3049 
 903   0.0000       1.704287        46.3760 
 904   0.0000       1.705398        46.4062 
 905   0.0000       1.706872        46.4464 
 906   0.0000       1.707703        46.4689 
 907   0.0000       1.709211        46.5100 
 908   0.0000       1.711117        46.5619 
 909   0.0000       1.711878        46.5826 
 910   0.0000       1.719727        46.7962 
 911   0.0000       1.720617        46.8204 
 912   0.0000       1.724825        46.9349 
 913   0.0000       1.727751        47.0145 
 914   0.0000       1.731483        47.1160 
 915   0.0000       1.733972        47.1838 
 916   0.0000       1.736673        47.2573 
 917   0.0000       1.738534        47.3079 
 918   0.0000       1.742686        47.4209 
 919   0.0000       1.753678        47.7200 
 920   0.0000       1.757309        47.8188 
 921   0.0000       1.759670        47.8830 
 922   0.0000       1.762487        47.9597 
 923   0.0000       1.763480        47.9867 
 924   0.0000       1.772811        48.2406 
 925   0.0000       1.775030        48.3010 
 926   0.0000       1.779850        48.4322 
 927   0.0000       1.782484        48.5039 
 928   0.0000       1.784277        48.5526 
 929   0.0000       1.789179        48.6860 
 930   0.0000       1.791247        48.7423 
 931   0.0000       1.793701        48.8091 
 932   0.0000       1.800587        48.9965 
 933   0.0000       1.801360        49.0175 
 934   0.0000       1.802580        49.0507 
 935   0.0000       1.808409        49.2093 
 936   0.0000       1.814714        49.3809 
 937   0.0000       1.819323        49.5063 
 938   0.0000       1.821303        49.5602 
 939   0.0000       1.823964        49.6326 
 940   0.0000       1.824785        49.6549 
 941   0.0000       1.827398        49.7260 
 942   0.0000       1.830645        49.8144 
 943   0.0000       1.840636        50.0862 
 944   0.0000       1.845045        50.2062 
 945   0.0000       1.846739        50.2523 
 946   0.0000       1.848899        50.3111 
 947   0.0000       1.849918        50.3388 
 948   0.0000       1.854575        50.4656 
 949   0.0000       1.857058        50.5331 
 950   0.0000       1.858140        50.5626 
 951   0.0000       1.865235        50.7556 
 952   0.0000       1.870279        50.8929 
 953   0.0000       1.871702        50.9316 
 954   0.0000       1.875308        51.0297 
 955   0.0000       1.878594        51.1191 
 956   0.0000       1.881522        51.1988 
 957   0.0000       1.881818        51.2069 
 958   0.0000       1.886920        51.3457 
 959   0.0000       1.888638        51.3924 
 960   0.0000       1.895212        51.5713 
 961   0.0000       1.897369        51.6300 
 962   0.0000       1.901654        51.7466 
 963   0.0000       1.902927        51.7813 
 964   0.0000       1.904954        51.8364 
 965   0.0000       1.907612        51.9088 
 966   0.0000       1.914795        52.1042 
 967   0.0000       1.921611        52.2897 
 968   0.0000       1.923671        52.3458 
 969   0.0000       1.928073        52.4655 
 970   0.0000       1.929262        52.4979 
 971   0.0000       1.930295        52.5260 
 972   0.0000       1.936576        52.6969 
 973   0.0000       1.937678        52.7269 
 974   0.0000       1.937866        52.7320 
 975   0.0000       1.947921        53.0056 
 976   0.0000       1.949117        53.0382 
 977   0.0000       1.951036        53.0904 
 978   0.0000       1.952847        53.1397 
 979   0.0000       1.963219        53.4219 
 980   0.0000       1.973012        53.6884 
 981   0.0000       1.976218        53.7756 
 982   0.0000       1.981482        53.9189 
 983   0.0000       1.984008        53.9876 
 984   0.0000       1.988055        54.0977 
 985   0.0000       1.991705        54.1970 
 986   0.0000       1.999617        54.4123 
 987   0.0000       2.003123        54.5078 
 988   0.0000       2.008132        54.6441 
 989   0.0000       2.008665        54.6585 
 990   0.0000       2.010883        54.7189 
 991   0.0000       2.016245        54.8648 
 992   0.0000       2.019186        54.9448 
 993   0.0000       2.020991        54.9940 
 994   0.0000       2.025486        55.1163 
 995   0.0000       2.032287        55.3013 
 996   0.0000       2.034526        55.3623 
 997   0.0000       2.037063        55.4313 
 998   0.0000       2.037561        55.4449 
 999   0.0000       2.039825        55.5064 
 1000   0.0000       2.043493        55.6063 
 1001   0.0000       2.047555        55.7168 
 1002   0.0000       2.051778        55.8317 
 1003   0.0000       2.058883        56.0251 
 1004   0.0000       2.059815        56.0504 
 1005   0.0000       2.064295        56.1723 
 1006   0.0000       2.064908        56.1890 
 1007   0.0000       2.067965        56.2722 
 1008   0.0000       2.068585        56.2891 
 1009   0.0000       2.072531        56.3964 
 1010   0.0000       2.077531        56.5325 
 1011   0.0000       2.083427        56.6929 
 1012   0.0000       2.085906        56.7604 
 1013   0.0000       2.087664        56.8082 
 1014   0.0000       2.091548        56.9139 
 1015   0.0000       2.094993        57.0077 
 1016   0.0000       2.095892        57.0321 
 1017   0.0000       2.100632        57.1611 
 1018   0.0000       2.106524        57.3214 
 1019   0.0000       2.112024        57.4711 
 1020   0.0000       2.114796        57.5465 
 1021   0.0000       2.115460        57.5646 
 1022   0.0000       2.122539        57.7572 
 1023   0.0000       2.125350        57.8337 
 1024   0.0000       2.127264        57.8858 
 1025   0.0000       2.132595        58.0309 
 1026   0.0000       2.134414        58.0804 
 1027   0.0000       2.135656        58.1142 
 1028   0.0000       2.140698        58.2513 
 1029   0.0000       2.145949        58.3942 
 1030   0.0000       2.151151        58.5358 
 1031   0.0000       2.153284        58.5938 
 1032   0.0000       2.155074        58.6425 
 1033   0.0000       2.158285        58.7299 
 1034   0.0000       2.160611        58.7932 
 1035   0.0000       2.161745        58.8241 
 1036   0.0000       2.164076        58.8875 
 1037   0.0000       2.167119        58.9703 
 1038   0.0000       2.168940        59.0198 
 1039   0.0000       2.172403        59.1141 
 1040   0.0000       2.177574        59.2548 
 1041   0.0000       2.184979        59.4563 
 1042   0.0000       2.186133        59.4877 
 1043   0.0000       2.189633        59.5830 
 1044   0.0000       2.194842        59.7247 
 1045   0.0000       2.200247        59.8718 
 1046   0.0000       2.204158        59.9782 
 1047   0.0000       2.207568        60.0710 
 1048   0.0000       2.209119        60.1132 
 1049   0.0000       2.212761        60.2123 
 1050   0.0000       2.216769        60.3213 
 1051   0.0000       2.219912        60.4069 
 1052   0.0000       2.225004        60.5454 
 1053   0.0000       2.230763        60.7022 
 1054   0.0000       2.231934        60.7340 
 1055   0.0000       2.235187        60.8225 
 1056   0.0000       2.238778        60.9202 
 1057   0.0000       2.239830        60.9489 
 1058   0.0000       2.244636        61.0796 
 1059   0.0000       2.251100        61.2555 
 1060   0.0000       2.256977        61.4155 
 1061   0.0000       2.260460        61.5102 
 1062   0.0000       2.262617        61.5689 
 1063   0.0000       2.266146        61.6650 
 1064   0.0000       2.270881        61.7938 
 1065   0.0000       2.277709        61.9796 
 1066   0.0000       2.281660        62.0871 
 1067   0.0000       2.282108        62.0993 
 1068   0.0000       2.287071        62.2344 
 1069   0.0000       2.292175        62.3733 
 1070   0.0000       2.302522        62.6548 
 1071   0.0000       2.309076        62.8331 
 1072   0.0000       2.320397        63.1412 
 1073   0.0000       2.325696        63.2854 
 1074   0.0000       2.336281        63.5734 
 1075   0.0000       2.340512        63.6886 
 1076   0.0000       2.345119        63.8139 
 1077   0.0000       2.346546        63.8528 
 1078   0.0000       2.353377        64.0387 
 1079   0.0000       2.353930        64.0537 
 1080   0.0000       2.360296        64.2269 
 1081   0.0000       2.362272        64.2807 
 1082   0.0000       2.376725        64.6740 
 1083   0.0000       2.379710        64.7552 
 1084   0.0000       2.382126        64.8209 
 1085   0.0000       2.384530        64.8864 
 1086   0.0000       2.385112        64.9022 
 1087   0.0000       2.387406        64.9646 
 1088   0.0000       2.393558        65.1320 
 1089   0.0000       2.394337        65.1532 
 1090   0.0000       2.399854        65.3033 
 1091   0.0000       2.406737        65.4906 
 1092   0.0000       2.408208        65.5307 
 1093   0.0000       2.408421        65.5365 
 1094   0.0000       2.412802        65.6557 
 1095   0.0000       2.413851        65.6842 
 1096   0.0000       2.421775        65.8998 
 1097   0.0000       2.434858        66.2558 
 1098   0.0000       2.438250        66.3482 
 1099   0.0000       2.442722        66.4698 
 1100   0.0000       2.447059        66.5878 
 1101   0.0000       2.456333        66.8402 
 1102   0.0000       2.462511        67.0083 
 1103   0.0000       2.464839        67.0717 
 1104   0.0000       2.468151        67.1618 
 1105   0.0000       2.482823        67.5610 
 1106   0.0000       2.484940        67.6186 
 1107   0.0000       2.488306        67.7103 
 1108   0.0000       2.490357        67.7661 
 1109   0.0000       2.495701        67.9115 
 1110   0.0000       2.496917        67.9446 
 1111   0.0000       2.499562        68.0166 
 1112   0.0000       2.502011        68.0832 
 1113   0.0000       2.503322        68.1188 
 1114   0.0000       2.509321        68.2821 
 1115   0.0000       2.512081        68.3572 
 1116   0.0000       2.515411        68.4478 
 1117   0.0000       2.521488        68.6132 
 1118   0.0000       2.524981        68.7082 
 1119   0.0000       2.532147        68.9032 
 1120   0.0000       2.536815        69.0303 
 1121   0.0000       2.541551        69.1591 
 1122   0.0000       2.543802        69.2204 
 1123   0.0000       2.546961        69.3063 
 1124   0.0000       2.551685        69.4349 
 1125   0.0000       2.553939        69.4962 
 1126   0.0000       2.560077        69.6632 
 1127   0.0000       2.566395        69.8351 
 1128   0.0000       2.569462        69.9186 
 1129   0.0000       2.573477        70.0279 
 1130   0.0000       2.578145        70.1549 
 1131   0.0000       2.580623        70.2223 
 1132   0.0000       2.586622        70.3856 
 1133   0.0000       2.588434        70.4349 
 1134   0.0000       2.589395        70.4610 
 1135   0.0000       2.593756        70.5797 
 1136   0.0000       2.598021        70.6957 
 1137   0.0000       2.601076        70.7789 
 1138   0.0000       2.601814        70.7990 
 1139   0.0000       2.602177        70.8088 
 1140   0.0000       2.602497        70.8175 
 1141   0.0000       2.607506        70.9538 
 1142   0.0000       2.607830        70.9627 
 1143   0.0000       2.614715        71.1500 
 1144   0.0000       2.616308        71.1934 
 1145   0.0000       2.618200        71.2448 
 1146   0.0000       2.619931        71.2920 
 1147   0.0000       2.620158        71.2981 
 1148   0.0000       2.627276        71.4918 
 1149   0.0000       2.629764        71.5595 
 1150   0.0000       2.635100        71.7047 
 1151   0.0000       2.636804        71.7511 
 1152   0.0000       2.638690        71.8024 
 1153   0.0000       2.641531        71.8797 
 1154   0.0000       2.644208        71.9526 
 1155   0.0000       2.650376        72.1204 
 1156   0.0000       2.653881        72.2158 
 1157   0.0000       2.655420        72.2577 
 1158   0.0000       2.657674        72.3190 
 1159   0.0000       2.658872        72.3516 
 1160   0.0000       2.663538        72.4786 
 1161   0.0000       2.665802        72.5402 
 1162   0.0000       2.668060        72.6016 
 1163   0.0000       2.669414        72.6385 
 1164   0.0000       2.671989        72.7085 
 1165   0.0000       2.673777        72.7572 
 1166   0.0000       2.674673        72.7816 
 1167   0.0000       2.676380        72.8280 
 1168   0.0000       2.680016        72.9269 
 1169   0.0000       2.681237        72.9602 
 1170   0.0000       2.683784        73.0295 
 1171   0.0000       2.685659        73.0805 
 1172   0.0000       2.686931        73.1151 
 1173   0.0000       2.689762        73.1921 
 1174   0.0000       2.693315        73.2888 
 1175   0.0000       2.697818        73.4114 
 1176   0.0000       2.700272        73.4781 
 1177   0.0000       2.701384        73.5084 
 1178   0.0000       2.702128        73.5286 
 1179   0.0000       2.703652        73.5701 
 1180   0.0000       2.707002        73.6613 
 1181   0.0000       2.708822        73.7108 
 1182   0.0000       2.711958        73.7961 
 1183   0.0000       2.712569        73.8128 
 1184   0.0000       2.714852        73.8749 
 1185   0.0000       2.715687        73.8976 
 1186   0.0000       2.718117        73.9637 
 1187   0.0000       2.720605        74.0314 
 1188   0.0000       2.722525        74.0837 
 1189   0.0000       2.723702        74.1157 
 1190   0.0000       2.727865        74.2290 
 1191   0.0000       2.730078        74.2892 
 1192   0.0000       2.742458        74.6261 
 1193   0.0000       2.746960        74.7486 
 1194   0.0000       2.749039        74.8052 
 1195   0.0000       2.749902        74.8286 
 1196   0.0000       2.750512        74.8452 
 1197   0.0000       2.753482        74.9261 
 1198   0.0000       2.754095        74.9427 
 1199   0.0000       2.758630        75.0661 
 1200   0.0000       2.763096        75.1877 
 1201   0.0000       2.765198        75.2449 
 1202   0.0000       2.766232        75.2730 
 1203   0.0000       2.767706        75.3131 
 1204   0.0000       2.772246        75.4367 
 1205   0.0000       2.772978        75.4566 
 1206   0.0000       2.776574        75.5544 
 1207   0.0000       2.778435        75.6050 
 1208   0.0000       2.780870        75.6713 
 1209   0.0000       2.784370        75.7666 
 1210   0.0000       2.786406        75.8220 
 1211   0.0000       2.788162        75.8698 
 1212   0.0000       2.791865        75.9705 
 1213   0.0000       2.793071        76.0033 
 1214   0.0000       2.797832        76.1329 
 1215   0.0000       2.799298        76.1728 
 1216   0.0000       2.804018        76.3012 
 1217   0.0000       2.805623        76.3449 
 1218   0.0000       2.810193        76.4692 
 1219   0.0000       2.812509        76.5323 
 1220   0.0000       2.814143        76.5767 
 1221   0.0000       2.816401        76.6382 
 1222   0.0000       2.816987        76.6541 
 1223   0.0000       2.819221        76.7149 
 1224   0.0000       2.822922        76.8156 
 1225   0.0000       2.829803        77.0028 
 1226   0.0000       2.836417        77.1828 
 1227   0.0000       2.838700        77.2449 
 1228   0.0000       2.842973        77.3612 
 1229   0.0000       2.843994        77.3890 
 1230   0.0000       2.846484        77.4568 
 1231   0.0000       2.848574        77.5136 
 1232   0.0000       2.851479        77.5927 
 1233   0.0000       2.852379        77.6172 
 1234   0.0000       2.856903        77.7403 
 1235   0.0000       2.860946        77.8503 
 1236   0.0000       2.861394        77.8625 
 1237   0.0000       2.861719        77.8713 
 1238   0.0000       2.863919        77.9312 
 1239   0.0000       2.864245        77.9401 
 1240   0.0000       2.867855        78.0383 
 1241   0.0000       2.871814        78.1460 
 1242   0.0000       2.873373        78.1885 
 1243   0.0000       2.875178        78.2376 
 1244   0.0000       2.877632        78.3043 
 1245   0.0000       2.881521        78.4102 
 1246   0.0000       2.886652        78.5498 
 1247   0.0000       2.888484        78.5996 
 1248   0.0000       2.890561        78.6562 
 1249   0.0000       2.893597        78.7388 
 1250   0.0000       2.896945        78.8299 
 1251   0.0000       2.898502        78.8722 
 1252   0.0000       2.900646        78.9306 
 1253   0.0000       2.904411        79.0330 
 1254   0.0000       2.907359        79.1133 
 1255   0.0000       2.909207        79.1636 
 1256   0.0000       2.910776        79.2063 
 1257   0.0000       2.914845        79.3170 
 1258   0.0000       2.921239        79.4910 
 1259   0.0000       2.922937        79.5372 
 1260   0.0000       2.925499        79.6069 
 1261   0.0000       2.927006        79.6479 
 1262   0.0000       2.929538        79.7168 
 1263   0.0000       2.932238        79.7902 
 1264   0.0000       2.933520        79.8251 
 1265   0.0000       2.936314        79.9012 
 1266   0.0000       2.938251        79.9539 
 1267   0.0000       2.941645        80.0462 
 1268   0.0000       2.945555        80.1526 
 1269   0.0000       2.948988        80.2460 
 1270   0.0000       2.952406        80.3391 
 1271   0.0000       2.953950        80.3811 
 1272   0.0000       2.960738        80.5658 
 1273   0.0000       2.962951        80.6260 
 1274   0.0000       2.967297        80.7443 
 1275   0.0000       2.969660        80.8086 
 1276   0.0000       2.971918        80.8700 
 1277   0.0000       2.972729        80.8921 
 1278   0.0000       2.974244        80.9333 
 1279   0.0000       2.981913        81.1420 
 1280   0.0000       2.984597        81.2150 
 1281   0.0000       2.985657        81.2439 
 1282   0.0000       2.993887        81.4678 
 1283   0.0000       2.994796        81.4925 
 1284   0.0000       2.997342        81.5618 
 1285   0.0000       3.006183        81.8024 
 1286   0.0000       3.012573        81.9763 
 1287   0.0000       3.012833        81.9834 
 1288   0.0000       3.014706        82.0343 
 1289   0.0000       3.018355        82.1336 
 1290   0.0000       3.019660        82.1691 
 1291   0.0000       3.022105        82.2357 
 1292   0.0000       3.025728        82.3343 
 1293   0.0000       3.030758        82.4711 
 1294   0.0000       3.032817        82.5272 
 1295   0.0000       3.036240        82.6203 
 1296   0.0000       3.039001        82.6954 
 1297   0.0000       3.041712        82.7692 
 1298   0.0000       3.042831        82.7996 
 1299   0.0000       3.047095        82.9157 
 1300   0.0000       3.049161        82.9719 
 1301   0.0000       3.051643        83.0394 
 1302   0.0000       3.054946        83.1293 
 1303   0.0000       3.059255        83.2466 
 1304   0.0000       3.065977        83.4295 
 1305   0.0000       3.066864        83.4536 
 1306   0.0000       3.071395        83.5769 
 1307   0.0000       3.071840        83.5890 
 1308   0.0000       3.073857        83.6439 
 1309   0.0000       3.077257        83.7364 
 1310   0.0000       3.079797        83.8055 
 1311   0.0000       3.082677        83.8839 
 1312   0.0000       3.089978        84.0826 
 1313   0.0000       3.091339        84.1196 
 1314   0.0000       3.093966        84.1911 
 1315   0.0000       3.095135        84.2229 
 1316   0.0000       3.096798        84.2682 
 1317   0.0000       3.098208        84.3065 
 1318   0.0000       3.102700        84.4288 
 1319   0.0000       3.106752        84.5390 
 1320   0.0000       3.110854        84.6506 
 1321   0.0000       3.112276        84.6893 
 1322   0.0000       3.113969        84.7354 
 1323   0.0000       3.116396        84.8014 
 1324   0.0000       3.118622        84.8620 
 1325   0.0000       3.123603        84.9975 
 1326   0.0000       3.127513        85.1039 
 1327   0.0000       3.129855        85.1677 
 1328   0.0000       3.130668        85.1898 
 1329   0.0000       3.132885        85.2501 
 1330   0.0000       3.136690        85.3537 
 1331   0.0000       3.138219        85.3953 
 1332   0.0000       3.141818        85.4932 
 1333   0.0000       3.143611        85.5420 
 1334   0.0000       3.146934        85.6324 
 1335   0.0000       3.148848        85.6845 
 1336   0.0000       3.150931        85.7412 
 1337   0.0000       3.152388        85.7808 
 1338   0.0000       3.156271        85.8865 
 1339   0.0000       3.159780        85.9820 
 1340   0.0000       3.162887        86.0665 
 1341   0.0000       3.163281        86.0773 
 1342   0.0000       3.166998        86.1784 
 1343   0.0000       3.167835        86.2012 
 1344   0.0000       3.171643        86.3048 
 1345   0.0000       3.174593        86.3851 
 1346   0.0000       3.178881        86.5018 
 1347   0.0000       3.180954        86.5582 
 1348   0.0000       3.183813        86.6360 
 1349   0.0000       3.187064        86.7244 
 1350   0.0000       3.188419        86.7613 
 1351   0.0000       3.189580        86.7929 
 1352   0.0000       3.193052        86.8874 
 1353   0.0000       3.195815        86.9625 
 1354   0.0000       3.200107        87.0793 
 1355   0.0000       3.203339        87.1673 
 1356   0.0000       3.207127        87.2704 
 1357   0.0000       3.207687        87.2856 
 1358   0.0000       3.212088        87.4054 
 1359   0.0000       3.215047        87.4859 
 1360   0.0000       3.217341        87.5483 
 1361   0.0000       3.219768        87.6143 
 1362   0.0000       3.222822        87.6975 
 1363   0.0000       3.226236        87.7904 
 1364   0.0000       3.229011        87.8658 
 1365   0.0000       3.233635        87.9917 
 1366   0.0000       3.236706        88.0752 
 1367   0.0000       3.238843        88.1334 
 1368   0.0000       3.242510        88.2332 
 1369   0.0000       3.243481        88.2596 
 1370   0.0000       3.246683        88.3467 
 1371   0.0000       3.252216        88.4973 
 1372   0.0000       3.257542        88.6422 
 1373   0.0000       3.261639        88.7537 
 1374   0.0000       3.265565        88.8605 
 1375   0.0000       3.270054        88.9827 
 1376   0.0000       3.272358        89.0454 
 1377   0.0000       3.274573        89.1057 
 1378   0.0000       3.274985        89.1169 
 1379   0.0000       3.277174        89.1764 
 1380   0.0000       3.278008        89.1991 
 1381   0.0000       3.278891        89.2232 
 1382   0.0000       3.282578        89.3235 
 1383   0.0000       3.285164        89.3939 
 1384   0.0000       3.287593        89.4600 
 1385   0.0000       3.289769        89.5192 
 1386   0.0000       3.293662        89.6251 
 1387   0.0000       3.294858        89.6576 
 1388   0.0000       3.297004        89.7160 
 1389   0.0000       3.303030        89.8800 
 1390   0.0000       3.304085        89.9087 
 1391   0.0000       3.307818        90.0103 
 1392   0.0000       3.310487        90.0829 
 1393   0.0000       3.313686        90.1700 
 1394   0.0000       3.315020        90.2063 
 1395   0.0000       3.317920        90.2852 
 1396   0.0000       3.321622        90.3859 
 1397   0.0000       3.323787        90.4448 
 1398   0.0000       3.326535        90.5196 
 1399   0.0000       3.328256        90.5664 
 1400   0.0000       3.329694        90.6056 
 1401   0.0000       3.333380        90.7059 
 1402   0.0000       3.336232        90.7835 
 1403   0.0000       3.337689        90.8231 
 1404   0.0000       3.342074        90.9425 
 1405   0.0000       3.345200        91.0275 
 1406   0.0000       3.346714        91.0687 
 1407   0.0000       3.348664        91.1218 
 1408   0.0000       3.350152        91.1623 
 1409   0.0000       3.352048        91.2139 
 1410   0.0000       3.354539        91.2816 
 1411   0.0000       3.355444        91.3063 
 1412   0.0000       3.360505        91.4440 
 1413   0.0000       3.364019        91.5396 
 1414   0.0000       3.366153        91.5977 
 1415   0.0000       3.368488        91.6612 
 1416   0.0000       3.369546        91.6900 
 1417   0.0000       3.372081        91.7590 
 1418   0.0000       3.375952        91.8643 
 1419   0.0000       3.377166        91.8973 
 1420   0.0000       3.381640        92.0191 
 1421   0.0000       3.383531        92.0706 
 1422   0.0000       3.387801        92.1868 
 1423   0.0000       3.388445        92.2043 
 1424   0.0000       3.390505        92.2603 
 1425   0.0000       3.391710        92.2931 
 1426   0.0000       3.393200        92.3337 
 1427   0.0000       3.396585        92.4258 
 1428   0.0000       3.400939        92.5442 
 1429   0.0000       3.402184        92.5781 
 1430   0.0000       3.403903        92.6249 
 1431   0.0000       3.409334        92.7727 
 1432   0.0000       3.409975        92.7901 
 1433   0.0000       3.412845        92.8682 
 1434   0.0000       3.413282        92.8801 
 1435   0.0000       3.415869        92.9505 
 1436   0.0000       3.419206        93.0413 
 1437   0.0000       3.421448        93.1023 
 1438   0.0000       3.424235        93.1782 
 1439   0.0000       3.426501        93.2398 
 1440   0.0000       3.427426        93.2650 
 1441   0.0000       3.433399        93.4275 
 1442   0.0000       3.434286        93.4517 
 1443   0.0000       3.436951        93.5242 
 1444   0.0000       3.437978        93.5521 
 1445   0.0000       3.440280        93.6148 
 1446   0.0000       3.443538        93.7034 
 1447   0.0000       3.445378        93.7535 
 1448   0.0000       3.448233        93.8312 
 1449   0.0000       3.449387        93.8626 
 1450   0.0000       3.453862        93.9844 
 1451   0.0000       3.455241        94.0219 
 1452   0.0000       3.456178        94.0474 
 1453   0.0000       3.462021        94.2064 
 1454   0.0000       3.463254        94.2399 
 1455   0.0000       3.464195        94.2655 
 1456   0.0000       3.466649        94.3323 
 1457   0.0000       3.474730        94.5522 
 1458   0.0000       3.476012        94.5871 
 1459   0.0000       3.476709        94.6061 
 1460   0.0000       3.479528        94.6828 
 1461   0.0000       3.481689        94.7416 
 1462   0.0000       3.485500        94.8453 
 1463   0.0000       3.488067        94.9151 
 1464   0.0000       3.490191        94.9729 
 1465   0.0000       3.491739        95.0150 
 1466   0.0000       3.500777        95.2610 
 1467   0.0000       3.505019        95.3764 
 1468   0.0000       3.506767        95.4240 
 1469   0.0000       3.512444        95.5785 
 1470   0.0000       3.514821        95.6431 
 1471   0.0000       3.517029        95.7032 
 1472   0.0000       3.520628        95.8012 
 1473   0.0000       3.527090        95.9770 
 1474   0.0000       3.531048        96.0847 
 1475   0.0000       3.536536        96.2340 
 1476   0.0000       3.538272        96.2813 
 1477   0.0000       3.542046        96.3840 
 1478   0.0000       3.544009        96.4374 
 1479   0.0000       3.545810        96.4864 
 1480   0.0000       3.548149        96.5500 
 1481   0.0000       3.558104        96.8209 
 1482   0.0000       3.564748        97.0017 
 1483   0.0000       3.565853        97.0318 
 1484   0.0000       3.571186        97.1769 
 1485   0.0000       3.576833        97.3306 
 1486   0.0000       3.580352        97.4263 
 1487   0.0000       3.581328        97.4529 
 1488   0.0000       3.583419        97.5098 
 1489   0.0000       3.587053        97.6087 
 1490   0.0000       3.589125        97.6651 
 1491   0.0000       3.590358        97.6986 
 1492   0.0000       3.598637        97.9239 
 1493   0.0000       3.601491        98.0016 
 1494   0.0000       3.609825        98.2283 
 1495   0.0000       3.612428        98.2992 
 1496   0.0000       3.613702        98.3338 
 1497   0.0000       3.615890        98.3934 
 1498   0.0000       3.618815        98.4730 
 1499   0.0000       3.621414        98.5437 
 1500   0.0000       3.628957        98.7489 
 1501   0.0000       3.632646        98.8493 
 1502   0.0000       3.638111        98.9980 
 1503   0.0000       3.643690        99.1498 
 1504   0.0000       3.645717        99.2050 
 1505   0.0000       3.648797        99.2888 
 1506   0.0000       3.655228        99.4638 
 1507   0.0000       3.659864        99.5900 
 1508   0.0000       3.668328        99.8203 
 1509   0.0000       3.672759        99.9408 
 1510   0.0000       3.677558       100.0714 
 1511   0.0000       3.681957       100.1912 
 1512   0.0000       3.690498       100.4236 
 1513   0.0000       3.692182       100.4694 
 1514   0.0000       3.705269       100.8255 
 1515   0.0000       3.709763       100.9478 
 1516   0.0000       3.711639       100.9988 
 1517   0.0000       3.716402       101.1284 
 1518   0.0000       3.719047       101.2004 
 1519   0.0000       3.724412       101.3464 
 1520   0.0000       3.727953       101.4428 
 1521   0.0000       3.734339       101.6165 
 1522   0.0000       3.738662       101.7342 
 1523   0.0000       3.752862       102.1206 
 1524   0.0000       3.758578       102.2761 
 1525   0.0000       3.765727       102.4706 
 1526   0.0000       3.767797       102.5270 
 1527   0.0000       3.776603       102.7666 
 1528   0.0000       3.778132       102.8082 
 1529   0.0000       3.784478       102.9809 
 1530   0.0000       3.786359       103.0321 
 1531   0.0000       3.788486       103.0900 
 1532   0.0000       3.794072       103.2420 
 1533   0.0000       3.807304       103.6020 
 1534   0.0000       3.816350       103.8482 
 1535   0.0000       3.819073       103.9223 
 1536   0.0000       3.825523       104.0978 
 1537   0.0000       3.828872       104.1889 
 1538   0.0000       3.833229       104.3075 
 1539   0.0000       3.838720       104.4569 
 1540   0.0000       3.844112       104.6036 
 1541   0.0000       3.848233       104.7157 
 1542   0.0000       3.852137       104.8220 
 1543   0.0000       3.853656       104.8633 
 1544   0.0000       3.867066       105.2282 
 1545   0.0000       3.878013       105.5261 
 1546   0.0000       3.881008       105.6076 
 1547   0.0000       3.884743       105.7092 
 1548   0.0000       3.891568       105.8950 
 1549   0.0000       3.895397       105.9992 
 1550   0.0000       3.895732       106.0083 
 1551   0.0000       3.909853       106.3925 
 1552   0.0000       3.912028       106.4517 
 1553   0.0000       3.915720       106.5522 
 1554   0.0000       3.918080       106.6164 
 1555   0.0000       3.921947       106.7216 
 1556   0.0000       3.924685       106.7961 
 1557   0.0000       3.925415       106.8160 
 1558   0.0000       3.932305       107.0035 
 1559   0.0000       3.934522       107.0638 
 1560   0.0000       3.937639       107.1486 
 1561   0.0000       3.943201       107.2999 
 1562   0.0000       3.946109       107.3791 
 1563   0.0000       3.951629       107.5293 
 1564   0.0000       3.956293       107.6562 
 1565   0.0000       3.962452       107.8238 
 1566   0.0000       3.969653       108.0198 
 1567   0.0000       3.977509       108.2335 
 1568   0.0000       3.983734       108.4029 
 1569   0.0000       3.988530       108.5334 
 1570   0.0000       3.995490       108.7228 
 1571   0.0000       3.997278       108.7715 
 1572   0.0000       4.001247       108.8795 
 1573   0.0000       4.017566       109.3235 
 1574   0.0000       4.020996       109.4169 
 1575   0.0000       4.030266       109.6691 
 1576   0.0000       4.033839       109.7663 
 1577   0.0000       4.040309       109.9424 
 1578   0.0000       4.047751       110.1449 
 1579   0.0000       4.048292       110.1596 
 1580   0.0000       4.055740       110.3623 
 1581   0.0000       4.058796       110.4455 
 1582   0.0000       4.062057       110.5342 
 1583   0.0000       4.065410       110.6254 
 1584   0.0000       4.068459       110.7084 
 1585   0.0000       4.069420       110.7346 
 1586   0.0000       4.073569       110.8474 
 1587   0.0000       4.076166       110.9181 
 1588   0.0000       4.079427       111.0069 
 1589   0.0000       4.080570       111.0380 
 1590   0.0000       4.085591       111.1746 
 1591   0.0000       4.087647       111.2305 
 1592   0.0000       4.090471       111.3074 
 1593   0.0000       4.092151       111.3531 
 1594   0.0000       4.097346       111.4944 
 1595   0.0000       4.100883       111.5907 
 1596   0.0000       4.103553       111.6634 
 1597   0.0000       4.112085       111.8955 
 1598   0.0000       4.113009       111.9207 
 1599   0.0000       4.117661       112.0472 
 1600   0.0000       4.125521       112.2611 
 1601   0.0000       4.127722       112.3210 
 1602   0.0000       4.130675       112.4014 
 1603   0.0000       4.141597       112.6986 
 1604   0.0000       4.145007       112.7914 
 1605   0.0000       4.146207       112.8240 
 1606   0.0000       4.153818       113.0311 
 1607   0.0000       4.157746       113.1380 
 1608   0.0000       4.161209       113.2323 
 1609   0.0000       4.162559       113.2690 
 1610   0.0000       4.164005       113.3083 
 1611   0.0000       4.168698       113.4360 
 1612   0.0000       4.169099       113.4469 
 1613   0.0000       4.178848       113.7122 
 1614   0.0000       4.185883       113.9037 
 1615   0.0000       4.192144       114.0740 
 1616   0.0000       4.196728       114.1988 
 1617   0.0000       4.200156       114.2920 
 1618   0.0000       4.203127       114.3729 
 1619   0.0000       4.204557       114.4118 
 1620   0.0000       4.206029       114.4519 
 1621   0.0000       4.209467       114.5454 
 1622   0.0000       4.213688       114.6603 
 1623   0.0000       4.214123       114.6721 
 1624   0.0000       4.216091       114.7257 
 1625   0.0000       4.219587       114.8208 
 1626   0.0000       4.221880       114.8832 
 1627   0.0000       4.225050       114.9694 
 1628   0.0000       4.226250       115.0021 
 1629   0.0000       4.227475       115.0354 
 1630   0.0000       4.236818       115.2897 
 1631   0.0000       4.238845       115.3448 
 1632   0.0000       4.241650       115.4212 
 1633   0.0000       4.242023       115.4313 
 1634   0.0000       4.251279       115.6832 
 1635   0.0000       4.252093       115.7053 
 1636   0.0000       4.258129       115.8696 
 1637   0.0000       4.261032       115.9486 
 1638   0.0000       4.264354       116.0390 
 1639   0.0000       4.271876       116.2436 
 1640   0.0000       4.273711       116.2936 
 1641   0.0000       4.278988       116.4372 
 1642   0.0000       4.283288       116.5542 
 1643   0.0000       4.283639       116.5637 
 1644   0.0000       4.292062       116.7930 
 1645   0.0000       4.298087       116.9569 
 1646   0.0000       4.302308       117.0718 
 1647   0.0000       4.308611       117.2433 
 1648   0.0000       4.314182       117.3949 
 1649   0.0000       4.317811       117.4936 
 1650   0.0000       4.319688       117.5447 
 1651   0.0000       4.321091       117.5829 
 1652   0.0000       4.333609       117.9235 
 1653   0.0000       4.342393       118.1625 
 1654   0.0000       4.349116       118.3455 
 1655   0.0000       4.354887       118.5025 
 1656   0.0000       4.359902       118.6390 
 1657   0.0000       4.365201       118.7832 
 1658   0.0000       4.370825       118.9362 
 1659   0.0000       4.382835       119.2630 
 1660   0.0000       4.394157       119.5711 
 1661   0.0000       4.406982       119.9201 
 1662   0.0000       4.408494       119.9612 
 1663   0.0000       4.411065       120.0312 
 1664   0.0000       4.413620       120.1007 
 1665   0.0000       4.420676       120.2927 
 1666   0.0000       4.423038       120.3570 
 1667   0.0000       4.425710       120.4297 
 1668   0.0000       4.432355       120.6105 
 1669   0.0000       4.446792       121.0034 
 1670   0.0000       4.461227       121.3962 
 1671   0.0000       4.474883       121.7678 
 1672   0.0000       4.483752       122.0091 
 1673   0.0000       4.490146       122.1831 
 1674   0.0000       4.502810       122.5277 
 1675   0.0000       4.504051       122.5615 
 1676   0.0000       4.512020       122.7783 
 1677   0.0000       4.518507       122.9548 
 1678   0.0000       4.521882       123.0467 
 1679   0.0000       4.527653       123.2037 
 1680   0.0000       4.534262       123.3835 
 1681   0.0000       4.553810       123.9155 
 1682   0.0000       4.557174       124.0070 
 1683   0.0000       4.558992       124.0565 
 1684   0.0000       4.566312       124.2557 
 1685   0.0000       4.586997       124.8185 
 1686   0.0000       4.589002       124.8731 
 1687   0.0000       4.593073       124.9839 
 1688   0.0000       4.601794       125.2212 
 1689   0.0000       4.609216       125.4231 
 1690   0.0000       4.611777       125.4928 
 1691   0.0000       4.624287       125.8332 
 1692   0.0000       4.628940       125.9599 
 1693   0.0000       4.633991       126.0973 
 1694   0.0000       4.639470       126.2464 
 1695   0.0000       4.649234       126.5121 
 1696   0.0000       4.653856       126.6379 
 1697   0.0000       4.656136       126.6999 
 1698   0.0000       4.668892       127.0470 
 1699   0.0000       4.678609       127.3114 
 1700   0.0000       4.688737       127.5870 
 1701   0.0000       4.689020       127.5947 
 1702   0.0000       4.707487       128.0972 
 1703   0.0000       4.715156       128.3059 
 1704   0.0000       4.723456       128.5318 
 1705   0.0000       4.734510       128.8326 
 1706   0.0000       4.735798       128.8676 
 1707   0.0000       4.739746       128.9751 
 1708   0.0000       4.741473       129.0220 
 1709   0.0000       4.744690       129.1096 
 1710   0.0000       4.744900       129.1153 
 1711   0.0000       4.755339       129.3993 
 1712   0.0000       4.765661       129.6802 
 1713   0.0000       4.769942       129.7967 
 1714   0.0000       4.778273       130.0234 
 1715   0.0000       4.787279       130.2685 
 1716   0.0000       4.803051       130.6977 
 1717   0.0000       4.809712       130.8789 
 1718   0.0000       4.812028       130.9420 
 1719   0.0000       4.828782       131.3978 
 1720   0.0000       4.843533       131.7992 
 1721   0.0000       4.850511       131.9891 
 1722   0.0000       4.860605       132.2638 
 1723   0.0000       4.882841       132.8688 
 1724   0.0000       4.887135       132.9857 
 1725   0.0000       4.897383       133.2646 
 1726   0.0000       4.901136       133.3667 
 1727   0.0000       4.913029       133.6903 
 1728   0.0000       4.917761       133.8191 
 1729   0.0000       4.919576       133.8685 
 1730   0.0000       4.931476       134.1923 
 1731   0.0000       4.934352       134.2706 
 1732   0.0000       4.941791       134.4730 
 1733   0.0000       4.946172       134.5922 
 1734   0.0000       4.949239       134.6756 
 1735   0.0000       4.952116       134.7539 
 1736   0.0000       4.959976       134.9678 
 1737   0.0000       4.960700       134.9875 
 1738   0.0000       4.973325       135.3311 
 1739   0.0000       4.978069       135.4601 
 1740   0.0000       4.982107       135.5700 
 1741   0.0000       4.988523       135.7446 
 1742   0.0000       4.999752       136.0502 
 1743   0.0000       5.008626       136.2916 
 1744   0.0000       5.013366       136.4206 
 1745   0.0000       5.026174       136.7692 
 1746   0.0000       5.028124       136.8222 
 1747   0.0000       5.039771       137.1391 
 1748   0.0000       5.044950       137.2801 
 1749   0.0000       5.058811       137.6572 
 1750   0.0000       5.084642       138.3601 
 1751   0.0000       5.088009       138.4518 
 1752   0.0000       5.098031       138.7245 
 1753   0.0000       5.104744       138.9071 
 1754   0.0000       5.106839       138.9641 
 1755   0.0000       5.110144       139.0541 
 1756   0.0000       5.114526       139.1733 
 1757   0.0000       5.122558       139.3919 
 1758   0.0000       5.125551       139.4733 
 1759   0.0000       5.137533       139.7994 
 1760   0.0000       5.138348       139.8215 
 1761   0.0000       5.147885       140.0811 
 1762   0.0000       5.155293       140.2827 
 1763   0.0000       5.162678       140.4836 
 1764   0.0000       5.164444       140.5317 
 1765   0.0000       5.174392       140.8024 
 1766   0.0000       5.193536       141.3233 
 1767   0.0000       5.198085       141.4471 
 1768   0.0000       5.202265       141.5608 
 1769   0.0000       5.213313       141.8615 
 1770   0.0000       5.230177       142.3204 
 1771   0.0000       5.232335       142.3791 
 1772   0.0000       5.236233       142.4851 
 1773   0.0000       5.263762       143.2342 
 1774   0.0000       5.272009       143.4587 
 1775   0.0000       5.275011       143.5403 
 1776   0.0000       5.280744       143.6963 
 1777   0.0000       5.285668       143.8303 
 1778   0.0000       5.292517       144.0167 
 1779   0.0000       5.305979       144.3830 
 1780   0.0000       5.310676       144.5108 
 1781   0.0000       5.325583       144.9165 
 1782   0.0000       5.331713       145.0833 
 1783   0.0000       5.337198       145.2325 
 1784   0.0000       5.348122       145.5298 
 1785   0.0000       5.361468       145.8930 
 1786   0.0000       5.380009       146.3975 
 1787   0.0000       5.391651       146.7143 
 1788   0.0000       5.399987       146.9411 
 1789   0.0000       5.411727       147.2606 
 1790   0.0000       5.424436       147.6064 
 1791   0.0000       5.436351       147.9306 
 1792   0.0000       5.441606       148.0736 
 1793   0.0000       5.458475       148.5327 
 1794   0.0000       5.475065       148.9841 
 1795   0.0000       5.484864       149.2507 
 1796   0.0000       5.485654       149.2722 
 1797   0.0000       5.493049       149.4735 
 1798   0.0000       5.496276       149.5613 
 1799   0.0000       5.499908       149.6601 
 1800   0.0000       5.528203       150.4300 
 1801   0.0000       5.536236       150.6487 
 1802   0.0000       5.549654       151.0138 
 1803   0.0000       5.554035       151.1330 
 1804   0.0000       5.568954       151.5389 
 1805   0.0000       5.585270       151.9829 
 1806   0.0000       5.588712       152.0766 
 1807   0.0000       5.590324       152.1204 
 1808   0.0000       5.597789       152.3236 
 1809   0.0000       5.600903       152.4083 
 1810   0.0000       5.621931       152.9805 
 1811   0.0000       5.659428       154.0009 
 1812   0.0000       5.680281       154.5683 
 1813   0.0000       5.692852       154.9104 
 1814   0.0000       5.731508       155.9623 
 1815   0.0000       5.733555       156.0180 
 1816   0.0000       5.739151       156.1702 
 1817   0.0000       5.773922       157.1164 
 1818   0.0000       5.814357       158.2167 
 1819   0.0000       5.838049       158.8614 
 1820   0.0000       5.843539       159.0108 
 1821   0.0000       5.892499       160.3431 
 1822   0.0000       5.903040       160.6299 
 1823   0.0000       5.920872       161.1151 
 1824   0.0000       5.987760       162.9352 
 1825   0.0000       6.043834       164.4611 
 1826   0.0000       6.051604       164.6725 
 1827   0.0000       6.053592       164.7266 
 1828   0.0000       6.088909       165.6876 
 1829   0.0000       6.109617       166.2511 
 1830   0.0000       6.128501       166.7650 
 1831   0.0000       6.167081       167.8148 
 1832   0.0000       6.203469       168.8050 
 1833   0.0000       6.247350       169.9990 
 1834   0.0000       6.284250       171.0031 
 1835   0.0000       6.822626       185.6531 
 1836   0.0000       8.758422       238.3288 
 1837   0.0000       8.848237       240.7728 
 1838   0.0000       8.892727       241.9834 
 1839   0.0000       8.956105       243.7080 
 1840   0.0000       8.971391       244.1240 
 1841   0.0000       9.043647       246.0902 
 1842   0.0000       9.305310       253.2104 
 1843   0.0000       9.316668       253.5194 
 1844   0.0000       9.417574       256.2652 
 1845   0.0000       9.461814       257.4691 
 1846   0.0000       9.530267       259.3318 
 1847   0.0000       9.576596       260.5924 
 1848   0.0000      19.622312       533.9503 
 1849   0.0000      20.252156       551.0892 
 1850   0.0000      20.391445       554.8794 
 1851   0.0000      20.699108       563.2514 
 1852   0.0000      22.056059       600.1759 
 1853   0.0000      22.058555       600.2438 
 1854   0.0000      22.121131       601.9466 
 1855   0.0000      22.238681       605.1453 
 1856   0.0000      22.259378       605.7085 
 1857   0.0000      22.357181       608.3698 
 1858   0.0000      22.392269       609.3246 
 1859   0.0000      22.439488       610.6095 
 1860   0.0000      22.564155       614.0019 
 1861   0.0000      22.570115       614.1641 
 1862   0.0000      22.583408       614.5258 
 1863   0.0000      22.596243       614.8750 
 1864   0.0000      22.605970       615.1397 
 1865   0.0000      22.621736       615.5687 
 1866   0.0000      22.660022       616.6105 
 1867   0.0000      22.673565       616.9791 
 1868   0.0000      22.681542       617.1961 
 1869   0.0000      22.695824       617.5848 
 1870   0.0000      22.731018       618.5425 
 1871   0.0000      22.737929       618.7305 
 1872   0.0000      22.738496       618.7459 
 1873   0.0000      22.742904       618.8659 
 1874   0.0000      22.757132       619.2530 
 1875   0.0000      22.758080       619.2789 
 1876   0.0000      22.787675       620.0842 
 1877   0.0000      22.815878       620.8516 
 1878   0.0000      22.837186       621.4314 
 1879   0.0000      22.842049       621.5637 
 1880   0.0000      22.843028       621.5904 
 1881   0.0000      22.845435       621.6559 
 1882   0.0000      22.869006       622.2973 
 1883   0.0000      22.874089       622.4356 
 1884   0.0000      22.917517       623.6173 
 1885   0.0000      22.930026       623.9577 
 1886   0.0000      22.944821       624.3603 
 1887   0.0000      22.994648       625.7162 
 1888   0.0000      23.193183       631.1186 
 1889   0.0000      23.261520       632.9781 
 1890   0.0000      23.282041       633.5365 
 1891   0.0000      23.287608       633.6880 
 1892   0.0000      23.288372       633.7088 
 1893   0.0000      23.295888       633.9134 
 1894   0.0000      23.333816       634.9454 
 1895   0.0000      23.393240       636.5624 
 1896   0.0000      23.507123       639.6613 
 1897   0.0000      23.530005       640.2840 
 1898   0.0000      32.479557       883.8137 
 1899   0.0000      32.501264       884.4044 
 1900   0.0000      33.029972       898.7912 
 1901   0.0000      33.186066       903.0388 
 1902   0.0000      33.196516       903.3231 

                    ********************************
                    * MULLIKEN POPULATION ANALYSIS *
                    ********************************

--------------------------------------------
MULLIKEN ATOMIC CHARGES AND SPIN POPULATIONS
--------------------------------------------
   0 C :   -0.156361   -0.000037
   1 C :   -0.186681    0.000042
   2 C :    0.074552   -0.000060
   3 C :   -0.181708    0.000055
   4 C :   -0.148068   -0.000055
   5 C :    0.172675    0.000028
   6 C :    0.223175   -0.000105
   7 N :   -0.238977    0.000216
   8 C :    0.228591   -0.000296
   9 N :   -0.275508    0.000285
  10 C :    0.192142   -0.000468
  11 N :   -0.276851    0.000263
  12 C :    0.095836    0.001106
  13 C :   -0.122237   -0.001085
  14 C :   -0.177922    0.007211
  15 C :   -0.042090   -0.001460
  16 C :   -0.180685    0.007139
  17 C :   -0.126753   -0.001134
  18 C :    0.034931    0.000511
  19 C :   -0.214325   -0.000374
  20 C :   -0.187672    0.000386
  21 C :    0.172127   -0.000470
  22 C :   -0.186026    0.000461
  23 C :   -0.214822   -0.000337
  24 C :   -0.040338   -0.000018
  25 S :   -0.169982    0.000032
  26 S :   -0.066962   -0.000009
  27 N :   -0.022812   -0.000054
  28 C :    0.144727    0.000019
  29 C :   -0.024657   -0.000011
  30 S :    0.002913   -0.000000
  31 C :   -0.028523   -0.000001
  32 C :    0.150471    0.000018
  33 C :   -0.134564    0.000001
  34 C :   -0.138365    0.000001
  35 C :   -0.066727   -0.000004
  36 C :   -0.285424    0.000004
  37 C :   -0.285406   -0.000004
  38 C :   -0.068007    0.000006
  39 C :   -0.139627   -0.000005
  40 C :   -0.131936    0.000012
  41 N :    0.093737    0.290159
  42 C :    0.147099    0.017928
  43 C :   -0.007269    0.119595
  44 S :    0.148730    0.291002
  45 C :   -0.005753    0.123124
  46 C :    0.150959    0.021560
  47 C :   -0.151664    0.018441
  48 C :   -0.121407    0.014170
  49 C :   -0.116038    0.089169
  50 C :   -0.151928   -0.054551
  51 C :   -0.152522   -0.056478
  52 C :   -0.114560    0.091480
  53 C :   -0.120407    0.015948
  54 C :   -0.154293    0.016587
  55 H :    0.152653   -0.000017
  56 H :    0.136909    0.000007
  57 H :    0.162790    0.000005
  58 H :    0.148037   -0.000015
  59 H :    0.189312    0.000533
  60 H :    0.148496   -0.000484
  61 H :    0.131941   -0.000538
  62 H :    0.186433    0.000567
  63 H :    0.171514   -0.000040
  64 H :    0.176471    0.000025
  65 H :    0.156782    0.000050
  66 H :    0.137188   -0.000044
  67 H :    0.169874   -0.000000
  68 H :    0.135041    0.000001
  69 H :    0.122228   -0.000000
  70 H :    0.122864    0.000000
  71 H :    0.146598   -0.000001
  72 H :    0.147896   -0.000001
  73 H :    0.143813    0.000000
  74 H :    0.144359   -0.000001
  75 H :    0.140234   -0.000000
  76 H :    0.205862   -0.001566
  77 H :    0.169827   -0.000472
  78 H :    0.165656   -0.003999
  79 H :    0.159892    0.001054
  80 H :    0.160808    0.001101
  81 H :    0.170230   -0.004057
  82 H :    0.173502   -0.000526
  83 H :    0.205986   -0.001524
Sum of atomic charges         :    1.0000000
Sum of atomic spin populations:    1.0000000

-----------------------------------------------------
MULLIKEN REDUCED ORBITAL CHARGES AND SPIN POPULATIONS
-----------------------------------------------------
CHARGE
  0 C s       :     3.226154  s :     3.226154
      pz      :     0.961660  p :     2.846250
      px      :     0.931850
      py      :     0.952741
      dz2     :     0.005813  d :     0.076711
      dxz     :     0.019317
      dyz     :     0.008772
      dx2y2   :     0.016886
      dxy     :     0.025924
      f0      :     0.001428  f :     0.007246
      f+1     :     0.000436
      f-1     :     0.000657
      f+2     :     0.000906
      f-2     :     0.000456
      f+3     :     0.001214
      f-3     :     0.002148
  1 C s       :     3.240801  s :     3.240801
      pz      :     0.934797  p :     2.859020
      px      :     0.935109
      py      :     0.989114
      dz2     :     0.004809  d :     0.079505
      dxz     :     0.020916
      dyz     :     0.009161
      dx2y2   :     0.016707
      dxy     :     0.027912
      f0      :     0.001415  f :     0.007355
      f+1     :     0.000472
      f-1     :     0.000649
      f+2     :     0.000944
      f-2     :     0.000501
      f+3     :     0.001221
      f-3     :     0.002153
  2 C s       :     3.249273  s :     3.249273
      pz      :     0.962862  p :     2.565216
      px      :     0.747269
      py      :     0.855086
      dz2     :     0.007849  d :     0.101050
      dxz     :     0.016740
      dyz     :     0.023268
      dx2y2   :     0.031323
      dxy     :     0.021870
      f0      :     0.001593  f :     0.009909
      f+1     :     0.000769
      f-1     :     0.000725
      f+2     :     0.000636
      f-2     :     0.001117
      f+3     :     0.001690
      f-3     :     0.003379
  3 C s       :     3.229993  s :     3.229993
      pz      :     0.926318  p :     2.866389
      px      :     0.935824
      py      :     1.004248
      dz2     :     0.005007  d :     0.078064
      dxz     :     0.019693
      dyz     :     0.009406
      dx2y2   :     0.016628
      dxy     :     0.027330
      f0      :     0.001404  f :     0.007262
      f+1     :     0.000453
      f-1     :     0.000646
      f+2     :     0.000912
      f-2     :     0.000492
      f+3     :     0.001212
      f-3     :     0.002143
  4 C s       :     3.253997  s :     3.253997
      pz      :     0.923922  p :     2.810120
      px      :     0.931251
      py      :     0.954946
      dz2     :     0.005585  d :     0.076677
      dxz     :     0.019413
      dyz     :     0.009016
      dx2y2   :     0.016006
      dxy     :     0.026658
      f0      :     0.001406  f :     0.007274
      f+1     :     0.000463
      f-1     :     0.000672
      f+2     :     0.000890
      f-2     :     0.000489
      f+3     :     0.001209
      f-3     :     0.002145
  5 C s       :     3.178425  s :     3.178425
      pz      :     0.923267  p :     2.522659
      px      :     0.760772
      py      :     0.838620
      dz2     :     0.007861  d :     0.116318
      dxz     :     0.020203
      dyz     :     0.023365
      dx2y2   :     0.038410
      dxy     :     0.026479
      f0      :     0.001545  f :     0.009924
      f+1     :     0.000801
      f-1     :     0.000729
      f+2     :     0.000821
      f-2     :     0.001106
      f+3     :     0.001581
      f-3     :     0.003340
  6 C s       :     3.116907  s :     3.116907
      pz      :     0.798923  p :     2.439935
      px      :     0.839322
      py      :     0.801691
      dz2     :     0.004258  d :     0.201584
      dxz     :     0.035029
      dyz     :     0.040350
      dx2y2   :     0.073915
      dxy     :     0.048032
      f0      :     0.002406  f :     0.018398
      f+1     :     0.000855
      f-1     :     0.001302
      f+2     :     0.001289
      f-2     :     0.002103
      f+3     :     0.003109
      f-3     :     0.007333
  7 N s       :     3.606452  s :     3.606452
      pz      :     1.148172  p :     3.568957
      px      :     1.084172
      py      :     1.336613
      dz2     :     0.005172  d :     0.059896
      dxz     :     0.009392
      dyz     :     0.009862
      dx2y2   :     0.018309
      dxy     :     0.017161
      f0      :     0.000644  f :     0.003672
      f+1     :     0.000287
      f-1     :     0.000221
      f+2     :     0.000386
      f-2     :     0.000303
      f+3     :     0.000699
      f-3     :     0.001131
  8 C s       :     3.114136  s :     3.114136
      pz      :     0.799420  p :     2.439353
      px      :     0.812167
      py      :     0.827766
      dz2     :     0.004471  d :     0.199634
      dxz     :     0.038981
      dyz     :     0.038265
      dx2y2   :     0.051488
      dxy     :     0.066429
      f0      :     0.002373  f :     0.018285
      f+1     :     0.001184
      f-1     :     0.000947
      f+2     :     0.001874
      f-2     :     0.001539
      f+3     :     0.003105
      f-3     :     0.007263
  9 N s       :     3.602041  s :     3.602041
      pz      :     1.178759  p :     3.610197
      px      :     1.468217
      py      :     0.963221
      dz2     :     0.005119  d :     0.059595
      dxz     :     0.009146
      dyz     :     0.010164
      dx2y2   :     0.016986
      dxy     :     0.018180
      f0      :     0.000650  f :     0.003674
      f+1     :     0.000210
      f-1     :     0.000310
      f+2     :     0.000235
      f-2     :     0.000479
      f+3     :     0.000696
      f-3     :     0.001094
 10 C s       :     3.113945  s :     3.113945
      pz      :     0.835415  p :     2.473500
      px      :     0.814240
      py      :     0.823845
      dz2     :     0.004062  d :     0.202016
      dxz     :     0.042214
      dyz     :     0.031982
      dx2y2   :     0.054097
      dxy     :     0.069661
      f0      :     0.002428  f :     0.018396
      f+1     :     0.001229
      f-1     :     0.001011
      f+2     :     0.001884
      f-2     :     0.001457
      f+3     :     0.003078
      f-3     :     0.007309
 11 N s       :     3.613124  s :     3.613124
      pz      :     1.176233  p :     3.600272
      px      :     1.076244
      py      :     1.347795
      dz2     :     0.005141  d :     0.059811
      dxz     :     0.010293
      dyz     :     0.008926
      dx2y2   :     0.018023
      dxy     :     0.017429
      f0      :     0.000649  f :     0.003643
      f+1     :     0.000282
      f-1     :     0.000241
      f+2     :     0.000425
      f-2     :     0.000281
      f+3     :     0.000693
      f-3     :     0.001072
 12 C s       :     3.214087  s :     3.214087
      pz      :     0.918828  p :     2.575416
      px      :     0.840820
      py      :     0.815767
      dz2     :     0.007302  d :     0.104768
      dxz     :     0.019972
      dyz     :     0.020814
      dx2y2   :     0.026595
      dxy     :     0.030085
      f0      :     0.001520  f :     0.009893
      f+1     :     0.000776
      f-1     :     0.000713
      f+2     :     0.000949
      f-2     :     0.000827
      f+3     :     0.001680
      f-3     :     0.003429
 13 C s       :     3.215805  s :     3.215805
      pz      :     0.898616  p :     2.822102
      px      :     1.026623
      py      :     0.896863
      dz2     :     0.005075  d :     0.077042
      dxz     :     0.006571
      dyz     :     0.021092
      dx2y2   :     0.026307
      dxy     :     0.017997
      f0      :     0.001393  f :     0.007288
      f+1     :     0.000587
      f-1     :     0.000517
      f+2     :     0.000360
      f-2     :     0.001046
      f+3     :     0.001235
      f-3     :     0.002149
 14 C s       :     3.311814  s :     3.311814
      pz      :     0.962150  p :     2.785266
      px      :     0.838655
      py      :     0.984461
      dz2     :     0.006237  d :     0.073614
      dxz     :     0.017496
      dyz     :     0.010763
      dx2y2   :     0.021139
      dxy     :     0.017980
      f0      :     0.001404  f :     0.007228
      f+1     :     0.000720
      f-1     :     0.000507
      f+2     :     0.000889
      f-2     :     0.000529
      f+3     :     0.001098
      f-3     :     0.002082
 15 C s       :     3.256116  s :     3.256116
      pz      :     1.091537  p :     2.621080
      px      :     0.848833
      py      :     0.680710
      dz2     :     0.014158  d :     0.152160
      dxz     :     0.027935
      dyz     :     0.021850
      dx2y2   :     0.046082
      dxy     :     0.042134
      f0      :     0.001649  f :     0.012733
      f+1     :     0.000974
      f-1     :     0.001181
      f+2     :     0.001119
      f-2     :     0.001195
      f+3     :     0.002147
      f-3     :     0.004468
 16 C s       :     3.314850  s :     3.314850
      pz      :     0.973619  p :     2.785245
      px      :     0.974105
      py      :     0.837521
      dz2     :     0.005966  d :     0.073349
      dxz     :     0.005540
      dyz     :     0.023089
      dx2y2   :     0.024993
      dxy     :     0.013762
      f0      :     0.001432  f :     0.007240
      f+1     :     0.000624
      f-1     :     0.000557
      f+2     :     0.000327
      f-2     :     0.001117
      f+3     :     0.001087
      f-3     :     0.002096
 17 C s       :     3.197543  s :     3.197543
      pz      :     0.907066  p :     2.845302
      px      :     0.972216
      py      :     0.966020
      dz2     :     0.005321  d :     0.076616
      dxz     :     0.016643
      dyz     :     0.010852
      dx2y2   :     0.021070
      dxy     :     0.022731
      f0      :     0.001366  f :     0.007292
      f+1     :     0.000646
      f-1     :     0.000506
      f+2     :     0.000811
      f-2     :     0.000586
      f+3     :     0.001238
      f-3     :     0.002138
 18 C s       :     3.247675  s :     3.247675
      pz      :     1.019149  p :     2.608000
      px      :     0.818855
      py      :     0.769996
      dz2     :     0.006320  d :     0.099462
      dxz     :     0.021212
      dyz     :     0.018454
      dx2y2   :     0.024906
      dxy     :     0.028570
      f0      :     0.001819  f :     0.009933
      f+1     :     0.000623
      f-1     :     0.000682
      f+2     :     0.000963
      f-2     :     0.000670
      f+3     :     0.001692
      f-3     :     0.003485
 19 C s       :     3.265848  s :     3.265848
      pz      :     0.900880  p :     2.858121
      px      :     1.042539
      py      :     0.914702
      dz2     :     0.004199  d :     0.082926
      dxz     :     0.005264
      dyz     :     0.029570
      dx2y2   :     0.026715
      dxy     :     0.017179
      f0      :     0.001518  f :     0.007430
      f+1     :     0.000582
      f-1     :     0.000416
      f+2     :     0.000258
      f-2     :     0.001248
      f+3     :     0.001257
      f-3     :     0.002151
 20 C s       :     3.198204  s :     3.198204
      pz      :     1.027220  p :     2.909813
      px      :     0.870255
      py      :     1.012339
      dz2     :     0.006204  d :     0.072373
      dxz     :     0.015601
      dyz     :     0.009332
      dx2y2   :     0.023374
      dxy     :     0.017862
      f0      :     0.001563  f :     0.007281
      f+1     :     0.000565
      f-1     :     0.000549
      f+2     :     0.000764
      f-2     :     0.000430
      f+3     :     0.001273
      f-3     :     0.002136
 21 C s       :     3.103646  s :     3.103646
      pz      :     0.876133  p :     2.554167
      px      :     0.893852
      py      :     0.784182
      dz2     :     0.004703  d :     0.156684
      dxz     :     0.031290
      dyz     :     0.044745
      dx2y2   :     0.035740
      dxy     :     0.040206
      f0      :     0.002211  f :     0.013375
      f+1     :     0.000749
      f-1     :     0.001035
      f+2     :     0.001378
      f-2     :     0.001908
      f+3     :     0.002116
      f-3     :     0.003979
 22 C s       :     3.191239  s :     3.191239
      pz      :     1.030332  p :     2.915368
      px      :     1.044816
      py      :     0.840220
      dz2     :     0.006042  d :     0.072121
      dxz     :     0.004982
      dyz     :     0.020474
      dx2y2   :     0.023335
      dxy     :     0.017287
      f0      :     0.001560  f :     0.007299
      f+1     :     0.000607
      f-1     :     0.000494
      f+2     :     0.000271
      f-2     :     0.000976
      f+3     :     0.001257
      f-3     :     0.002132
 23 C s       :     3.258585  s :     3.258585
      pz      :     0.930000  p :     2.865649
      px      :     0.948725
      py      :     0.986924
      dz2     :     0.004363  d :     0.083150
      dxz     :     0.022770
      dyz     :     0.012488
      dx2y2   :     0.022657
      dxy     :     0.020872
      f0      :     0.001494  f :     0.007438
      f+1     :     0.000497
      f-1     :     0.000531
      f+2     :     0.001031
      f-2     :     0.000488
      f+3     :     0.001249
      f-3     :     0.002147
 24 C s       :     3.245588  s :     3.245588
      pz      :     0.854072  p :     2.631461
      px      :     0.896043
      py      :     0.881346
      dz2     :     0.039080  d :     0.154663
      dxz     :     0.029645
      dyz     :     0.017488
      dx2y2   :     0.043447
      dxy     :     0.025003
      f0      :     0.000920  f :     0.008626
      f+1     :     0.000890
      f-1     :     0.001438
      f+2     :     0.001929
      f-2     :     0.000818
      f+3     :     0.001075
      f-3     :     0.001556
 25 S s       :     5.814060  s :     5.814060
      pz      :     3.306979  p :    10.241137
      px      :     3.660865
      py      :     3.273292
      dz2     :     0.018102  d :     0.103451
      dxz     :     0.022815
      dyz     :     0.024269
      dx2y2   :     0.014329
      dxy     :     0.023936
      f0      :     0.001014  f :     0.011335
      f+1     :     0.001635
      f-1     :     0.001459
      f+2     :     0.001464
      f-2     :     0.002951
      f+3     :     0.001613
      f-3     :     0.001198
 26 S s       :     5.789351  s :     5.789351
      pz      :     3.526709  p :    10.139871
      px      :     3.078584
      py      :     3.534578
      dz2     :     0.024446  d :     0.126069
      dxz     :     0.019298
      dyz     :     0.026211
      dx2y2   :     0.039151
      dxy     :     0.016963
      f0      :     0.001262  f :     0.011670
      f+1     :     0.001110
      f-1     :     0.001980
      f+2     :     0.002160
      f-2     :     0.002193
      f+3     :     0.001774
      f-3     :     0.001191
 27 N s       :     3.402485  s :     3.402485
      pz      :     1.624813  p :     3.533786
      px      :     0.938663
      py      :     0.970310
      dz2     :     0.006511  d :     0.081824
      dxz     :     0.012346
      dyz     :     0.013580
      dx2y2   :     0.025346
      dxy     :     0.024041
      f0      :     0.000751  f :     0.004717
      f+1     :     0.000649
      f-1     :     0.000600
      f+2     :     0.000440
      f-2     :     0.000453
      f+3     :     0.000730
      f-3     :     0.001094
 28 C s       :     3.164922  s :     3.164922
      pz      :     0.847931  p :     2.511893
      px      :     0.915759
      py      :     0.748203
      dz2     :     0.035865  d :     0.165200
      dxz     :     0.031322
      dyz     :     0.052253
      dx2y2   :     0.024134
      dxy     :     0.021626
      f0      :     0.002899  f :     0.013259
      f+1     :     0.001666
      f-1     :     0.001725
      f+2     :     0.001611
      f-2     :     0.002072
      f+3     :     0.001755
      f-3     :     0.001531
 29 C s       :     3.222600  s :     3.222600
      pz      :     0.858087  p :     2.664685
      px      :     0.971679
      py      :     0.834918
      dz2     :     0.020647  d :     0.127968
      dxz     :     0.025808
      dyz     :     0.036667
      dx2y2   :     0.027220
      dxy     :     0.017625
      f0      :     0.001627  f :     0.009403
      f+1     :     0.001351
      f-1     :     0.001022
      f+2     :     0.001240
      f-2     :     0.001763
      f+3     :     0.000723
      f-3     :     0.001678
 30 S s       :     5.740136  s :     5.740136
      pz      :     3.329854  p :    10.081495
      px      :     3.143192
      py      :     3.608450
      dz2     :     0.021403  d :     0.158759
      dxz     :     0.055619
      dyz     :     0.029246
      dx2y2   :     0.025347
      dxy     :     0.027144
      f0      :     0.001635  f :     0.016696
      f+1     :     0.003393
      f-1     :     0.001685
      f+2     :     0.003071
      f-2     :     0.003660
      f+3     :     0.001383
      f-3     :     0.001869
 31 C s       :     3.225978  s :     3.225978
      pz      :     0.853476  p :     2.664722
      px      :     0.844517
      py      :     0.966728
      dz2     :     0.021746  d :     0.128419
      dxz     :     0.036344
      dyz     :     0.022175
      dx2y2   :     0.020486
      dxy     :     0.027668
      f0      :     0.001448  f :     0.009405
      f+1     :     0.001692
      f-1     :     0.000830
      f+2     :     0.001804
      f-2     :     0.001201
      f+3     :     0.000853
      f-3     :     0.001578
 32 C s       :     3.164443  s :     3.164443
      pz      :     0.823302  p :     2.505323
      px      :     0.679704
      py      :     1.002317
      dz2     :     0.040051  d :     0.166507
      dxz     :     0.056934
      dyz     :     0.019827
      dx2y2   :     0.024443
      dxy     :     0.025253
      f0      :     0.002192  f :     0.013255
      f+1     :     0.003142
      f-1     :     0.000962
      f+2     :     0.002489
      f-2     :     0.001166
      f+3     :     0.001810
      f-3     :     0.001494
 33 C s       :     3.211037  s :     3.211037
      pz      :     0.972693  p :     2.834693
      px      :     0.900242
      py      :     0.961758
      dz2     :     0.018602  d :     0.081408
      dxz     :     0.015837
      dyz     :     0.008126
      dx2y2   :     0.015154
      dxy     :     0.023690
      f0      :     0.000752  f :     0.007425
      f+1     :     0.001493
      f-1     :     0.000675
      f+2     :     0.001425
      f-2     :     0.000826
      f+3     :     0.000860
      f-3     :     0.001395
 34 C s       :     3.221020  s :     3.221020
      pz      :     0.907261  p :     2.833059
      px      :     0.974123
      py      :     0.951674
      dz2     :     0.021152  d :     0.077050
      dxz     :     0.018313
      dyz     :     0.016354
      dx2y2   :     0.013326
      dxy     :     0.007905
      f0      :     0.001351  f :     0.007237
      f+1     :     0.001446
      f-1     :     0.000813
      f+2     :     0.001410
      f-2     :     0.000805
      f+3     :     0.000904
      f-3     :     0.000507
 35 C s       :     3.172121  s :     3.172121
      pz      :     0.922921  p :     2.811973
      px      :     0.906327
      py      :     0.982725
      dz2     :     0.014663  d :     0.075419
      dxz     :     0.024808
      dyz     :     0.011914
      dx2y2   :     0.008518
      dxy     :     0.015516
      f0      :     0.001314  f :     0.007214
      f+1     :     0.001358
      f-1     :     0.000729
      f+2     :     0.001309
      f-2     :     0.000701
      f+3     :     0.000466
      f-3     :     0.001337
 36 C s       :     3.315912  s :     3.315912
      pz      :     1.025160  p :     2.885165
      px      :     0.896833
      py      :     0.963172
      dz2     :     0.014746  d :     0.077013
      dxz     :     0.019584
      dyz     :     0.007699
      dx2y2   :     0.010779
      dxy     :     0.024205
      f0      :     0.000748  f :     0.007334
      f+1     :     0.001617
      f-1     :     0.000527
      f+2     :     0.001236
      f-2     :     0.000886
      f+3     :     0.000863
      f-3     :     0.001457
 37 C s       :     3.318361  s :     3.318361
      pz      :     0.998140  p :     2.883148
      px      :     0.955928
      py      :     0.929080
      dz2     :     0.013440  d :     0.076581
      dxz     :     0.010502
      dyz     :     0.020540
      dx2y2   :     0.020576
      dxy     :     0.011522
      f0      :     0.001088  f :     0.007316
      f+1     :     0.000634
      f-1     :     0.001221
      f+2     :     0.001098
      f-2     :     0.001040
      f+3     :     0.000685
      f-3     :     0.001550
 38 C s       :     3.180850  s :     3.180850
      pz      :     0.944114  p :     2.804486
      px      :     0.970480
      py      :     0.889892
      dz2     :     0.013581  d :     0.075467
      dxz     :     0.017310
      dyz     :     0.018914
      dx2y2   :     0.014383
      dxy     :     0.011278
      f0      :     0.001364  f :     0.007204
      f+1     :     0.001110
      f-1     :     0.000874
      f+2     :     0.000504
      f-2     :     0.001414
      f+3     :     0.000474
      f-3     :     0.001463
 39 C s       :     3.227052  s :     3.227052
      pz      :     0.896923  p :     2.828296
      px      :     0.945280
      py      :     0.986093
      dz2     :     0.022556  d :     0.077049
      dxz     :     0.018047
      dyz     :     0.017365
      dx2y2   :     0.008747
      dxy     :     0.010333
      f0      :     0.001530  f :     0.007230
      f+1     :     0.001174
      f-1     :     0.000978
      f+2     :     0.001138
      f-2     :     0.001153
      f+3     :     0.000795
      f-3     :     0.000462
 40 C s       :     3.215105  s :     3.215105
      pz      :     0.972517  p :     2.828260
      px      :     0.946643
      py      :     0.909100
      dz2     :     0.018920  d :     0.081148
      dxz     :     0.008662
      dyz     :     0.017461
      dx2y2   :     0.020600
      dxy     :     0.015505
      f0      :     0.001162  f :     0.007423
      f+1     :     0.000682
      f-1     :     0.001161
      f+2     :     0.001050
      f-2     :     0.001163
      f+3     :     0.000683
      f-3     :     0.001523
 41 N s       :     3.433445  s :     3.433445
      pz      :     1.001450  p :     3.377166
      px      :     1.299100
      py      :     1.076615
      dz2     :     0.021563  d :     0.090714
      dxz     :     0.019422
      dyz     :     0.025277
      dx2y2   :     0.012731
      dxy     :     0.011721
      f0      :     0.001112  f :     0.004939
      f+1     :     0.000756
      f-1     :     0.000732
      f+2     :     0.000522
      f-2     :     0.000720
      f+3     :     0.000555
      f-3     :     0.000542
 42 C s       :     3.070753  s :     3.070753
      pz      :     0.792118  p :     2.618522
      px      :     0.895578
      py      :     0.930825
      dz2     :     0.034208  d :     0.150232
      dxz     :     0.036510
      dyz     :     0.036371
      dx2y2   :     0.026214
      dxy     :     0.016928
      f0      :     0.003058  f :     0.013395
      f+1     :     0.002081
      f-1     :     0.001942
      f+2     :     0.001771
      f-2     :     0.002188
      f+3     :     0.000751
      f-3     :     0.001605
 43 C s       :     3.221498  s :     3.221498
      pz      :     0.834255  p :     2.655254
      px      :     0.943641
      py      :     0.877358
      dz2     :     0.024262  d :     0.120962
      dxz     :     0.026391
      dyz     :     0.031082
      dx2y2   :     0.022564
      dxy     :     0.016664
      f0      :     0.001985  f :     0.009554
      f+1     :     0.001048
      f-1     :     0.001381
      f+2     :     0.001151
      f-2     :     0.001551
      f+3     :     0.000762
      f-3     :     0.001675
 44 S s       :     5.772340  s :     5.772340
      pz      :     2.970068  p :     9.864713
      px      :     3.494486
      py      :     3.400159
      dz2     :     0.036688  d :     0.195111
      dxz     :     0.049783
      dyz     :     0.067305
      dx2y2   :     0.022540
      dxy     :     0.018795
      f0      :     0.002776  f :     0.019106
      f+1     :     0.002612
      f-1     :     0.004234
      f+2     :     0.003517
      f-2     :     0.004020
      f+3     :     0.000833
      f-3     :     0.001113
 45 C s       :     3.219641  s :     3.219641
      pz      :     0.833011  p :     2.655529
      px      :     0.941046
      py      :     0.881472
      dz2     :     0.023729  d :     0.121031
      dxz     :     0.028984
      dyz     :     0.029276
      dx2y2   :     0.023413
      dxy     :     0.015628
      f0      :     0.001935  f :     0.009552
      f+1     :     0.001334
      f-1     :     0.001149
      f+2     :     0.001103
      f-2     :     0.001584
      f+3     :     0.000771
      f-3     :     0.001676
 46 C s       :     3.068859  s :     3.068859
      pz      :     0.777683  p :     2.616711
      px      :     0.943517
      py      :     0.895510
      dz2     :     0.035416  d :     0.150074
      dxz     :     0.033813
      dyz     :     0.037774
      dx2y2   :     0.023673
      dxy     :     0.019398
      f0      :     0.003092  f :     0.013397
      f+1     :     0.001827
      f-1     :     0.002308
      f+2     :     0.001754
      f-2     :     0.002087
      f+3     :     0.000744
      f-3     :     0.001586
 47 C s       :     3.225737  s :     3.225737
      pz      :     0.847440  p :     2.842172
      px      :     0.979371
      py      :     1.015361
      dz2     :     0.019309  d :     0.076429
      dxz     :     0.019139
      dyz     :     0.020965
      dx2y2   :     0.007008
      dxy     :     0.010008
      f0      :     0.001754  f :     0.007327
      f+1     :     0.001101
      f-1     :     0.001290
      f+2     :     0.001012
      f-2     :     0.001015
      f+3     :     0.000706
      f-3     :     0.000450
 48 C s       :     3.240078  s :     3.240078
      pz      :     0.984095  p :     2.796408
      px      :     0.896553
      py      :     0.915760
      dz2     :     0.015235  d :     0.077714
      dxz     :     0.012642
      dyz     :     0.022511
      dx2y2   :     0.016613
      dxy     :     0.010714
      f0      :     0.001448  f :     0.007207
      f+1     :     0.000749
      f-1     :     0.001245
      f+2     :     0.000813
      f-2     :     0.000986
      f+3     :     0.000540
      f-3     :     0.001425
 49 C s       :     3.231031  s :     3.231031
      pz      :     0.970394  p :     2.801054
      px      :     0.924527
      py      :     0.906133
      dz2     :     0.017451  d :     0.076778
      dxz     :     0.014636
      dyz     :     0.016396
      dx2y2   :     0.015988
      dxy     :     0.012307
      f0      :     0.001446  f :     0.007175
      f+1     :     0.001052
      f-1     :     0.000840
      f+2     :     0.000517
      f-2     :     0.001345
      f+3     :     0.000548
      f-3     :     0.001426
 50 C s       :     3.241444  s :     3.241444
      pz      :     0.881586  p :     2.823926
      px      :     0.960673
      py      :     0.981667
      dz2     :     0.022756  d :     0.078963
      dxz     :     0.021661
      dyz     :     0.016523
      dx2y2   :     0.007641
      dxy     :     0.010382
      f0      :     0.001833  f :     0.007595
      f+1     :     0.001168
      f-1     :     0.001261
      f+2     :     0.000983
      f-2     :     0.001135
      f+3     :     0.000733
      f-3     :     0.000480
 51 C s       :     3.244295  s :     3.244295
      pz      :     0.876505  p :     2.821745
      px      :     0.971800
      py      :     0.973440
      dz2     :     0.023533  d :     0.078889
      dxz     :     0.018946
      dyz     :     0.017925
      dx2y2   :     0.007067
      dxy     :     0.011419
      f0      :     0.001795  f :     0.007593
      f+1     :     0.001281
      f-1     :     0.001201
      f+2     :     0.001113
      f-2     :     0.000965
      f+3     :     0.000748
      f-3     :     0.000491
 52 C s       :     3.230872  s :     3.230872
      pz      :     0.977198  p :     2.799573
      px      :     0.904757
      py      :     0.917618
      dz2     :     0.017819  d :     0.076941
      dxz     :     0.010820
      dyz     :     0.019124
      dx2y2   :     0.017728
      dxy     :     0.011450
      f0      :     0.001407  f :     0.007174
      f+1     :     0.000661
      f-1     :     0.001213
      f+2     :     0.000999
      f-2     :     0.000909
      f+3     :     0.000562
      f-3     :     0.001423
 53 C s       :     3.242195  s :     3.242195
      pz      :     0.978940  p :     2.793307
      px      :     0.913532
      py      :     0.900835
      dz2     :     0.014831  d :     0.077702
      dxz     :     0.016814
      dyz     :     0.019441
      dx2y2   :     0.014563
      dxy     :     0.012052
      f0      :     0.001439  f :     0.007204
      f+1     :     0.001186
      f-1     :     0.000879
      f+2     :     0.000456
      f-2     :     0.001321
      f+3     :     0.000522
      f-3     :     0.001401
 54 C s       :     3.228337  s :     3.228337
      pz      :     0.846547  p :     2.842344
      px      :     0.981534
      py      :     1.014262
      dz2     :     0.018683  d :     0.076286
      dxz     :     0.021116
      dyz     :     0.019655
      dx2y2   :     0.008211
      dxy     :     0.008621
      f0      :     0.001730  f :     0.007327
      f+1     :     0.001288
      f-1     :     0.001106
      f+2     :     0.000984
      f-2     :     0.001067
      f+3     :     0.000706
      f-3     :     0.000446
 55 H s       :     0.824724  s :     0.824724
      pz      :     0.004664  p :     0.022623
      px      :     0.006450
      py      :     0.011509
 56 H s       :     0.840483  s :     0.840483
      pz      :     0.004532  p :     0.022608
      px      :     0.006874
      py      :     0.011202
 57 H s       :     0.814500  s :     0.814500
      pz      :     0.004412  p :     0.022710
      px      :     0.006999
      py      :     0.011299
 58 H s       :     0.829150  s :     0.829150
      pz      :     0.004531  p :     0.022813
      px      :     0.006863
      py      :     0.011419
 59 H s       :     0.787561  s :     0.787561
      pz      :     0.004248  p :     0.023127
      px      :     0.015222
      py      :     0.003657
 60 H s       :     0.829326  s :     0.829326
      pz      :     0.004707  p :     0.022177
      px      :     0.006019
      py      :     0.011451
 61 H s       :     0.845950  s :     0.845950
      pz      :     0.004863  p :     0.022109
      px      :     0.014032
      py      :     0.003214
 62 H s       :     0.790405  s :     0.790405
      pz      :     0.004238  p :     0.023163
      px      :     0.005532
      py      :     0.013392
 63 H s       :     0.805850  s :     0.805850
      pz      :     0.004090  p :     0.022636
      px      :     0.014936
      py      :     0.003611
 64 H s       :     0.800167  s :     0.800167
      pz      :     0.004974  p :     0.023362
      px      :     0.006298
      py      :     0.012090
 65 H s       :     0.819914  s :     0.819914
      pz      :     0.005206  p :     0.023304
      px      :     0.014491
      py      :     0.003607
 66 H s       :     0.840338  s :     0.840338
      pz      :     0.004273  p :     0.022474
      px      :     0.005895
      py      :     0.012305
 67 H s       :     0.806596  s :     0.806596
      pz      :     0.005198  p :     0.023530
      px      :     0.013232
      py      :     0.005100
 68 H s       :     0.842912  s :     0.842912
      pz      :     0.012316  p :     0.022047
      px      :     0.003919
      py      :     0.005813
 69 H s       :     0.855837  s :     0.855837
      pz      :     0.004474  p :     0.021934
      px      :     0.013005
      py      :     0.004455
 70 H s       :     0.855180  s :     0.855180
      pz      :     0.007563  p :     0.021955
      px      :     0.008832
      py      :     0.005560
 71 H s       :     0.831647  s :     0.831647
      pz      :     0.012456  p :     0.021755
      px      :     0.003918
      py      :     0.005381
 72 H s       :     0.830334  s :     0.830334
      pz      :     0.012003  p :     0.021770
      px      :     0.004032
      py      :     0.005735
 73 H s       :     0.834130  s :     0.834130
      pz      :     0.009246  p :     0.022057
      px      :     0.007318
      py      :     0.005493
 74 H s       :     0.833587  s :     0.833587
      pz      :     0.003695  p :     0.022054
      px      :     0.006714
      py      :     0.011645
 75 H s       :     0.837691  s :     0.837691
      pz      :     0.011987  p :     0.022074
      px      :     0.004068
      py      :     0.006019
 76 H s       :     0.770471  s :     0.770471
      pz      :     0.003732  p :     0.023667
      px      :     0.007564
      py      :     0.012371
 77 H s       :     0.808037  s :     0.808037
      pz      :     0.011053  p :     0.022135
      px      :     0.004100
      py      :     0.006982
 78 H s       :     0.812141  s :     0.812141
      pz      :     0.012031  p :     0.022203
      px      :     0.005644
      py      :     0.004528
 79 H s       :     0.817797  s :     0.817797
      pz      :     0.003364  p :     0.022311
      px      :     0.007197
      py      :     0.011751
 80 H s       :     0.816870  s :     0.816870
      pz      :     0.003447  p :     0.022323
      px      :     0.006793
      py      :     0.012082
 81 H s       :     0.807545  s :     0.807545
      pz      :     0.012406  p :     0.022225
      px      :     0.003933
      py      :     0.005886
 82 H s       :     0.804336  s :     0.804336
      pz      :     0.010616  p :     0.022162
      px      :     0.006156
      py      :     0.005390
 83 H s       :     0.770345  s :     0.770345
      pz      :     0.003810  p :     0.023669
      px      :     0.007183
      py      :     0.012676

SPIN
  0 C s       :    -0.000094  s :    -0.000094
      pz      :     0.000009  p :     0.000057
      px      :     0.000011
      py      :     0.000036
      dz2     :     0.000001  d :     0.000001
      dxz     :    -0.000000
      dyz     :    -0.000000
      dx2y2   :     0.000001
      dxy     :    -0.000001
      f0      :     0.000000  f :     0.000000
      f+1     :     0.000000
      f-1     :     0.000000
      f+2     :    -0.000000
      f-2     :    -0.000000
      f+3     :     0.000000
      f-3     :    -0.000000
  1 C s       :     0.000087  s :     0.000087
      pz      :    -0.000012  p :    -0.000043
      px      :    -0.000010
      py      :    -0.000021
      dz2     :    -0.000001  d :    -0.000002
      dxz     :    -0.000000
      dyz     :    -0.000000
      dx2y2   :    -0.000000
      dxy     :    -0.000001
      f0      :     0.000000  f :    -0.000000
      f+1     :    -0.000000
      f-1     :    -0.000000
      f+2     :    -0.000000
      f-2     :    -0.000000
      f+3     :    -0.000000
      f-3     :     0.000000
  2 C s       :    -0.000134  s :    -0.000134
      pz      :     0.000006  p :     0.000078
      px      :     0.000054
      py      :     0.000018
      dz2     :     0.000001  d :    -0.000004
      dxz     :    -0.000002
      dyz     :    -0.000000
      dx2y2   :    -0.000003
      dxy     :     0.000000
      f0      :    -0.000000  f :     0.000000
      f+1     :     0.000000
      f-1     :     0.000000
      f+2     :    -0.000000
      f-2     :     0.000000
      f+3     :     0.000000
      f-3     :    -0.000000
  3 C s       :     0.000076  s :     0.000076
      pz      :    -0.000012  p :    -0.000019
      px      :     0.000005
      py      :    -0.000012
      dz2     :    -0.000000  d :    -0.000002
      dxz     :     0.000000
      dyz     :    -0.000000
      dx2y2   :    -0.000001
      dxy     :    -0.000001
      f0      :    -0.000000  f :    -0.000000
      f+1     :    -0.000000
      f-1     :    -0.000000
      f+2     :    -0.000000
      f-2     :     0.000000
      f+3     :    -0.000000
      f-3     :     0.000000
  4 C s       :    -0.000098  s :    -0.000098
      pz      :     0.000004  p :     0.000043
      px      :     0.000013
      py      :     0.000027
      dz2     :     0.000000  d :    -0.000001
      dxz     :    -0.000000
      dyz     :     0.000000
      dx2y2   :     0.000000
      dxy     :    -0.000001
      f0      :     0.000000  f :     0.000000
      f+1     :     0.000000
      f-1     :     0.000000
      f+2     :    -0.000000
      f-2     :     0.000000
      f+3     :     0.000000
      f-3     :    -0.000000
  5 C s       :     0.000043  s :     0.000043
      pz      :    -0.000006  p :    -0.000014
      px      :     0.000006
      py      :    -0.000014
      dz2     :    -0.000001  d :    -0.000002
      dxz     :    -0.000000
      dyz     :     0.000000
      dx2y2   :     0.000000
      dxy     :    -0.000001
      f0      :    -0.000000  f :    -0.000000
      f+1     :    -0.000000
      f-1     :    -0.000000
      f+2     :    -0.000000
      f-2     :     0.000000
      f+3     :    -0.000000
      f-3     :    -0.000000
  6 C s       :     0.000017  s :     0.000017
      pz      :    -0.000066  p :    -0.000132
      px      :    -0.000029
      py      :    -0.000037
      dz2     :    -0.000000  d :     0.000010
      dxz     :     0.000000
      dyz     :     0.000008
      dx2y2   :     0.000003
      dxy     :    -0.000002
      f0      :     0.000000  f :     0.000001
      f+1     :     0.000000
      f-1     :     0.000000
      f+2     :     0.000000
      f-2     :     0.000000
      f+3     :    -0.000000
      f-3     :     0.000000
  7 N s       :     0.000060  s :     0.000060
      pz      :     0.000130  p :     0.000157
      px      :     0.000028
      py      :    -0.000001
      dz2     :     0.000000  d :    -0.000001
      dxz     :    -0.000001
      dyz     :    -0.000001
      dx2y2   :     0.000000
      dxy     :     0.000000
      f0      :    -0.000000  f :    -0.000000
      f+1     :    -0.000000
      f-1     :    -0.000000
      f+2     :    -0.000000
      f-2     :    -0.000000
      f+3     :     0.000000
      f-3     :     0.000000
  8 C s       :    -0.000071  s :    -0.000071
      pz      :    -0.000063  p :    -0.000237
      px      :    -0.000072
      py      :    -0.000103
      dz2     :    -0.000000  d :     0.000011
      dxz     :     0.000005
      dyz     :     0.000003
      dx2y2   :    -0.000003
      dxy     :     0.000006
      f0      :     0.000000  f :     0.000001
      f+1     :     0.000000
      f-1     :     0.000000
      f+2     :     0.000000
      f-2     :     0.000000
      f+3     :    -0.000000
      f-3     :     0.000000
  9 N s       :     0.000081  s :     0.000081
      pz      :     0.000155  p :     0.000203
      px      :     0.000047
      py      :     0.000002
      dz2     :     0.000001  d :     0.000001
      dxz     :    -0.000000
      dyz     :    -0.000002
      dx2y2   :    -0.000001
      dxy     :     0.000003
      f0      :    -0.000000  f :    -0.000000
      f+1     :    -0.000000
      f-1     :    -0.000000
      f+2     :    -0.000000
      f-2     :    -0.000000
      f+3     :    -0.000000
      f-3     :    -0.000000
 10 C s       :    -0.000059  s :    -0.000059
      pz      :    -0.000148  p :    -0.000438
      px      :    -0.000110
      py      :    -0.000181
      dz2     :    -0.000001  d :     0.000027
      dxz     :     0.000007
      dyz     :     0.000022
      dx2y2   :    -0.000001
      dxy     :    -0.000000
      f0      :     0.000000  f :     0.000002
      f+1     :     0.000000
      f-1     :     0.000000
      f+2     :     0.000000
      f-2     :     0.000001
      f+3     :     0.000000
      f-3     :     0.000001
 11 N s       :     0.000065  s :     0.000065
      pz      :     0.000152  p :     0.000197
      px      :     0.000036
      py      :     0.000008
      dz2     :     0.000001  d :     0.000001
      dxz     :    -0.000002
      dyz     :    -0.000000
      dx2y2   :     0.000002
      dxy     :    -0.000000
      f0      :    -0.000000  f :    -0.000000
      f+1     :    -0.000000
      f-1     :    -0.000000
      f+2     :    -0.000000
      f-2     :    -0.000000
      f+3     :    -0.000000
      f-3     :    -0.000000
 12 C s       :     0.000015  s :     0.000015
      pz      :     0.001104  p :     0.001139
      px      :    -0.000033
      py      :     0.000068
      dz2     :    -0.000004  d :    -0.000046
      dxz     :    -0.000032
      dyz     :    -0.000016
      dx2y2   :     0.000003
      dxy     :     0.000004
      f0      :    -0.000001  f :    -0.000003
      f+1     :    -0.000001
      f-1     :    -0.000001
      f+2     :    -0.000001
      f-2     :    -0.000001
      f+3     :    -0.000000
      f-3     :     0.000002
 13 C s       :    -0.000377  s :    -0.000377
      pz      :    -0.001301  p :    -0.000973
      px      :     0.000364
      py      :    -0.000036
      dz2     :     0.000028  d :     0.000249
      dxz     :     0.000004
      dyz     :     0.000046
      dx2y2   :     0.000049
      dxy     :     0.000122
      f0      :     0.000002  f :     0.000015
      f+1     :     0.000001
      f-1     :     0.000002
      f+2     :     0.000001
      f-2     :     0.000003
      f+3     :     0.000001
      f-3     :     0.000006
 14 C s       :     0.000027  s :     0.000027
      pz      :     0.001862  p :     0.006871
      px      :     0.003984
      py      :     0.001025
      dz2     :     0.000201  d :     0.000312
      dxz     :     0.000013
      dyz     :    -0.000025
      dx2y2   :    -0.000006
      dxy     :     0.000130
      f0      :     0.000000  f :     0.000000
      f+1     :     0.000002
      f-1     :     0.000000
      f+2     :     0.000001
      f-2     :    -0.000000
      f+3     :     0.000001
      f-3     :    -0.000005
 15 C s       :    -0.000465  s :    -0.000465
      pz      :    -0.002743  p :    -0.007063
      px      :    -0.000345
      py      :    -0.003976
      dz2     :    -0.000061  d :     0.005543
      dxz     :     0.000007
      dyz     :     0.000065
      dx2y2   :     0.004317
      dxy     :     0.001215
      f0      :    -0.000004  f :     0.000526
      f+1     :     0.000007
      f-1     :     0.000002
      f+2     :     0.000006
      f-2     :     0.000020
      f+3     :     0.000003
      f-3     :     0.000493
 16 C s       :    -0.000112  s :    -0.000112
      pz      :     0.001863  p :     0.006912
      px      :     0.001891
      py      :     0.003158
      dz2     :     0.000215  d :     0.000339
      dxz     :     0.000004
      dyz     :    -0.000023
      dx2y2   :     0.000042
      dxy     :     0.000101
      f0      :     0.000000  f :     0.000001
      f+1     :     0.000000
      f-1     :     0.000003
      f+2     :     0.000001
      f-2     :    -0.000001
      f+3     :     0.000001
      f-3     :    -0.000004
 17 C s       :    -0.000403  s :    -0.000403
      pz      :    -0.001303  p :    -0.000998
      px      :    -0.000372
      py      :     0.000677
      dz2     :     0.000031  d :     0.000252
      dxz     :     0.000033
      dyz     :     0.000015
      dx2y2   :     0.000129
      dxy     :     0.000044
      f0      :     0.000002  f :     0.000015
      f+1     :     0.000001
      f-1     :     0.000001
      f+2     :     0.000002
      f-2     :     0.000002
      f+3     :     0.000001
      f-3     :     0.000006
 18 C s       :     0.000071  s :     0.000071
      pz      :     0.000013  p :     0.000439
      px      :     0.000174
      py      :     0.000252
      dz2     :     0.000002  d :     0.000000
      dxz     :    -0.000000
      dyz     :    -0.000001
      dx2y2   :    -0.000000
      dxy     :    -0.000000
      f0      :    -0.000000  f :     0.000000
      f+1     :     0.000000
      f-1     :     0.000000
      f+2     :    -0.000000
      f-2     :    -0.000000
      f+3     :     0.000000
      f-3     :    -0.000000
 19 C s       :    -0.000364  s :    -0.000364
      pz      :    -0.000014  p :    -0.000006
      px      :     0.000032
      py      :    -0.000024
      dz2     :    -0.000002  d :    -0.000004
      dxz     :     0.000000
      dyz     :     0.000000
      dx2y2   :    -0.000001
      dxy     :    -0.000002
      f0      :     0.000000  f :    -0.000000
      f+1     :     0.000000
      f-1     :    -0.000000
      f+2     :     0.000000
      f-2     :     0.000000
      f+3     :    -0.000000
      f-3     :    -0.000000
 20 C s       :     0.000343  s :     0.000343
      pz      :     0.000009  p :     0.000039
      px      :    -0.000006
      py      :     0.000036
      dz2     :     0.000001  d :     0.000004
      dxz     :    -0.000000
      dyz     :    -0.000000
      dx2y2   :     0.000001
      dxy     :     0.000001
      f0      :    -0.000000  f :     0.000000
      f+1     :     0.000000
      f-1     :     0.000000
      f+2     :    -0.000000
      f-2     :    -0.000000
      f+3     :     0.000000
      f-3     :     0.000000
 21 C s       :    -0.000269  s :    -0.000269
      pz      :    -0.000013  p :    -0.000199
      px      :    -0.000103
      py      :    -0.000083
      dz2     :    -0.000002  d :    -0.000003
      dxz     :     0.000000
      dyz     :     0.000000
      dx2y2   :    -0.000001
      dxy     :    -0.000000
      f0      :     0.000000  f :    -0.000000
      f+1     :    -0.000000
      f-1     :     0.000000
      f+2     :     0.000000
      f-2     :    -0.000000
      f+3     :    -0.000000
      f-3     :    -0.000000
 22 C s       :     0.000481  s :     0.000481
      pz      :     0.000008  p :    -0.000023
      px      :    -0.000055
      py      :     0.000025
      dz2     :     0.000001  d :     0.000003
      dxz     :    -0.000000
      dyz     :    -0.000001
      dx2y2   :    -0.000000
      dxy     :     0.000002
      f0      :    -0.000000  f :     0.000000
      f+1     :    -0.000000
      f-1     :     0.000000
      f+2     :    -0.000000
      f-2     :    -0.000000
      f+3     :     0.000000
      f-3     :     0.000000
 23 C s       :    -0.000332  s :    -0.000332
      pz      :    -0.000013  p :     0.000002
      px      :     0.000080
      py      :    -0.000065
      dz2     :    -0.000002  d :    -0.000006
      dxz     :     0.000000
      dyz     :     0.000000
      dx2y2   :    -0.000002
      dxy     :    -0.000003
      f0      :     0.000000  f :    -0.000000
      f+1     :    -0.000000
      f-1     :    -0.000000
      f+2     :     0.000000
      f-2     :    -0.000000
      f+3     :    -0.000000
      f-3     :     0.000000
 24 C s       :     0.000007  s :     0.000007
      pz      :    -0.000011  p :    -0.000025
      px      :    -0.000005
      py      :    -0.000009
      dz2     :     0.000000  d :    -0.000001
      dxz     :    -0.000000
      dyz     :     0.000000
      dx2y2   :    -0.000001
      dxy     :    -0.000000
      f0      :     0.000000  f :     0.000000
      f+1     :     0.000000
      f-1     :     0.000000
      f+2     :     0.000000
      f-2     :     0.000000
      f+3     :     0.000000
      f-3     :    -0.000000
 25 S s       :    -0.000001  s :    -0.000001
      pz      :     0.000028  p :     0.000034
      px      :    -0.000000
      py      :     0.000006
      dz2     :    -0.000001  d :    -0.000001
      dxz     :     0.000000
      dyz     :     0.000000
      dx2y2   :    -0.000000
      dxy     :    -0.000000
      f0      :    -0.000000  f :    -0.000000
      f+1     :    -0.000000
      f-1     :    -0.000000
      f+2     :    -0.000000
      f-2     :    -0.000000
      f+3     :    -0.000000
      f-3     :     0.000000
 26 S s       :    -0.000001  s :    -0.000001
      pz      :     0.000001  p :    -0.000007
      px      :     0.000000
      py      :    -0.000009
      dz2     :    -0.000000  d :    -0.000000
      dxz     :    -0.000000
      dyz     :    -0.000000
      dx2y2   :    -0.000000
      dxy     :    -0.000000
      f0      :    -0.000000  f :    -0.000000
      f+1     :    -0.000000
      f-1     :    -0.000000
      f+2     :     0.000000
      f-2     :     0.000000
      f+3     :     0.000000
      f-3     :    -0.000000
 27 N s       :    -0.000065  s :    -0.000065
      pz      :    -0.000005  p :     0.000012
      px      :     0.000010
      py      :     0.000006
      dz2     :    -0.000000  d :    -0.000000
      dxz     :    -0.000000
      dyz     :    -0.000000
      dx2y2   :    -0.000000
      dxy     :     0.000000
      f0      :     0.000000  f :    -0.000000
      f+1     :     0.000000
      f-1     :     0.000000
      f+2     :    -0.000000
      f-2     :    -0.000000
      f+3     :    -0.000000
      f-3     :    -0.000000
 28 C s       :    -0.000029  s :    -0.000029
      pz      :     0.000005  p :     0.000047
      px      :     0.000015
      py      :     0.000026
      dz2     :     0.000000  d :     0.000002
      dxz     :     0.000000
      dyz     :     0.000000
      dx2y2   :     0.000000
      dxy     :     0.000001
      f0      :    -0.000000  f :     0.000000
      f+1     :     0.000000
      f-1     :     0.000000
      f+2     :     0.000000
      f-2     :    -0.000000
      f+3     :     0.000000
      f-3     :     0.000000
 29 C s       :    -0.000002  s :    -0.000002
      pz      :     0.000003  p :    -0.000008
      px      :    -0.000007
      py      :    -0.000004
      dz2     :     0.000000  d :     0.000000
      dxz     :     0.000000
      dyz     :    -0.000000
      dx2y2   :     0.000000
      dxy     :     0.000000
      f0      :     0.000000  f :    -0.000000
      f+1     :     0.000000
      f-1     :    -0.000000
      f+2     :    -0.000000
      f-2     :     0.000000
      f+3     :    -0.000000
      f-3     :     0.000000
 30 S s       :     0.000000  s :     0.000000
      pz      :    -0.000000  p :    -0.000001
      px      :    -0.000001
      py      :    -0.000000
      dz2     :     0.000000  d :     0.000000
      dxz     :    -0.000000
      dyz     :     0.000000
      dx2y2   :     0.000000
      dxy     :     0.000000
      f0      :     0.000000  f :     0.000000
      f+1     :    -0.000000
      f-1     :    -0.000000
      f+2     :     0.000000
      f-2     :     0.000000
      f+3     :    -0.000000
      f-3     :    -0.000000
 31 C s       :     0.000001  s :     0.000001
      pz      :     0.000003  p :    -0.000002
      px      :    -0.000007
      py      :     0.000002
      dz2     :    -0.000000  d :     0.000000
      dxz     :     0.000000
      dyz     :    -0.000000
      dx2y2   :     0.000000
      dxy     :     0.000000
      f0      :    -0.000000  f :    -0.000000
      f+1     :    -0.000000
      f-1     :    -0.000000
      f+2     :    -0.000000
      f-2     :    -0.000000
      f+3     :     0.000000
      f-3     :     0.000000
 32 C s       :    -0.000025  s :    -0.000025
      pz      :     0.000010  p :     0.000042
      px      :     0.000033
      py      :    -0.000001
      dz2     :     0.000000  d :     0.000001
      dxz     :     0.000000
      dyz     :    -0.000000
      dx2y2   :     0.000001
      dxy     :    -0.000000
      f0      :     0.000000  f :     0.000000
      f+1     :     0.000000
      f-1     :     0.000000
      f+2     :     0.000000
      f-2     :    -0.000000
      f+3     :     0.000000
      f-3     :     0.000000
 33 C s       :     0.000006  s :     0.000006
      pz      :    -0.000002  p :    -0.000005
      px      :    -0.000002
      py      :    -0.000002
      dz2     :    -0.000000  d :    -0.000000
      dxz     :     0.000000
      dyz     :    -0.000000
      dx2y2   :     0.000000
      dxy     :    -0.000000
      f0      :    -0.000000  f :    -0.000000
      f+1     :     0.000000
      f-1     :    -0.000000
      f+2     :    -0.000000
      f-2     :    -0.000000
      f+3     :    -0.000000
      f-3     :     0.000000
 34 C s       :    -0.000000  s :    -0.000000
      pz      :     0.000001  p :     0.000001
      px      :    -0.000000
      py      :     0.000000
      dz2     :    -0.000000  d :    -0.000000
      dxz     :    -0.000000
      dyz     :     0.000000
      dx2y2   :    -0.000000
      dxy     :     0.000000
      f0      :    -0.000000  f :     0.000000
      f+1     :    -0.000000
      f-1     :     0.000000
      f+2     :    -0.000000
      f-2     :     0.000000
      f+3     :     0.000000
      f-3     :     0.000000
 35 C s       :    -0.000002  s :    -0.000002
      pz      :     0.000001  p :    -0.000002
      px      :     0.000001
      py      :    -0.000004
      dz2     :    -0.000000  d :    -0.000000
      dxz     :    -0.000000
      dyz     :    -0.000000
      dx2y2   :    -0.000000
      dxy     :    -0.000000
      f0      :    -0.000000  f :    -0.000000
      f+1     :    -0.000000
      f-1     :    -0.000000
      f+2     :     0.000000
      f-2     :     0.000000
      f+3     :    -0.000000
      f-3     :    -0.000000
 36 C s       :     0.000009  s :     0.000009
      pz      :    -0.000003  p :    -0.000005
      px      :    -0.000006
      py      :     0.000004
      dz2     :     0.000000  d :    -0.000000
      dxz     :    -0.000000
      dyz     :    -0.000000
      dx2y2   :     0.000000
      dxy     :     0.000000
      f0      :    -0.000000  f :    -0.000000
      f+1     :     0.000000
      f-1     :    -0.000000
      f+2     :    -0.000000
      f-2     :     0.000000
      f+3     :    -0.000000
      f-3     :    -0.000000
 37 C s       :     0.000002  s :     0.000002
      pz      :     0.000001  p :    -0.000005
      px      :     0.000001
      py      :    -0.000007
      dz2     :    -0.000000  d :     0.000000
      dxz     :     0.000000
      dyz     :     0.000000
      dx2y2   :    -0.000000
      dxy     :     0.000000
      f0      :    -0.000000  f :    -0.000000
      f+1     :     0.000000
      f-1     :     0.000000
      f+2     :     0.000000
      f-2     :    -0.000000
      f+3     :    -0.000000
      f-3     :     0.000000
 38 C s       :     0.000005  s :     0.000005
      pz      :     0.000002  p :     0.000002
      px      :     0.000001
      py      :    -0.000001
      dz2     :    -0.000000  d :    -0.000000
      dxz     :     0.000000
      dyz     :    -0.000000
      dx2y2   :    -0.000000
      dxy     :     0.000000
      f0      :    -0.000000  f :    -0.000000
      f+1     :     0.000000
      f-1     :    -0.000000
      f+2     :    -0.000000
      f-2     :     0.000000
      f+3     :     0.000000
      f-3     :    -0.000000
 39 C s       :    -0.000007  s :    -0.000007
      pz      :     0.000000  p :     0.000002
      px      :     0.000000
      py      :     0.000001
      dz2     :     0.000000  d :     0.000000
      dxz     :     0.000000
      dyz     :     0.000000
      dx2y2   :    -0.000000
      dxy     :     0.000000
      f0      :     0.000000  f :     0.000000
      f+1     :    -0.000000
      f-1     :     0.000000
      f+2     :     0.000000
      f-2     :     0.000000
      f+3     :     0.000000
      f-3     :    -0.000000
 40 C s       :     0.000006  s :     0.000006
      pz      :     0.000003  p :     0.000005
      px      :    -0.000001
      py      :     0.000003
      dz2     :     0.000000  d :     0.000000
      dxz     :    -0.000000
      dyz     :    -0.000000
      dx2y2   :     0.000000
      dxy     :     0.000000
      f0      :    -0.000000  f :     0.000000
      f+1     :    -0.000000
      f-1     :     0.000000
      f+2     :     0.000000
      f-2     :    -0.000000
      f+3     :     0.000000
      f-3     :    -0.000000
 41 N s       :     0.013693  s :     0.013693
      pz      :     0.023575  p :     0.277691
      px      :     0.182460
      py      :     0.071656
      dz2     :     0.000101  d :    -0.000775
      dxz     :    -0.000393
      dyz     :    -0.000007
      dx2y2   :    -0.000110
      dxy     :    -0.000367
      f0      :    -0.000058  f :    -0.000451
      f+1     :    -0.000090
      f-1     :    -0.000038
      f+2     :    -0.000031
      f-2     :    -0.000063
      f+3     :    -0.000112
      f-3     :    -0.000058
 42 C s       :    -0.003022  s :    -0.003022
      pz      :    -0.002674  p :     0.011418
      px      :     0.012413
      py      :     0.001678
      dz2     :     0.000509  d :     0.009059
      dxz     :     0.002198
      dyz     :     0.001327
      dx2y2   :     0.004576
      dxy     :     0.000448
      f0      :     0.000036  f :     0.000474
      f+1     :     0.000060
      f-1     :     0.000081
      f+2     :     0.000181
      f-2     :     0.000023
      f+3     :    -0.000028
      f-3     :     0.000120
 43 C s       :     0.014739  s :     0.014739
      pz      :     0.002163  p :     0.103296
      px      :     0.072759
      py      :     0.028375
      dz2     :     0.000182  d :     0.001749
      dxz     :    -0.000076
      dyz     :    -0.000971
      dx2y2   :     0.001858
      dxy     :     0.000756
      f0      :    -0.000031  f :    -0.000190
      f+1     :    -0.000045
      f-1     :     0.000010
      f+2     :     0.000041
      f-2     :    -0.000050
      f+3     :    -0.000092
      f-3     :    -0.000022
 44 S s       :     0.007554  s :     0.007554
      pz      :     0.015578  p :     0.282008
      px      :     0.197272
      py      :     0.069158
      dz2     :     0.000871  d :     0.001860
      dxz     :    -0.000679
      dyz     :    -0.000534
      dx2y2   :     0.001285
      dxy     :     0.000917
      f0      :     0.000005  f :    -0.000420
      f+1     :    -0.000066
      f-1     :    -0.000034
      f+2     :    -0.000040
      f-2     :    -0.000152
      f+3     :    -0.000077
      f-3     :    -0.000056
 45 C s       :     0.014815  s :     0.014815
      pz      :     0.003338  p :     0.106761
      px      :     0.073334
      py      :     0.030090
      dz2     :     0.000080  d :     0.001742
      dxz     :    -0.000756
      dyz     :    -0.000475
      dx2y2   :     0.002598
      dxy     :     0.000296
      f0      :    -0.000034  f :    -0.000193
      f+1     :    -0.000032
      f-1     :    -0.000010
      f+2     :     0.000015
      f-2     :    -0.000015
      f+3     :    -0.000096
      f-3     :    -0.000021
 46 C s       :    -0.002754  s :    -0.002754
      pz      :    -0.003378  p :     0.014818
      px      :     0.017513
      py      :     0.000683
      dz2     :     0.000524  d :     0.009028
      dxz     :     0.004255
      dyz     :    -0.000403
      dx2y2   :     0.002860
      dxy     :     0.001792
      f0      :     0.000043  f :     0.000469
      f+1     :     0.000125
      f-1     :     0.000029
      f+2     :     0.000126
      f-2     :     0.000037
      f+3     :    -0.000025
      f-3     :     0.000133
 47 C s       :    -0.004089  s :    -0.004089
      pz      :    -0.000610  p :     0.021689
      px      :     0.016985
      py      :     0.005314
      dz2     :     0.000000  d :     0.000784
      dxz     :     0.000763
      dyz     :     0.000026
      dx2y2   :    -0.000088
      dxy     :     0.000081
      f0      :    -0.000014  f :     0.000058
      f+1     :    -0.000000
      f-1     :    -0.000009
      f+2     :     0.000055
      f-2     :     0.000030
      f+3     :    -0.000013
      f-3     :     0.000009
 48 C s       :     0.003150  s :     0.003150
      pz      :     0.000054  p :     0.008283
      px      :     0.006756
      py      :     0.001473
      dz2     :     0.000237  d :     0.002607
      dxz     :     0.000244
      dyz     :     0.000462
      dx2y2   :     0.001474
      dxy     :     0.000190
      f0      :     0.000011  f :     0.000130
      f+1     :     0.000019
      f-1     :     0.000008
      f+2     :    -0.000004
      f-2     :    -0.000000
      f+3     :    -0.000018
      f-3     :     0.000114
 49 C s       :     0.005389  s :     0.005389
      pz      :     0.006649  p :     0.084231
      px      :     0.055818
      py      :     0.021763
      dz2     :     0.000089  d :    -0.000264
      dxz     :    -0.000136
      dyz     :    -0.000063
      dx2y2   :    -0.000016
      dxy     :    -0.000138
      f0      :    -0.000023  f :    -0.000186
      f+1     :    -0.000049
      f-1     :    -0.000002
      f+2     :    -0.000013
      f-2     :    -0.000055
      f+3     :    -0.000059
      f-3     :     0.000016
 50 C s       :    -0.009419  s :    -0.009419
      pz      :    -0.007519  p :    -0.048857
      px      :    -0.028269
      py      :    -0.013069
      dz2     :     0.000069  d :     0.003313
      dxz     :     0.001908
      dyz     :     0.000975
      dx2y2   :     0.000345
      dxy     :     0.000017
      f0      :     0.000023  f :     0.000412
      f+1     :     0.000033
      f-1     :     0.000059
      f+2     :     0.000205
      f-2     :     0.000046
      f+3     :     0.000036
      f-3     :     0.000010
 51 C s       :    -0.009607  s :    -0.009607
      pz      :    -0.007871  p :    -0.050716
      px      :    -0.029072
      py      :    -0.013774
      dz2     :     0.000116  d :     0.003422
      dxz     :     0.002304
      dyz     :     0.000689
      dx2y2   :    -0.000006
      dxy     :     0.000319
      f0      :     0.000025  f :     0.000424
      f+1     :     0.000073
      f-1     :     0.000027
      f+2     :     0.000163
      f-2     :     0.000089
      f+3     :     0.000037
      f-3     :     0.000009
 52 C s       :     0.005466  s :     0.005466
      pz      :     0.007285  p :     0.086489
      px      :     0.057189
      py      :     0.022015
      dz2     :     0.000107  d :    -0.000284
      dxz     :    -0.000238
      dyz     :    -0.000030
      dx2y2   :     0.000009
      dxy     :    -0.000131
      f0      :    -0.000023  f :    -0.000190
      f+1     :    -0.000020
      f-1     :    -0.000030
      f+2     :    -0.000051
      f-2     :    -0.000019
      f+3     :    -0.000063
      f-3     :     0.000016
 53 C s       :     0.003306  s :     0.003306
      pz      :     0.000059  p :     0.009906
      px      :     0.008131
      py      :     0.001717
      dz2     :     0.000217  d :     0.002607
      dxz     :     0.000763
      dyz     :     0.000029
      dx2y2   :     0.001041
      dxy     :     0.000557
      f0      :     0.000011  f :     0.000129
      f+1     :     0.000010
      f-1     :     0.000018
      f+2     :     0.000002
      f-2     :    -0.000011
      f+3     :    -0.000019
      f-3     :     0.000118
 54 C s       :    -0.004336  s :    -0.004336
      pz      :    -0.000461  p :     0.019980
      px      :     0.015681
      py      :     0.004761
      dz2     :     0.000040  d :     0.000876
      dxz     :     0.000326
      dyz     :     0.000448
      dx2y2   :     0.000277
      dxy     :    -0.000215
      f0      :    -0.000012  f :     0.000067
      f+1     :    -0.000020
      f-1     :     0.000015
      f+2     :     0.000093
      f-2     :    -0.000013
      f+3     :    -0.000009
      f-3     :     0.000013
 55 H s       :    -0.000017  s :    -0.000017
      pz      :     0.000000  p :    -0.000000
      px      :    -0.000000
      py      :    -0.000000
 56 H s       :     0.000006  s :     0.000006
      pz      :    -0.000000  p :     0.000000
      px      :     0.000000
      py      :     0.000000
 57 H s       :     0.000005  s :     0.000005
      pz      :    -0.000000  p :     0.000000
      px      :     0.000000
      py      :     0.000000
 58 H s       :    -0.000014  s :    -0.000014
      pz      :     0.000000  p :    -0.000000
      px      :    -0.000000
      py      :    -0.000000
 59 H s       :     0.000543  s :     0.000543
      pz      :    -0.000007  p :    -0.000010
      px      :    -0.000004
      py      :     0.000000
 60 H s       :    -0.000502  s :    -0.000502
      pz      :     0.000008  p :     0.000018
      px      :     0.000011
      py      :    -0.000001
 61 H s       :    -0.000557  s :    -0.000557
      pz      :     0.000008  p :     0.000018
      px      :     0.000010
      py      :     0.000000
 62 H s       :     0.000577  s :     0.000577
      pz      :    -0.000007  p :    -0.000010
      px      :     0.000002
      py      :    -0.000006
 63 H s       :    -0.000040  s :    -0.000040
      pz      :    -0.000000  p :    -0.000000
      px      :     0.000000
      py      :    -0.000000
 64 H s       :     0.000025  s :     0.000025
      pz      :     0.000000  p :     0.000000
      px      :     0.000000
      py      :     0.000000
 65 H s       :     0.000050  s :     0.000050
      pz      :     0.000000  p :     0.000000
      px      :     0.000000
      py      :     0.000000
 66 H s       :    -0.000044  s :    -0.000044
      pz      :    -0.000000  p :    -0.000000
      px      :     0.000000
      py      :    -0.000000
 67 H s       :    -0.000000  s :    -0.000000
      pz      :    -0.000000  p :    -0.000000
      px      :     0.000000
      py      :    -0.000000
 68 H s       :     0.000001  s :     0.000001
      pz      :     0.000000  p :     0.000000
      px      :    -0.000000
      py      :    -0.000000
 69 H s       :    -0.000000  s :    -0.000000
      pz      :     0.000000  p :    -0.000000
      px      :    -0.000000
      py      :     0.000000
 70 H s       :     0.000000  s :     0.000000
      pz      :     0.000000  p :     0.000000
      px      :     0.000000
      py      :    -0.000000
 71 H s       :    -0.000001  s :    -0.000001
      pz      :    -0.000000  p :    -0.000000
      px      :     0.000000
      py      :     0.000000
 72 H s       :    -0.000001  s :    -0.000001
      pz      :    -0.000000  p :    -0.000000
      px      :     0.000000
      py      :    -0.000000
 73 H s       :     0.000000  s :     0.000000
      pz      :    -0.000000  p :     0.000000
      px      :     0.000000
      py      :    -0.000000
 74 H s       :    -0.000001  s :    -0.000001
      pz      :     0.000000  p :    -0.000000
      px      :    -0.000000
      py      :    -0.000000
 75 H s       :    -0.000000  s :    -0.000000
      pz      :    -0.000000  p :    -0.000000
      px      :    -0.000000
      py      :     0.000000
 76 H s       :    -0.001677  s :    -0.001677
      pz      :    -0.000008  p :     0.000111
      px      :     0.000082
      py      :     0.000038
 77 H s       :    -0.000535  s :    -0.000535
      pz      :     0.000004  p :     0.000062
      px      :     0.000041
      py      :     0.000017
 78 H s       :    -0.004493  s :    -0.004493
      pz      :     0.000047  p :     0.000494
      px      :     0.000327
      py      :     0.000120
 79 H s       :     0.001329  s :     0.001329
      pz      :    -0.000028  p :    -0.000275
      px      :    -0.000173
      py      :    -0.000074
 80 H s       :     0.001385  s :     0.001385
      pz      :    -0.000029  p :    -0.000284
      px      :    -0.000181
      py      :    -0.000074
 81 H s       :    -0.004562  s :    -0.004562
      pz      :     0.000054  p :     0.000505
      px      :     0.000325
      py      :     0.000126
 82 H s       :    -0.000597  s :    -0.000597
      pz      :     0.000005  p :     0.000071
      px      :     0.000050
      py      :     0.000017
 83 H s       :    -0.001626  s :    -0.001626
      pz      :    -0.000009  p :     0.000102
      px      :     0.000074
      py      :     0.000037


                     *******************************
                     * LOEWDIN POPULATION ANALYSIS *
                     *******************************

-------------------------------------------
LOEWDIN ATOMIC CHARGES AND SPIN POPULATIONS
-------------------------------------------
   0 C :   -0.105092   -0.000001
   1 C :   -0.087428   -0.000006
   2 C :   -0.111232    0.000000
   3 C :   -0.076799   -0.000006
   4 C :   -0.082485   -0.000001
   5 C :   -0.167487   -0.000005
   6 C :   -0.221621   -0.000014
   7 N :    0.190636    0.000108
   8 C :   -0.218773   -0.000011
   9 N :    0.168886    0.000210
  10 C :   -0.255187   -0.000034
  11 N :    0.170130    0.000201
  12 C :   -0.081495    0.000695
  13 C :   -0.059142   -0.000037
  14 C :   -0.101548    0.005801
  15 C :   -0.184382    0.012900
  16 C :   -0.108427    0.005841
  17 C :   -0.065609   -0.000011
  18 C :   -0.137620    0.000005
  19 C :   -0.072463   -0.000011
  20 C :   -0.111636    0.000005
  21 C :   -0.146235   -0.000010
  22 C :   -0.123065    0.000004
  23 C :   -0.088494   -0.000011
  24 C :   -0.717988   -0.000017
  25 S :    0.331860    0.000028
  26 S :    0.424520   -0.000009
  27 N :    0.284745   -0.000005
  28 C :   -0.171676   -0.000000
  29 C :   -0.321335   -0.000000
  30 S :    0.700969   -0.000000
  31 C :   -0.318617   -0.000000
  32 C :   -0.166915   -0.000000
  33 C :   -0.136752   -0.000000
  34 C :   -0.141470   -0.000000
  35 C :   -0.144575   -0.000000
  36 C :   -0.106936   -0.000000
  37 C :   -0.105575   -0.000000
  38 C :   -0.129758    0.000000
  39 C :   -0.126685   -0.000000
  40 C :   -0.132231    0.000000
  41 N :    0.366136    0.224206
  42 C :   -0.127181    0.052311
  43 C :   -0.316838    0.094490
  44 S :    0.891926    0.268096
  45 C :   -0.316502    0.097204
  46 C :   -0.126847    0.054977
  47 C :   -0.079724    0.023279
  48 C :   -0.092123    0.019257
  49 C :   -0.098910    0.063287
  50 C :   -0.126224   -0.014539
  51 C :   -0.125228   -0.015372
  52 C :   -0.095228    0.065051
  53 C :   -0.088887    0.020529
  54 C :   -0.079316    0.022641
  55 H :    0.151256   -0.000000
  56 H :    0.151362   -0.000001
  57 H :    0.156714   -0.000000
  58 H :    0.156167    0.000000
  59 H :    0.167772    0.000301
  60 H :    0.160892   -0.000185
  61 H :    0.156618   -0.000198
  62 H :    0.164123    0.000308
  63 H :    0.159552   -0.000000
  64 H :    0.160207    0.000000
  65 H :    0.154481    0.000000
  66 H :    0.150090   -0.000001
  67 H :    0.057495   -0.000000
  68 H :    0.149400   -0.000000
  69 H :    0.145323   -0.000000
  70 H :    0.144899   -0.000000
  71 H :    0.155704    0.000000
  72 H :    0.156292    0.000000
  73 H :    0.151614    0.000000
  74 H :    0.152342   -0.000000
  75 H :    0.151293   -0.000000
  76 H :    0.174287   -0.000226
  77 H :    0.162962   -0.000023
  78 H :    0.160525   -0.000092
  79 H :    0.158718   -0.000275
  80 H :    0.159188   -0.000276
  81 H :    0.161999   -0.000100
  82 H :    0.164253   -0.000026
  83 H :    0.174404   -0.000232

----------------------------------------------------
LOEWDIN REDUCED ORBITAL CHARGES AND SPIN POPULATIONS
----------------------------------------------------
CHARGE
  0 C s       :     2.751687  s :     2.751687
      pz      :     0.876459  p :     2.927313
      px      :     1.051502
      py      :     0.999352
      dz2     :     0.026227  d :     0.382222
      dxz     :     0.062372
      dyz     :     0.029704
      dx2y2   :     0.115514
      dxy     :     0.148406
      f0      :     0.003294  f :     0.043869
      f+1     :     0.004152
      f-1     :     0.003462
      f+2     :     0.006210
      f-2     :     0.003074
      f+3     :     0.008187
      f-3     :     0.015490
  1 C s       :     2.748763  s :     2.748763
      pz      :     0.863922  p :     2.909933
      px      :     1.045938
      py      :     1.000072
      dz2     :     0.026454  d :     0.384290
      dxz     :     0.065131
      dyz     :     0.030034
      dx2y2   :     0.114427
      dxy     :     0.148244
      f0      :     0.003284  f :     0.044443
      f+1     :     0.004092
      f-1     :     0.003468
      f+2     :     0.006263
      f-2     :     0.003384
      f+3     :     0.008305
      f-3     :     0.015647
  2 C s       :     2.693719  s :     2.693719
      pz      :     0.864150  p :     2.864319
      px      :     0.953893
      py      :     1.046276
      dz2     :     0.038343  d :     0.495987
      dxz     :     0.050495
      dyz     :     0.079925
      dx2y2   :     0.184323
      dxy     :     0.142901
      f0      :     0.004064  f :     0.057207
      f+1     :     0.004559
      f-1     :     0.004307
      f+2     :     0.004636
      f-2     :     0.007749
      f+3     :     0.010037
      f-3     :     0.021856
  3 C s       :     2.749313  s :     2.749313
      pz      :     0.854808  p :     2.902068
      px      :     1.047298
      py      :     0.999962
      dz2     :     0.026121  d :     0.381118
      dxz     :     0.062090
      dyz     :     0.030639
      dx2y2   :     0.112327
      dxy     :     0.149941
      f0      :     0.003290  f :     0.044300
      f+1     :     0.004099
      f-1     :     0.003450
      f+2     :     0.006239
      f-2     :     0.003262
      f+3     :     0.008280
      f-3     :     0.015679
  4 C s       :     2.752408  s :     2.752408
      pz      :     0.855201  p :     2.906919
      px      :     1.051126
      py      :     1.000592
      dz2     :     0.026524  d :     0.379211
      dxz     :     0.061809
      dyz     :     0.028808
      dx2y2   :     0.114759
      dxy     :     0.147312
      f0      :     0.003378  f :     0.043947
      f+1     :     0.004179
      f-1     :     0.003403
      f+2     :     0.006015
      f-2     :     0.003184
      f+3     :     0.008284
      f-3     :     0.015504
  5 C s       :     2.710114  s :     2.710114
      pz      :     0.835152  p :     2.878048
      px      :     0.990757
      py      :     1.052140
      dz2     :     0.039861  d :     0.520602
      dxz     :     0.065488
      dyz     :     0.078133
      dx2y2   :     0.185895
      dxy     :     0.151226
      f0      :     0.004124  f :     0.058723
      f+1     :     0.004765
      f-1     :     0.004334
      f+2     :     0.005856
      f-2     :     0.007537
      f+3     :     0.009764
      f-3     :     0.022342
  6 C s       :     2.705556  s :     2.705556
      pz      :     0.741668  p :     2.682271
      px      :     0.963206
      py      :     0.977397
      dz2     :     0.047781  d :     0.733974
      dxz     :     0.084869
      dyz     :     0.115577
      dx2y2   :     0.293508
      dxy     :     0.192240
      f0      :     0.005811  f :     0.099820
      f+1     :     0.004711
      f-1     :     0.007837
      f+2     :     0.007923
      f-2     :     0.013643
      f+3     :     0.015158
      f-3     :     0.044736
  7 N s       :     3.007505  s :     3.007505
      pz      :     1.046568  p :     3.581080
      px      :     1.191687
      py      :     1.342825
      dz2     :     0.018645  d :     0.202228
      dxz     :     0.027546
      dyz     :     0.017009
      dx2y2   :     0.073480
      dxy     :     0.065548
      f0      :     0.001259  f :     0.018552
      f+1     :     0.001862
      f-1     :     0.001158
      f+2     :     0.002151
      f-2     :     0.001014
      f+3     :     0.004243
      f-3     :     0.006864
  8 C s       :     2.705400  s :     2.705400
      pz      :     0.742632  p :     2.680098
      px      :     0.971391
      py      :     0.966075
      dz2     :     0.047793  d :     0.733957
      dxz     :     0.106497
      dyz     :     0.099333
      dx2y2   :     0.215278
      dxy     :     0.265056
      f0      :     0.005754  f :     0.099319
      f+1     :     0.006972
      f-1     :     0.005531
      f+2     :     0.012043
      f-2     :     0.009822
      f+3     :     0.015167
      f-3     :     0.044030
  9 N s       :     3.008043  s :     3.008043
      pz      :     1.066756  p :     3.601279
      px      :     1.411976
      py      :     1.122547
      dz2     :     0.018407  d :     0.202996
      dxz     :     0.011113
      dyz     :     0.035162
      dx2y2   :     0.062508
      dxy     :     0.075807
      f0      :     0.001250  f :     0.018796
      f+1     :     0.000794
      f-1     :     0.002209
      f+2     :     0.000396
      f-2     :     0.002965
      f+3     :     0.004302
      f-3     :     0.006880
 10 C s       :     2.700659  s :     2.700659
      pz      :     0.773434  p :     2.710026
      px      :     0.980574
      py      :     0.956019
      dz2     :     0.048467  d :     0.743964
      dxz     :     0.116185
      dyz     :     0.085093
      dx2y2   :     0.218037
      dxy     :     0.276183
      f0      :     0.005794  f :     0.100538
      f+1     :     0.007135
      f-1     :     0.005576
      f+2     :     0.012418
      f-2     :     0.009140
      f+3     :     0.015313
      f-3     :     0.045162
 11 N s       :     3.010555  s :     3.010555
      pz      :     1.065023  p :     3.597525
      px      :     1.193487
      py      :     1.339015
      dz2     :     0.018563  d :     0.202874
      dxz     :     0.029538
      dyz     :     0.016517
      dx2y2   :     0.073178
      dxy     :     0.065078
      f0      :     0.001260  f :     0.018916
      f+1     :     0.001872
      f-1     :     0.001132
      f+2     :     0.002355
      f-2     :     0.000996
      f+3     :     0.004379
      f-3     :     0.006922
 12 C s       :     2.697928  s :     2.697928
      pz      :     0.824702  p :     2.833677
      px      :     1.021407
      py      :     0.987568
      dz2     :     0.037837  d :     0.493024
      dxz     :     0.067675
      dyz     :     0.063058
      dx2y2   :     0.154047
      dxy     :     0.170408
      f0      :     0.004045  f :     0.056866
      f+1     :     0.004400
      f-1     :     0.004304
      f+2     :     0.006632
      f-2     :     0.005812
      f+3     :     0.009790
      f-3     :     0.021883
 13 C s       :     2.750185  s :     2.750185
      pz      :     0.838808  p :     2.888414
      px      :     1.004083
      py      :     1.045524
      dz2     :     0.025529  d :     0.376414
      dxz     :     0.018138
      dyz     :     0.073884
      dx2y2   :     0.155819
      dxy     :     0.103044
      f0      :     0.003407  f :     0.044130
      f+1     :     0.002759
      f-1     :     0.004650
      f+2     :     0.001939
      f-2     :     0.007523
      f+3     :     0.008213
      f-3     :     0.015639
 14 C s       :     2.751004  s :     2.751004
      pz      :     0.886152  p :     2.921809
      px      :     1.019150
      py      :     1.016506
      dz2     :     0.028408  d :     0.383820
      dxz     :     0.066826
      dyz     :     0.032542
      dx2y2   :     0.124671
      dxy     :     0.131373
      f0      :     0.003413  f :     0.044914
      f+1     :     0.004719
      f-1     :     0.003250
      f+2     :     0.007030
      f-2     :     0.003404
      f+3     :     0.008382
      f-3     :     0.014717
 15 C s       :     2.692745  s :     2.692745
      pz      :     0.926110  p :     2.833003
      px      :     1.020763
      py      :     0.886130
      dz2     :     0.053395  d :     0.584224
      dxz     :     0.085585
      dyz     :     0.070646
      dx2y2   :     0.178640
      dxy     :     0.195958
      f0      :     0.005286  f :     0.074410
      f+1     :     0.005218
      f-1     :     0.006533
      f+2     :     0.008035
      f-2     :     0.008213
      f+3     :     0.012667
      f-3     :     0.028458
 16 C s       :     2.750539  s :     2.750539
      pz      :     0.892405  p :     2.927382
      px      :     0.989039
      py      :     1.045938
      dz2     :     0.027482  d :     0.385527
      dxz     :     0.017586
      dyz     :     0.083598
      dx2y2   :     0.154310
      dxy     :     0.102551
      f0      :     0.003445  f :     0.044980
      f+1     :     0.002960
      f-1     :     0.004939
      f+2     :     0.001888
      f-2     :     0.008577
      f+3     :     0.008370
      f-3     :     0.014800
 17 C s       :     2.749735  s :     2.749735
      pz      :     0.844581  p :     2.893738
      px      :     1.030987
      py      :     1.018170
      dz2     :     0.026444  d :     0.377939
      dxz     :     0.057453
      dyz     :     0.034770
      dx2y2   :     0.116948
      dxy     :     0.142324
      f0      :     0.003357  f :     0.044197
      f+1     :     0.004233
      f-1     :     0.003251
      f+2     :     0.005868
      f-2     :     0.003687
      f+3     :     0.008230
      f-3     :     0.015570
 18 C s       :     2.687952  s :     2.687952
      pz      :     0.901078  p :     2.899440
      px      :     1.018800
      py      :     0.979562
      dz2     :     0.035020  d :     0.492782
      dxz     :     0.068984
      dyz     :     0.056654
      dx2y2   :     0.157716
      dxy     :     0.174408
      f0      :     0.004139  f :     0.057446
      f+1     :     0.004473
      f-1     :     0.004488
      f+2     :     0.006665
      f-2     :     0.004818
      f+3     :     0.010297
      f-3     :     0.022567
 19 C s       :     2.749040  s :     2.749040
      pz      :     0.830310  p :     2.883736
      px      :     1.001640
      py      :     1.051786
      dz2     :     0.025179  d :     0.394710
      dxz     :     0.012832
      dyz     :     0.093052
      dx2y2   :     0.161612
      dxy     :     0.102035
      f0      :     0.003211  f :     0.044977
      f+1     :     0.003073
      f-1     :     0.004451
      f+2     :     0.001593
      f-2     :     0.008627
      f+3     :     0.008360
      f-3     :     0.015660
 20 C s       :     2.745790  s :     2.745790
      pz      :     0.927570  p :     2.956759
      px      :     1.010083
      py      :     1.019105
      dz2     :     0.025908  d :     0.365920
      dxz     :     0.052155
      dyz     :     0.026717
      dx2y2   :     0.123118
      dxy     :     0.138021
      f0      :     0.003196  f :     0.043167
      f+1     :     0.004360
      f-1     :     0.003585
      f+2     :     0.005417
      f-2     :     0.002859
      f+3     :     0.008594
      f-3     :     0.015157
 21 C s       :     2.692138  s :     2.692138
      pz      :     0.808934  p :     2.754377
      px      :     1.019191
      py      :     0.926252
      dz2     :     0.039905  d :     0.622684
      dxz     :     0.094436
      dyz     :     0.125900
      dx2y2   :     0.172368
      dxy     :     0.190075
      f0      :     0.005304  f :     0.077036
      f+1     :     0.004854
      f-1     :     0.005932
      f+2     :     0.009273
      f-2     :     0.012622
      f+3     :     0.012342
      f-3     :     0.026709
 22 C s       :     2.745321  s :     2.745321
      pz      :     0.938153  p :     2.966363
      px      :     0.989001
      py      :     1.039209
      dz2     :     0.025671  d :     0.368127
      dxz     :     0.012860
      dyz     :     0.068810
      dx2y2   :     0.157428
      dxy     :     0.103357
      f0      :     0.003239  f :     0.043254
      f+1     :     0.003158
      f-1     :     0.004709
      f+2     :     0.001620
      f-2     :     0.006854
      f+3     :     0.008570
      f-3     :     0.015104
 23 C s       :     2.748119  s :     2.748119
      pz      :     0.845878  p :     2.896542
      px      :     1.031406
      py      :     1.019258
      dz2     :     0.026016  d :     0.398772
      dxz     :     0.073156
      dyz     :     0.034899
      dx2y2   :     0.117793
      dxy     :     0.146909
      f0      :     0.003163  f :     0.045061
      f+1     :     0.004086
      f-1     :     0.003476
      f+2     :     0.007023
      f-2     :     0.003330
      f+3     :     0.008380
      f-3     :     0.015603
 24 C s       :     2.897871  s :     2.897871
      pz      :     1.004812  p :     3.114461
      px      :     1.103378
      py      :     1.006272
      dz2     :     0.131700  d :     0.654949
      dxz     :     0.127109
      dyz     :     0.105338
      dx2y2   :     0.161153
      dxy     :     0.129650
      f0      :     0.005537  f :     0.050707
      f+1     :     0.006212
      f-1     :     0.006161
      f+2     :     0.009915
      f-2     :     0.005706
      f+3     :     0.006569
      f-3     :     0.010607
 25 S s       :     5.388685  s :     5.388685
      pz      :     3.274833  p :    10.083566
      px      :     3.555154
      py      :     3.253579
      dz2     :     0.024490  d :     0.166954
      dxz     :     0.034218
      dyz     :     0.043126
      dx2y2   :     0.026308
      dxy     :     0.038812
      f0      :     0.002585  f :     0.028934
      f+1     :     0.002905
      f-1     :     0.003931
      f+2     :     0.004727
      f-2     :     0.007575
      f+3     :     0.003317
      f-3     :     0.003894
 26 S s       :     5.326083  s :     5.326083
      pz      :     3.488850  p :    10.015031
      px      :     3.033785
      py      :     3.492397
      dz2     :     0.038892  d :     0.204389
      dxz     :     0.028611
      dyz     :     0.044622
      dx2y2   :     0.063881
      dxy     :     0.028383
      f0      :     0.003208  f :     0.029977
      f+1     :     0.002603
      f-1     :     0.004639
      f+2     :     0.006104
      f-2     :     0.005615
      f+3     :     0.003868
      f-3     :     0.003941
 27 N s       :     2.839462  s :     2.839462
      pz      :     1.372488  p :     3.571171
      px      :     1.096359
      py      :     1.102324
      dz2     :     0.020474  d :     0.284443
      dxz     :     0.036941
      dyz     :     0.038015
      dx2y2   :     0.094173
      dxy     :     0.094841
      f0      :     0.002071  f :     0.020178
      f+1     :     0.002035
      f-1     :     0.001956
      f+2     :     0.002444
      f-2     :     0.002540
      f+3     :     0.002606
      f-3     :     0.006526
 28 C s       :     2.690306  s :     2.690306
      pz      :     1.043268  p :     2.804981
      px      :     0.895239
      py      :     0.866475
      dz2     :     0.144402  d :     0.599526
      dxz     :     0.110073
      dyz     :     0.165362
      dx2y2   :     0.086558
      dxy     :     0.093130
      f0      :     0.016548  f :     0.076863
      f+1     :     0.010050
      f-1     :     0.010354
      f+2     :     0.010110
      f-2     :     0.012097
      f+3     :     0.008837
      f-3     :     0.008867
 29 C s       :     2.754020  s :     2.754020
      pz      :     1.011746  p :     2.963198
      px      :     0.934058
      py      :     1.017394
      dz2     :     0.109925  d :     0.547831
      dxz     :     0.115146
      dyz     :     0.151144
      dx2y2   :     0.094350
      dxy     :     0.077266
      f0      :     0.010584  f :     0.056287
      f+1     :     0.008592
      f-1     :     0.008314
      f+2     :     0.008511
      f-2     :     0.007787
      f+3     :     0.005791
      f-3     :     0.006708
 30 S s       :     5.186732  s :     5.186732
      pz      :     3.284644  p :     9.795063
      px      :     3.058952
      py      :     3.451467
      dz2     :     0.039768  d :     0.271091
      dxz     :     0.086200
      dyz     :     0.048689
      dx2y2   :     0.045246
      dxy     :     0.051189
      f0      :     0.005645  f :     0.046145
      f+1     :     0.010945
      f-1     :     0.004807
      f+2     :     0.008296
      f-2     :     0.009242
      f+3     :     0.003771
      f-3     :     0.003439
 31 C s       :     2.754965  s :     2.754965
      pz      :     1.015518  p :     2.959369
      px      :     1.031198
      py      :     0.912653
      dz2     :     0.104834  d :     0.548030
      dxz     :     0.175218
      dyz     :     0.081805
      dx2y2   :     0.090339
      dxy     :     0.095833
      f0      :     0.008903  f :     0.056253
      f+1     :     0.012184
      f-1     :     0.006177
      f+2     :     0.008593
      f-2     :     0.007114
      f+3     :     0.006451
      f-3     :     0.006829
 32 C s       :     2.690663  s :     2.690663
      pz      :     1.019828  p :     2.799958
      px      :     0.880596
      py      :     0.899534
      dz2     :     0.141891  d :     0.599504
      dxz     :     0.193043
      dyz     :     0.075629
      dx2y2   :     0.103216
      dxy     :     0.085725
      f0      :     0.011921  f :     0.076791
      f+1     :     0.019112
      f-1     :     0.006805
      f+2     :     0.012250
      f-2     :     0.008273
      f+3     :     0.009421
      f-3     :     0.009010
 33 C s       :     2.757638  s :     2.757638
      pz      :     0.982717  p :     2.945899
      px      :     1.054550
      py      :     0.908632
      dz2     :     0.089620  d :     0.388669
      dxz     :     0.103759
      dyz     :     0.033159
      dx2y2   :     0.076441
      dxy     :     0.085691
      f0      :     0.004401  f :     0.044546
      f+1     :     0.010697
      f-1     :     0.003287
      f+2     :     0.007373
      f-2     :     0.006385
      f+3     :     0.006210
      f-3     :     0.006193
 34 C s       :     2.758006  s :     2.758006
      pz      :     1.040543  p :     2.947995
      px      :     0.995262
      py      :     0.912189
      dz2     :     0.112638  d :     0.390937
      dxz     :     0.109779
      dyz     :     0.071059
      dx2y2   :     0.066396
      dxy     :     0.031065
      f0      :     0.007470  f :     0.044531
      f+1     :     0.010896
      f-1     :     0.006138
      f+2     :     0.006418
      f-2     :     0.006536
      f+3     :     0.004456
      f-3     :     0.002619
 35 C s       :     2.757366  s :     2.757366
      pz      :     1.018759  p :     2.954121
      px      :     1.026731
      py      :     0.908632
      dz2     :     0.078315  d :     0.388677
      dxz     :     0.149138
      dyz     :     0.050415
      dx2y2   :     0.048303
      dxy     :     0.062506
      f0      :     0.008229  f :     0.044410
      f+1     :     0.009925
      f-1     :     0.005679
      f+2     :     0.006627
      f-2     :     0.003728
      f+3     :     0.004371
      f-3     :     0.005851
 36 C s       :     2.754138  s :     2.754138
      pz      :     0.975552  p :     2.924541
      px      :     1.050309
      py      :     0.898680
      dz2     :     0.087160  d :     0.383960
      dxz     :     0.113558
      dyz     :     0.029587
      dx2y2   :     0.070194
      dxy     :     0.083461
      f0      :     0.004498  f :     0.044297
      f+1     :     0.011219
      f-1     :     0.002680
      f+2     :     0.007552
      f-2     :     0.006696
      f+3     :     0.005976
      f-3     :     0.005677
 37 C s       :     2.753913  s :     2.753913
      pz      :     0.980647  p :     2.923860
      px      :     0.944979
      py      :     0.998234
      dz2     :     0.084900  d :     0.383481
      dxz     :     0.048177
      dyz     :     0.110375
      dx2y2   :     0.075204
      dxy     :     0.064824
      f0      :     0.007079  f :     0.044321
      f+1     :     0.005302
      f-1     :     0.007017
      f+2     :     0.006863
      f-2     :     0.007045
      f+3     :     0.005375
      f-3     :     0.005640
 38 C s       :     2.757977  s :     2.757977
      pz      :     1.014004  p :     2.941559
      px      :     0.924877
      py      :     1.002678
      dz2     :     0.076991  d :     0.385849
      dxz     :     0.080466
      dyz     :     0.114028
      dx2y2   :     0.057299
      dxy     :     0.057065
      f0      :     0.009453  f :     0.044373
      f+1     :     0.006609
      f-1     :     0.006976
      f+2     :     0.004146
      f-2     :     0.006497
      f+3     :     0.004670
      f-3     :     0.006021
 39 C s       :     2.758534  s :     2.758534
      pz      :     1.049787  p :     2.936243
      px      :     0.925552
      py      :     0.960904
      dz2     :     0.126095  d :     0.387444
      dxz     :     0.087057
      dyz     :     0.088055
      dx2y2   :     0.034748
      dxy     :     0.051489
      f0      :     0.009190  f :     0.044464
      f+1     :     0.008108
      f-1     :     0.007130
      f+2     :     0.007645
      f-2     :     0.007074
      f+3     :     0.003595
      f-3     :     0.001723
 40 C s       :     2.757592  s :     2.757592
      pz      :     0.995839  p :     2.941964
      px      :     0.954438
      py      :     0.991686
      dz2     :     0.090670  d :     0.388093
      dxz     :     0.047193
      dyz     :     0.101166
      dx2y2   :     0.077540
      dxy     :     0.071525
      f0      :     0.007175  f :     0.044582
      f+1     :     0.005758
      f-1     :     0.006432
      f+2     :     0.006478
      f-2     :     0.006799
      f+3     :     0.005625
      f-3     :     0.006316
 41 N s       :     2.841171  s :     2.841171
      pz      :     1.132189  p :     3.471444
      px      :     1.195044
      py      :     1.144212
      dz2     :     0.079202  d :     0.300992
      dxz     :     0.060916
      dyz     :     0.085491
      dx2y2   :     0.037952
      dxy     :     0.037431
      f0      :     0.005445  f :     0.020256
      f+1     :     0.002554
      f-1     :     0.002471
      f+2     :     0.002666
      f-2     :     0.003374
      f+3     :     0.001601
      f-3     :     0.002144
 42 C s       :     2.687652  s :     2.687652
      pz      :     0.913845  p :     2.769079
      px      :     0.879186
      py      :     0.976047
      dz2     :     0.145764  d :     0.594615
      dxz     :     0.127415
      dyz     :     0.156198
      dx2y2   :     0.086526
      dxy     :     0.078711
      f0      :     0.018309  f :     0.075835
      f+1     :     0.010210
      f-1     :     0.011691
      f+2     :     0.011410
      f-2     :     0.012990
      f+3     :     0.005419
      f-3     :     0.005807
 43 C s       :     2.751521  s :     2.751521
      pz      :     1.011988  p :     2.966029
      px      :     0.948321
      py      :     1.005720
      dz2     :     0.115593  d :     0.543776
      dxz     :     0.104673
      dyz     :     0.166070
      dx2y2   :     0.083573
      dxy     :     0.073867
      f0      :     0.012369  f :     0.055512
      f+1     :     0.006419
      f-1     :     0.008210
      f+2     :     0.007404
      f-2     :     0.009936
      f+3     :     0.005350
      f-3     :     0.005824
 44 S s       :     5.141490  s :     5.141490
      pz      :     2.888673  p :     9.590899
      px      :     3.372506
      py      :     3.329720
      dz2     :     0.083500  d :     0.323450
      dxz     :     0.077926
      dyz     :     0.099885
      dx2y2   :     0.033635
      dxy     :     0.028504
      f0      :     0.009057  f :     0.052234
      f+1     :     0.006660
      f-1     :     0.011736
      f+2     :     0.009628
      f-2     :     0.010867
      f+3     :     0.001930
      f-3     :     0.002356
 45 C s       :     2.751525  s :     2.751525
      pz      :     1.013237  p :     2.965430
      px      :     0.940134
      py      :     1.012059
      dz2     :     0.113566  d :     0.544027
      dxz     :     0.115069
      dyz     :     0.156359
      dx2y2   :     0.082239
      dxy     :     0.076794
      f0      :     0.012171  f :     0.055520
      f+1     :     0.006982
      f-1     :     0.008004
      f+2     :     0.007755
      f-2     :     0.009249
      f+3     :     0.005435
      f-3     :     0.005924
 46 C s       :     2.687679  s :     2.687679
      pz      :     0.907702  p :     2.768514
      px      :     0.906299
      py      :     0.954514
      dz2     :     0.148037  d :     0.594796
      dxz     :     0.117980
      dyz     :     0.163953
      dx2y2   :     0.084065
      dxy     :     0.080762
      f0      :     0.018212  f :     0.075858
      f+1     :     0.010506
      f-1     :     0.012235
      f+2     :     0.011142
      f-2     :     0.012638
      f+3     :     0.005373
      f-3     :     0.005753
 47 C s       :     2.748038  s :     2.748038
      pz      :     1.032517  p :     2.916750
      px      :     0.920784
      py      :     0.963449
      dz2     :     0.125796  d :     0.371200
      dxz     :     0.077369
      dyz     :     0.098115
      dx2y2   :     0.023415
      dxy     :     0.046506
      f0      :     0.011212  f :     0.043737
      f+1     :     0.005921
      f-1     :     0.008133
      f+2     :     0.007091
      f-2     :     0.007672
      f+3     :     0.002830
      f-3     :     0.000878
 48 C s       :     2.758653  s :     2.758653
      pz      :     1.017290  p :     2.903052
      px      :     0.901468
      py      :     0.984295
      dz2     :     0.083514  d :     0.385834
      dxz     :     0.059232
      dyz     :     0.126378
      dx2y2   :     0.061217
      dxy     :     0.055494
      f0      :     0.010460  f :     0.044584
      f+1     :     0.005354
      f-1     :     0.006916
      f+2     :     0.004354
      f-2     :     0.007410
      f+3     :     0.004691
      f-3     :     0.005399
 49 C s       :     2.759074  s :     2.759074
      pz      :     1.010898  p :     2.910958
      px      :     0.897575
      py      :     1.002485
      dz2     :     0.090560  d :     0.384112
      dxz     :     0.065946
      dyz     :     0.104828
      dx2y2   :     0.063129
      dxy     :     0.059649
      f0      :     0.010132  f :     0.044766
      f+1     :     0.004824
      f-1     :     0.006788
      f+2     :     0.004651
      f-2     :     0.008234
      f+3     :     0.004943
      f-3     :     0.005194
 50 C s       :     2.754707  s :     2.754707
      pz      :     1.051381  p :     2.937182
      px      :     0.913083
      py      :     0.972718
      dz2     :     0.139096  d :     0.389353
      dxz     :     0.084113
      dyz     :     0.093257
      dx2y2   :     0.025586
      dxy     :     0.047301
      f0      :     0.011529  f :     0.044982
      f+1     :     0.005784
      f-1     :     0.008454
      f+2     :     0.007493
      f-2     :     0.007798
      f+3     :     0.002988
      f-3     :     0.000936
 51 C s       :     2.754700  s :     2.754700
      pz      :     1.048175  p :     2.936623
      px      :     0.923638
      py      :     0.964810
      dz2     :     0.138916  d :     0.388937
      dxz     :     0.083240
      dyz     :     0.092606
      dx2y2   :     0.025926
      dxy     :     0.048249
      f0      :     0.011244  f :     0.044968
      f+1     :     0.006915
      f-1     :     0.007740
      f+2     :     0.007428
      f-2     :     0.007526
      f+3     :     0.003081
      f-3     :     0.001034
 52 C s       :     2.759269  s :     2.759269
      pz      :     1.008502  p :     2.907600
      px      :     0.905695
      py      :     0.993403
      dz2     :     0.092983  d :     0.383600
      dxz     :     0.049848
      dyz     :     0.114149
      dx2y2   :     0.064811
      dxy     :     0.061808
      f0      :     0.009593  f :     0.044760
      f+1     :     0.005003
      f-1     :     0.006615
      f+2     :     0.005981
      f-2     :     0.007346
      f+3     :     0.005012
      f-3     :     0.005211
 53 C s       :     2.758822  s :     2.758822
      pz      :     1.019660  p :     2.900147
      px      :     0.886124
      py      :     0.994363
      dz2     :     0.081522  d :     0.385340
      dxz     :     0.072100
      dyz     :     0.118746
      dx2y2   :     0.056804
      dxy     :     0.056168
      f0      :     0.010426  f :     0.044578
      f+1     :     0.005980
      f-1     :     0.006918
      f+2     :     0.004150
      f-2     :     0.007088
      f+3     :     0.004638
      f-3     :     0.005379
 54 C s       :     2.748021  s :     2.748021
      pz      :     1.033916  p :     2.916657
      px      :     0.911366
      py      :     0.971376
      dz2     :     0.123350  d :     0.370917
      dxz     :     0.082473
      dyz     :     0.094936
      dx2y2   :     0.028497
      dxy     :     0.041660
      f0      :     0.010986  f :     0.043721
      f+1     :     0.006463
      f-1     :     0.007824
      f+2     :     0.007355
      f-2     :     0.007281
      f+3     :     0.002880
      f-3     :     0.000933
 55 H s       :     0.788425  s :     0.788425
      pz      :     0.013613  p :     0.060319
      px      :     0.017501
      py      :     0.029204
 56 H s       :     0.788477  s :     0.788477
      pz      :     0.013263  p :     0.060161
      px      :     0.018430
      py      :     0.028467
 57 H s       :     0.782894  s :     0.782894
      pz      :     0.012905  p :     0.060392
      px      :     0.018732
      py      :     0.028755
 58 H s       :     0.783135  s :     0.783135
      pz      :     0.013048  p :     0.060698
      px      :     0.018304
      py      :     0.029346
 59 H s       :     0.770312  s :     0.770312
      pz      :     0.012354  p :     0.061915
      px      :     0.038570
      py      :     0.010991
 60 H s       :     0.779913  s :     0.779913
      pz      :     0.013894  p :     0.059195
      px      :     0.016536
      py      :     0.028765
 61 H s       :     0.784493  s :     0.784493
      pz      :     0.014271  p :     0.058889
      px      :     0.034236
      py      :     0.010382
 62 H s       :     0.774132  s :     0.774132
      pz      :     0.012343  p :     0.061746
      px      :     0.015590
      py      :     0.033813
 63 H s       :     0.780292  s :     0.780292
      pz      :     0.012037  p :     0.060156
      px      :     0.037042
      py      :     0.011077
 64 H s       :     0.777382  s :     0.777382
      pz      :     0.014701  p :     0.062410
      px      :     0.017320
      py      :     0.030390
 65 H s       :     0.783314  s :     0.783314
      pz      :     0.015359  p :     0.062205
      px      :     0.035753
      py      :     0.011093
 66 H s       :     0.790410  s :     0.790410
      pz      :     0.012574  p :     0.059500
      px      :     0.016402
      py      :     0.030523
 67 H s       :     0.868489  s :     0.868489
      pz      :     0.016327  p :     0.074016
      px      :     0.042135
      py      :     0.015553
 68 H s       :     0.791924  s :     0.791924
      pz      :     0.030782  p :     0.058677
      px      :     0.011734
      py      :     0.016160
 69 H s       :     0.796810  s :     0.796810
      pz      :     0.013168  p :     0.057867
      px      :     0.031801
      py      :     0.012897
 70 H s       :     0.797068  s :     0.797068
      pz      :     0.020064  p :     0.058033
      px      :     0.022625
      py      :     0.015344
 71 H s       :     0.785762  s :     0.785762
      pz      :     0.031096  p :     0.058534
      px      :     0.011991
      py      :     0.015447
 72 H s       :     0.785123  s :     0.785123
      pz      :     0.030072  p :     0.058585
      px      :     0.012305
      py      :     0.016208
 73 H s       :     0.790001  s :     0.790001
      pz      :     0.023896  p :     0.058384
      px      :     0.019195
      py      :     0.015293
 74 H s       :     0.789384  s :     0.789384
      pz      :     0.011437  p :     0.058274
      px      :     0.017798
      py      :     0.029039
 75 H s       :     0.789940  s :     0.789940
      pz      :     0.030092  p :     0.058768
      px      :     0.012205
      py      :     0.016470
 76 H s       :     0.762121  s :     0.762121
      pz      :     0.011161  p :     0.063592
      px      :     0.020557
      py      :     0.031874
 77 H s       :     0.778364  s :     0.778364
      pz      :     0.027822  p :     0.058674
      px      :     0.011966
      py      :     0.018887
 78 H s       :     0.780616  s :     0.780616
      pz      :     0.030088  p :     0.058859
      px      :     0.015512
      py      :     0.013259
 79 H s       :     0.782087  s :     0.782087
      pz      :     0.010384  p :     0.059195
      px      :     0.019280
      py      :     0.029532
 80 H s       :     0.781577  s :     0.781577
      pz      :     0.010551  p :     0.059235
      px      :     0.018428
      py      :     0.030256
 81 H s       :     0.779047  s :     0.779047
      pz      :     0.031009  p :     0.058955
      px      :     0.011588
      py      :     0.016358
 82 H s       :     0.776987  s :     0.776987
      pz      :     0.026864  p :     0.058761
      px      :     0.016610
      py      :     0.015287
 83 H s       :     0.762001  s :     0.762001
      pz      :     0.011361  p :     0.063595
      px      :     0.019565
      py      :     0.032669

SPIN
  0 C s       :    -0.000000  s :    -0.000000
      pz      :    -0.000000  p :     0.000000
      px      :     0.000000
      py      :     0.000000
      dz2     :     0.000000  d :    -0.000001
      dxz     :    -0.000001
      dyz     :    -0.000000
      dx2y2   :     0.000000
      dxy     :    -0.000000
      f0      :    -0.000000  f :    -0.000000
      f+1     :    -0.000000
      f-1     :    -0.000000
      f+2     :    -0.000000
      f-2     :    -0.000000
      f+3     :    -0.000000
      f-3     :    -0.000000
  1 C s       :    -0.000000  s :    -0.000000
      pz      :    -0.000005  p :    -0.000006
      px      :    -0.000001
      py      :    -0.000001
      dz2     :     0.000000  d :     0.000001
      dxz     :     0.000000
      dyz     :     0.000000
      dx2y2   :     0.000000
      dxy     :     0.000000
      f0      :     0.000000  f :     0.000000
      f+1     :     0.000000
      f-1     :     0.000000
      f+2     :    -0.000000
      f-2     :     0.000000
      f+3     :     0.000000
      f-3     :     0.000000
  2 C s       :     0.000000  s :     0.000000
      pz      :     0.000004  p :     0.000006
      px      :     0.000002
      py      :     0.000000
      dz2     :    -0.000000  d :    -0.000006
      dxz     :    -0.000005
      dyz     :    -0.000000
      dx2y2   :    -0.000000
      dxy     :    -0.000000
      f0      :    -0.000000  f :    -0.000001
      f+1     :    -0.000000
      f-1     :    -0.000000
      f+2     :    -0.000000
      f-2     :     0.000000
      f+3     :    -0.000000
      f-3     :    -0.000000
  3 C s       :    -0.000000  s :    -0.000000
      pz      :    -0.000005  p :    -0.000006
      px      :    -0.000000
      py      :    -0.000000
      dz2     :     0.000000  d :     0.000000
      dxz     :     0.000000
      dyz     :     0.000000
      dx2y2   :     0.000000
      dxy     :     0.000000
      f0      :     0.000000  f :     0.000000
      f+1     :     0.000000
      f-1     :     0.000000
      f+2     :    -0.000000
      f-2     :     0.000000
      f+3     :     0.000000
      f-3     :     0.000000
  4 C s       :    -0.000000  s :    -0.000000
      pz      :    -0.000000  p :     0.000000
      px      :     0.000000
      py      :     0.000000
      dz2     :    -0.000000  d :    -0.000001
      dxz     :    -0.000001
      dyz     :    -0.000000
      dx2y2   :     0.000000
      dxy     :    -0.000000
      f0      :    -0.000000  f :    -0.000000
      f+1     :     0.000000
      f-1     :    -0.000000
      f+2     :    -0.000000
      f-2     :    -0.000000
      f+3     :    -0.000000
      f-3     :     0.000000
  5 C s       :     0.000000  s :     0.000000
      pz      :    -0.000004  p :    -0.000004
      px      :     0.000000
      py      :    -0.000000
      dz2     :    -0.000000  d :    -0.000002
      dxz     :    -0.000001
      dyz     :     0.000000
      dx2y2   :    -0.000000
      dxy     :    -0.000001
      f0      :    -0.000000  f :    -0.000000
      f+1     :     0.000000
      f-1     :     0.000000
      f+2     :    -0.000000
      f-2     :     0.000000
      f+3     :    -0.000000
      f-3     :    -0.000000
  6 C s       :    -0.000001  s :    -0.000001
      pz      :    -0.000049  p :    -0.000053
      px      :    -0.000002
      py      :    -0.000002
      dz2     :     0.000001  d :     0.000036
      dxz     :     0.000002
      dyz     :     0.000024
      dx2y2   :     0.000007
      dxy     :     0.000001
      f0      :     0.000001  f :     0.000005
      f+1     :     0.000000
      f-1     :     0.000000
      f+2     :     0.000000
      f-2     :     0.000003
      f+3     :     0.000000
      f-3     :     0.000001
  7 N s       :     0.000003  s :     0.000003
      pz      :     0.000102  p :     0.000111
      px      :     0.000007
      py      :     0.000002
      dz2     :    -0.000000  d :    -0.000005
      dxz     :    -0.000003
      dyz     :    -0.000002
      dx2y2   :    -0.000000
      dxy     :    -0.000000
      f0      :    -0.000000  f :    -0.000001
      f+1     :    -0.000000
      f-1     :    -0.000000
      f+2     :    -0.000000
      f-2     :    -0.000000
      f+3     :    -0.000000
      f-3     :     0.000000
  8 C s       :    -0.000001  s :    -0.000001
      pz      :    -0.000047  p :    -0.000051
      px      :    -0.000003
      py      :    -0.000002
      dz2     :     0.000001  d :     0.000036
      dxz     :     0.000016
      dyz     :     0.000010
      dx2y2   :     0.000004
      dxy     :     0.000005
      f0      :     0.000001  f :     0.000005
      f+1     :     0.000000
      f-1     :     0.000000
      f+2     :     0.000002
      f-2     :     0.000001
      f+3     :     0.000000
      f-3     :     0.000001
  9 N s       :     0.000019  s :     0.000019
      pz      :     0.000126  p :     0.000200
      px      :     0.000068
      py      :     0.000006
      dz2     :     0.000000  d :    -0.000009
      dxz     :    -0.000001
      dyz     :    -0.000007
      dx2y2   :    -0.000002
      dxy     :     0.000000
      f0      :    -0.000000  f :    -0.000001
      f+1     :    -0.000000
      f-1     :    -0.000000
      f+2     :    -0.000000
      f-2     :    -0.000001
      f+3     :    -0.000000
      f-3     :    -0.000000
 10 C s       :    -0.000012  s :    -0.000012
      pz      :    -0.000094  p :    -0.000131
      px      :    -0.000014
      py      :    -0.000023
      dz2     :    -0.000000  d :     0.000093
      dxz     :     0.000025
      dyz     :     0.000064
      dx2y2   :     0.000002
      dxy     :     0.000002
      f0      :     0.000002  f :     0.000016
      f+1     :     0.000000
      f-1     :     0.000000
      f+2     :     0.000003
      f-2     :     0.000007
      f+3     :     0.000001
      f-3     :     0.000004
 11 N s       :     0.000019  s :     0.000019
      pz      :     0.000123  p :     0.000193
      px      :     0.000024
      py      :     0.000046
      dz2     :     0.000000  d :    -0.000009
      dxz     :    -0.000006
      dyz     :    -0.000002
      dx2y2   :    -0.000001
      dxy     :    -0.000000
      f0      :    -0.000000  f :    -0.000001
      f+1     :    -0.000000
      f-1     :    -0.000000
      f+2     :    -0.000001
      f-2     :    -0.000000
      f+3     :    -0.000000
      f-3     :    -0.000000
 12 C s       :     0.000018  s :     0.000018
      pz      :     0.000766  p :     0.000844
      px      :     0.000055
      py      :     0.000023
      dz2     :    -0.000019  d :    -0.000163
      dxz     :    -0.000118
      dyz     :    -0.000063
      dx2y2   :     0.000046
      dxy     :    -0.000010
      f0      :    -0.000004  f :    -0.000004
      f+1     :    -0.000002
      f-1     :    -0.000002
      f+2     :    -0.000011
      f-2     :    -0.000005
      f+3     :    -0.000002
      f-3     :     0.000022
 13 C s       :     0.000021  s :     0.000021
      pz      :    -0.000974  p :    -0.000643
      px      :     0.000211
      py      :     0.000120
      dz2     :     0.000025  d :     0.000526
      dxz     :     0.000029
      dyz     :     0.000156
      dx2y2   :     0.000211
      dxy     :     0.000105
      f0      :     0.000007  f :     0.000058
      f+1     :     0.000002
      f-1     :     0.000004
      f+2     :     0.000003
      f-2     :     0.000016
      f+3     :     0.000003
      f-3     :     0.000023
 14 C s       :     0.000719  s :     0.000719
      pz      :     0.001363  p :     0.005331
      px      :     0.003583
      py      :     0.000386
      dz2     :     0.000304  d :    -0.000158
      dxz     :    -0.000130
      dyz     :    -0.000063
      dx2y2   :     0.000066
      dxy     :    -0.000336
      f0      :    -0.000009  f :    -0.000091
      f+1     :    -0.000011
      f-1     :     0.000001
      f+2     :    -0.000015
      f-2     :    -0.000008
      f+3     :     0.000005
      f-3     :    -0.000053
 15 C s       :    -0.001131  s :    -0.001131
      pz      :    -0.001658  p :    -0.007116
      px      :    -0.001496
      py      :    -0.003962
      dz2     :     0.000363  d :     0.017716
      dxz     :     0.000375
      dyz     :     0.000622
      dx2y2   :     0.011960
      dxy     :     0.004396
      f0      :     0.000050  f :     0.003430
      f+1     :     0.000104
      f-1     :     0.000134
      f+2     :     0.000044
      f-2     :     0.000139
      f+3     :     0.000114
      f-3     :     0.002844
 16 C s       :     0.000723  s :     0.000723
      pz      :     0.001349  p :     0.005334
      px      :     0.000481
      py      :     0.003504
      dz2     :     0.000320  d :    -0.000127
      dxz     :    -0.000020
      dyz     :    -0.000172
      dx2y2   :    -0.000451
      dxy     :     0.000195
      f0      :    -0.000009  f :    -0.000089
      f+1     :    -0.000001
      f-1     :    -0.000009
      f+2     :    -0.000005
      f-2     :    -0.000018
      f+3     :     0.000005
      f-3     :    -0.000052
 17 C s       :     0.000026  s :     0.000026
      pz      :    -0.000971  p :    -0.000631
      px      :    -0.000093
      py      :     0.000433
      dz2     :     0.000028  d :     0.000535
      dxz     :     0.000101
      dyz     :     0.000079
      dx2y2   :     0.000260
      dxy     :     0.000066
      f0      :     0.000007  f :     0.000059
      f+1     :     0.000003
      f-1     :     0.000002
      f+2     :     0.000012
      f-2     :     0.000008
      f+3     :     0.000003
      f-3     :     0.000023
 18 C s       :     0.000001  s :     0.000001
      pz      :     0.000008  p :     0.000011
      px      :     0.000001
      py      :     0.000002
      dz2     :    -0.000000  d :    -0.000006
      dxz     :    -0.000002
      dyz     :    -0.000004
      dx2y2   :    -0.000000
      dxy     :    -0.000000
      f0      :    -0.000000  f :    -0.000001
      f+1     :    -0.000000
      f-1     :    -0.000000
      f+2     :    -0.000000
      f-2     :    -0.000000
      f+3     :    -0.000000
      f-3     :    -0.000000
 19 C s       :    -0.000002  s :    -0.000002
      pz      :    -0.000010  p :    -0.000011
      px      :    -0.000000
      py      :    -0.000001
      dz2     :     0.000000  d :     0.000002
      dxz     :     0.000000
      dyz     :     0.000001
      dx2y2   :     0.000000
      dxy     :     0.000000
      f0      :     0.000000  f :     0.000000
      f+1     :     0.000000
      f-1     :     0.000000
      f+2     :     0.000000
      f-2     :     0.000000
      f+3     :     0.000000
      f-3     :     0.000000
 20 C s       :     0.000001  s :     0.000001
      pz      :     0.000006  p :     0.000007
      px      :     0.000000
      py      :     0.000000
      dz2     :    -0.000000  d :    -0.000002
      dxz     :    -0.000001
      dyz     :    -0.000001
      dx2y2   :    -0.000000
      dxy     :    -0.000000
      f0      :    -0.000000  f :    -0.000000
      f+1     :    -0.000000
      f-1     :    -0.000000
      f+2     :    -0.000000
      f-2     :    -0.000000
      f+3     :    -0.000000
      f-3     :    -0.000000
 21 C s       :    -0.000001  s :    -0.000001
      pz      :    -0.000009  p :    -0.000010
      px      :    -0.000001
      py      :    -0.000000
      dz2     :     0.000000  d :     0.000001
      dxz     :     0.000001
      dyz     :     0.000000
      dx2y2   :     0.000000
      dxy     :     0.000000
      f0      :     0.000000  f :     0.000000
      f+1     :     0.000000
      f-1     :     0.000000
      f+2     :     0.000000
      f-2     :    -0.000000
      f+3     :     0.000000
      f-3     :     0.000000
 22 C s       :     0.000002  s :     0.000002
      pz      :     0.000004  p :     0.000005
      px      :     0.000000
      py      :     0.000000
      dz2     :    -0.000000  d :    -0.000002
      dxz     :    -0.000000
      dyz     :    -0.000002
      dx2y2   :    -0.000000
      dxy     :    -0.000000
      f0      :    -0.000000  f :    -0.000000
      f+1     :    -0.000000
      f-1     :    -0.000000
      f+2     :    -0.000000
      f-2     :    -0.000000
      f+3     :    -0.000000
      f-3     :    -0.000000
 23 C s       :    -0.000001  s :    -0.000001
      pz      :    -0.000010  p :    -0.000011
      px      :    -0.000000
      py      :    -0.000001
      dz2     :     0.000000  d :     0.000001
      dxz     :     0.000001
      dyz     :     0.000000
      dx2y2   :     0.000000
      dxy     :     0.000000
      f0      :     0.000000  f :     0.000000
      f+1     :     0.000000
      f-1     :     0.000000
      f+2     :     0.000000
      f-2     :     0.000000
      f+3     :     0.000000
      f-3     :     0.000000
 24 C s       :    -0.000001  s :    -0.000001
      pz      :    -0.000008  p :    -0.000017
      px      :    -0.000001
      py      :    -0.000009
      dz2     :     0.000001  d :     0.000001
      dxz     :    -0.000001
      dyz     :     0.000000
      dx2y2   :     0.000000
      dxy     :     0.000000
      f0      :     0.000000  f :     0.000000
      f+1     :     0.000000
      f-1     :     0.000000
      f+2     :    -0.000000
      f-2     :     0.000000
      f+3     :     0.000000
      f-3     :     0.000000
 25 S s       :     0.000000  s :     0.000000
      pz      :     0.000024  p :     0.000030
      px      :     0.000000
      py      :     0.000005
      dz2     :    -0.000000  d :    -0.000001
      dxz     :    -0.000000
      dyz     :     0.000000
      dx2y2   :    -0.000000
      dxy     :    -0.000000
      f0      :    -0.000000  f :    -0.000000
      f+1     :    -0.000000
      f-1     :    -0.000000
      f+2     :    -0.000000
      f-2     :    -0.000000
      f+3     :    -0.000000
      f-3     :    -0.000000
 26 S s       :    -0.000000  s :    -0.000000
      pz      :     0.000001  p :    -0.000007
      px      :     0.000000
      py      :    -0.000008
      dz2     :    -0.000001  d :    -0.000001
      dxz     :    -0.000000
      dyz     :    -0.000000
      dx2y2   :    -0.000000
      dxy     :    -0.000000
      f0      :    -0.000000  f :    -0.000000
      f+1     :    -0.000000
      f-1     :    -0.000000
      f+2     :    -0.000000
      f-2     :    -0.000000
      f+3     :    -0.000000
      f-3     :    -0.000000
 27 N s       :    -0.000001  s :    -0.000001
      pz      :    -0.000004  p :    -0.000004
      px      :    -0.000000
      py      :     0.000000
      dz2     :    -0.000000  d :    -0.000000
      dxz     :    -0.000000
      dyz     :    -0.000000
      dx2y2   :     0.000000
      dxy     :    -0.000000
      f0      :    -0.000000  f :    -0.000000
      f+1     :     0.000000
      f-1     :     0.000000
      f+2     :    -0.000000
      f-2     :    -0.000000
      f+3     :     0.000000
      f-3     :    -0.000000
 28 C s       :    -0.000000  s :    -0.000000
      pz      :     0.000000  p :     0.000000
      px      :     0.000000
      py      :     0.000000
      dz2     :    -0.000000  d :    -0.000000
      dxz     :    -0.000000
      dyz     :    -0.000000
      dx2y2   :    -0.000000
      dxy     :     0.000000
      f0      :    -0.000000  f :    -0.000000
      f+1     :    -0.000000
      f-1     :    -0.000000
      f+2     :    -0.000000
      f-2     :    -0.000000
      f+3     :    -0.000000
      f-3     :    -0.000000
 29 C s       :    -0.000000  s :    -0.000000
      pz      :    -0.000000  p :    -0.000000
      px      :    -0.000000
      py      :    -0.000000
      dz2     :    -0.000000  d :    -0.000000
      dxz     :     0.000000
      dyz     :     0.000000
      dx2y2   :    -0.000000
      dxy     :    -0.000000
      f0      :    -0.000000  f :     0.000000
      f+1     :     0.000000
      f-1     :     0.000000
      f+2     :     0.000000
      f-2     :     0.000000
      f+3     :     0.000000
      f-3     :    -0.000000
 30 S s       :     0.000000  s :     0.000000
      pz      :     0.000000  p :    -0.000000
      px      :    -0.000000
      py      :    -0.000000
      dz2     :    -0.000000  d :    -0.000000
      dxz     :    -0.000000
      dyz     :     0.000000
      dx2y2   :    -0.000000
      dxy     :    -0.000000
      f0      :     0.000000  f :    -0.000000
      f+1     :    -0.000000
      f-1     :    -0.000000
      f+2     :    -0.000000
      f-2     :    -0.000000
      f+3     :    -0.000000
      f-3     :     0.000000
 31 C s       :    -0.000000  s :    -0.000000
      pz      :    -0.000000  p :    -0.000000
      px      :    -0.000000
      py      :    -0.000000
      dz2     :    -0.000000  d :    -0.000000
      dxz     :    -0.000000
      dyz     :     0.000000
      dx2y2   :    -0.000000
      dxy     :     0.000000
      f0      :    -0.000000  f :     0.000000
      f+1     :     0.000000
      f-1     :     0.000000
      f+2     :    -0.000000
      f-2     :     0.000000
      f+3     :    -0.000000
      f-3     :    -0.000000
 32 C s       :    -0.000000  s :    -0.000000
      pz      :     0.000000  p :     0.000000
      px      :     0.000000
      py      :     0.000000
      dz2     :    -0.000000  d :    -0.000000
      dxz     :    -0.000000
      dyz     :    -0.000000
      dx2y2   :    -0.000000
      dxy     :     0.000000
      f0      :    -0.000000  f :    -0.000000
      f+1     :    -0.000000
      f-1     :    -0.000000
      f+2     :    -0.000000
      f-2     :     0.000000
      f+3     :    -0.000000
      f-3     :    -0.000000
 33 C s       :     0.000000  s :     0.000000
      pz      :     0.000000  p :    -0.000000
      px      :    -0.000000
      py      :     0.000000
      dz2     :    -0.000000  d :    -0.000000
      dxz     :     0.000000
      dyz     :    -0.000000
      dx2y2   :    -0.000000
      dxy     :    -0.000000
      f0      :     0.000000  f :    -0.000000
      f+1     :    -0.000000
      f-1     :     0.000000
      f+2     :    -0.000000
      f-2     :    -0.000000
      f+3     :    -0.000000
      f-3     :    -0.000000
 34 C s       :     0.000000  s :     0.000000
      pz      :    -0.000000  p :    -0.000000
      px      :     0.000000
      py      :    -0.000000
      dz2     :    -0.000000  d :    -0.000000
      dxz     :    -0.000000
      dyz     :     0.000000
      dx2y2   :    -0.000000
      dxy     :    -0.000000
      f0      :     0.000000  f :     0.000000
      f+1     :     0.000000
      f-1     :    -0.000000
      f+2     :     0.000000
      f-2     :    -0.000000
      f+3     :     0.000000
      f-3     :    -0.000000
 35 C s       :    -0.000000  s :    -0.000000
      pz      :     0.000000  p :     0.000000
      px      :     0.000000
      py      :    -0.000000
      dz2     :    -0.000000  d :    -0.000000
      dxz     :     0.000000
      dyz     :    -0.000000
      dx2y2   :    -0.000000
      dxy     :    -0.000000
      f0      :    -0.000000  f :    -0.000000
      f+1     :    -0.000000
      f-1     :    -0.000000
      f+2     :    -0.000000
      f-2     :    -0.000000
      f+3     :     0.000000
      f-3     :    -0.000000
 36 C s       :     0.000000  s :     0.000000
      pz      :     0.000000  p :    -0.000000
      px      :    -0.000000
      py      :    -0.000000
      dz2     :     0.000000  d :     0.000000
      dxz     :    -0.000000
      dyz     :     0.000000
      dx2y2   :    -0.000000
      dxy     :     0.000000
      f0      :     0.000000  f :     0.000000
      f+1     :     0.000000
      f-1     :     0.000000
      f+2     :     0.000000
      f-2     :    -0.000000
      f+3     :     0.000000
      f-3     :     0.000000
 37 C s       :    -0.000000  s :    -0.000000
      pz      :    -0.000000  p :    -0.000000
      px      :    -0.000000
      py      :    -0.000000
      dz2     :     0.000000  d :     0.000000
      dxz     :     0.000000
      dyz     :    -0.000000
      dx2y2   :     0.000000
      dxy     :    -0.000000
      f0      :     0.000000  f :     0.000000
      f+1     :     0.000000
      f-1     :     0.000000
      f+2     :     0.000000
      f-2     :     0.000000
      f+3     :     0.000000
      f-3     :     0.000000
 38 C s       :     0.000000  s :     0.000000
      pz      :     0.000000  p :     0.000000
      px      :     0.000000
      py      :    -0.000000
      dz2     :    -0.000000  d :    -0.000000
      dxz     :    -0.000000
      dyz     :    -0.000000
      dx2y2   :    -0.000000
      dxy     :    -0.000000
      f0      :     0.000000  f :    -0.000000
      f+1     :    -0.000000
      f-1     :     0.000000
      f+2     :    -0.000000
      f-2     :    -0.000000
      f+3     :    -0.000000
      f-3     :    -0.000000
 39 C s       :    -0.000000  s :    -0.000000
      pz      :    -0.000000  p :    -0.000000
      px      :    -0.000000
      py      :     0.000000
      dz2     :     0.000000  d :     0.000000
      dxz     :     0.000000
      dyz     :     0.000000
      dx2y2   :     0.000000
      dxy     :     0.000000
      f0      :    -0.000000  f :     0.000000
      f+1     :     0.000000
      f-1     :    -0.000000
      f+2     :     0.000000
      f-2     :     0.000000
      f+3     :    -0.000000
      f-3     :    -0.000000
 40 C s       :     0.000000  s :     0.000000
      pz      :     0.000000  p :     0.000000
      px      :    -0.000000
      py      :     0.000000
      dz2     :     0.000000  d :    -0.000000
      dxz     :    -0.000000
      dyz     :    -0.000000
      dx2y2   :    -0.000000
      dxy     :    -0.000000
      f0      :     0.000000  f :    -0.000000
      f+1     :    -0.000000
      f-1     :    -0.000000
      f+2     :    -0.000000
      f-2     :     0.000000
      f+3     :    -0.000000
      f-3     :    -0.000000
 41 N s       :     0.007005  s :     0.007005
      pz      :     0.013554  p :     0.221584
      px      :     0.151729
      py      :     0.056301
      dz2     :    -0.000851  d :    -0.004601
      dxz     :    -0.001882
      dyz     :    -0.001172
      dx2y2   :    -0.000113
      dxy     :    -0.000584
      f0      :     0.000044  f :     0.000217
      f+1     :     0.000168
      f-1     :     0.000011
      f+2     :    -0.000074
      f-2     :     0.000008
      f+3     :    -0.000125
      f-3     :     0.000186
 42 C s       :    -0.000816  s :    -0.000816
      pz      :    -0.002425  p :     0.012951
      px      :     0.012218
      py      :     0.003158
      dz2     :     0.003124  d :     0.035318
      dxz     :     0.009423
      dyz     :     0.007135
      dx2y2   :     0.013969
      dxy     :     0.001667
      f0      :     0.000515  f :     0.004858
      f+1     :     0.000748
      f-1     :     0.001023
      f+2     :     0.001797
      f-2     :     0.000152
      f+3     :     0.000069
      f-3     :     0.000553
 43 C s       :     0.002153  s :     0.002153
      pz      :     0.003835  p :     0.080295
      px      :     0.055916
      py      :     0.020544
      dz2     :     0.000393  d :     0.011760
      dxz     :     0.003171
      dyz     :    -0.000681
      dx2y2   :     0.005676
      dxy     :     0.003200
      f0      :    -0.000020  f :     0.000283
      f+1     :     0.000228
      f-1     :    -0.000072
      f+2     :     0.000153
      f-2     :     0.000203
      f+3     :    -0.000103
      f-3     :    -0.000107
 44 S s       :     0.004150  s :     0.004150
      pz      :     0.012129  p :     0.246355
      px      :     0.173696
      py      :     0.060531
      dz2     :     0.001226  d :     0.015268
      dxz     :    -0.000052
      dyz     :    -0.000084
      dx2y2   :     0.010773
      dxy     :     0.003405
      f0      :     0.000353  f :     0.002323
      f+1     :     0.000669
      f-1     :     0.000258
      f+2     :     0.000157
      f-2     :     0.000166
      f+3     :     0.000002
      f-3     :     0.000718
 45 C s       :     0.002223  s :     0.002223
      pz      :     0.004198  p :     0.082901
      px      :     0.057503
      py      :     0.021200
      dz2     :     0.000143  d :     0.011795
      dxz     :    -0.000061
      dyz     :     0.001844
      dx2y2   :     0.009281
      dxy     :     0.000589
      f0      :    -0.000046  f :     0.000285
      f+1     :    -0.000086
      f-1     :     0.000179
      f+2     :     0.000555
      f-2     :    -0.000140
      f+3     :    -0.000090
      f-3     :    -0.000087
 46 C s       :    -0.000753  s :    -0.000753
      pz      :    -0.002372  p :     0.015424
      px      :     0.014513
      py      :     0.003284
      dz2     :     0.003237  d :     0.035428
      dxz     :     0.014547
      dyz     :     0.002983
      dx2y2   :     0.008658
      dxy     :     0.006004
      f0      :     0.000586  f :     0.004877
      f+1     :     0.001619
      f-1     :     0.000317
      f+2     :     0.000852
      f-2     :     0.000845
      f+3     :     0.000069
      f-3     :     0.000590
 47 C s       :     0.000365  s :     0.000365
      pz      :     0.000709  p :     0.020421
      px      :     0.014304
      py      :     0.005408
      dz2     :    -0.000096  d :     0.002086
      dxz     :     0.001742
      dyz     :     0.000487
      dx2y2   :    -0.000043
      dxy     :    -0.000004
      f0      :    -0.000063  f :     0.000407
      f+1     :    -0.000060
      f-1     :     0.000052
      f+2     :     0.000412
      f-2     :     0.000044
      f+3     :     0.000011
      f-3     :     0.000011
 48 C s       :     0.000024  s :     0.000024
      pz      :     0.000369  p :     0.009224
      px      :     0.006885
      py      :     0.001971
      dz2     :     0.000631  d :     0.009064
      dxz     :     0.001653
      dyz     :     0.001721
      dx2y2   :     0.004511
      dxy     :     0.000548
      f0      :     0.000112  f :     0.000945
      f+1     :     0.000230
      f-1     :     0.000144
      f+2     :     0.000078
      f-2     :     0.000006
      f+3     :    -0.000016
      f-3     :     0.000392
 49 C s       :     0.001655  s :     0.001655
      pz      :     0.003680  p :     0.063570
      px      :     0.043616
      py      :     0.016275
      dz2     :    -0.000198  d :    -0.001470
      dxz     :    -0.000007
      dyz     :    -0.000304
      dx2y2   :    -0.000693
      dxy     :    -0.000267
      f0      :    -0.000031  f :    -0.000469
      f+1     :    -0.000039
      f-1     :    -0.000009
      f+2     :    -0.000087
      f-2     :    -0.000124
      f+3     :    -0.000078
      f-3     :    -0.000101
 50 C s       :    -0.001235  s :    -0.001235
      pz      :    -0.003246  p :    -0.029613
      px      :    -0.018932
      py      :    -0.007434
      dz2     :     0.001630  d :     0.014088
      dxz     :     0.007654
      dyz     :     0.003237
      dx2y2   :     0.001087
      dxy     :     0.000480
      f0      :     0.000082  f :     0.002220
      f+1     :     0.000192
      f-1     :     0.000257
      f+2     :     0.001173
      f-2     :     0.000359
      f+3     :     0.000117
      f-3     :     0.000039
 51 C s       :    -0.001277  s :    -0.001277
      pz      :    -0.003392  p :    -0.030891
      px      :    -0.019730
      py      :    -0.007768
      dz2     :     0.001806  d :     0.014515
      dxz     :     0.008063
      dyz     :     0.003053
      dx2y2   :     0.000758
      dxy     :     0.000835
      f0      :     0.000095  f :     0.002281
      f+1     :     0.000288
      f-1     :     0.000194
      f+2     :     0.001127
      f-2     :     0.000397
      f+3     :     0.000133
      f-3     :     0.000048
 52 C s       :     0.001697  s :     0.001697
      pz      :     0.004000  p :     0.065382
      px      :     0.044882
      py      :     0.016500
      dz2     :    -0.000226  d :    -0.001547
      dxz     :    -0.000233
      dyz     :    -0.000197
      dx2y2   :    -0.000464
      dxy     :    -0.000427
      f0      :    -0.000028  f :    -0.000481
      f+1     :     0.000016
      f-1     :    -0.000065
      f+2     :    -0.000179
      f-2     :    -0.000042
      f+3     :    -0.000085
      f-3     :    -0.000099
 53 C s       :     0.000052  s :     0.000052
      pz      :     0.000489  p :     0.010461
      px      :     0.007815
      py      :     0.002157
      dz2     :     0.000706  d :     0.009069
      dxz     :     0.003168
      dyz     :     0.000412
      dx2y2   :     0.002944
      dxy     :     0.001838
      f0      :     0.000128  f :     0.000947
      f+1     :     0.000277
      f-1     :     0.000092
      f+2     :     0.000017
      f-2     :     0.000039
      f+3     :    -0.000016
      f-3     :     0.000409
 54 C s       :     0.000329  s :     0.000329
      pz      :     0.000792  p :     0.019397
      px      :     0.013601
      py      :     0.005004
      dz2     :    -0.000038  d :     0.002458
      dxz     :     0.001678
      dyz     :     0.000768
      dx2y2   :     0.000249
      dxy     :    -0.000199
      f0      :    -0.000049  f :     0.000457
      f+1     :     0.000030
      f-1     :    -0.000008
      f+2     :     0.000342
      f-2     :     0.000107
      f+3     :     0.000018
      f-3     :     0.000018
 55 H s       :    -0.000000  s :    -0.000000
      pz      :     0.000000  p :     0.000000
      px      :     0.000000
      py      :     0.000000
 56 H s       :    -0.000001  s :    -0.000001
      pz      :    -0.000000  p :    -0.000000
      px      :    -0.000000
      py      :    -0.000000
 57 H s       :    -0.000000  s :    -0.000000
      pz      :    -0.000000  p :    -0.000000
      px      :    -0.000000
      py      :    -0.000000
 58 H s       :     0.000000  s :     0.000000
      pz      :     0.000000  p :     0.000000
      px      :    -0.000000
      py      :    -0.000000
 59 H s       :     0.000337  s :     0.000337
      pz      :    -0.000021  p :    -0.000036
      px      :    -0.000016
      py      :     0.000001
 60 H s       :    -0.000254  s :    -0.000254
      pz      :     0.000026  p :     0.000069
      px      :     0.000034
      py      :     0.000009
 61 H s       :    -0.000267  s :    -0.000267
      pz      :     0.000027  p :     0.000068
      px      :     0.000034
      py      :     0.000008
 62 H s       :     0.000345  s :     0.000345
      pz      :    -0.000021  p :    -0.000036
      px      :     0.000001
      py      :    -0.000017
 63 H s       :     0.000000  s :     0.000000
      pz      :    -0.000000  p :    -0.000000
      px      :    -0.000000
      py      :    -0.000000
 64 H s       :    -0.000000  s :    -0.000000
      pz      :     0.000000  p :     0.000000
      px      :     0.000000
      py      :     0.000000
 65 H s       :     0.000000  s :     0.000000
      pz      :     0.000000  p :     0.000000
      px      :     0.000000
      py      :     0.000000
 66 H s       :    -0.000001  s :    -0.000001
      pz      :    -0.000000  p :    -0.000000
      px      :     0.000000
      py      :    -0.000000
 67 H s       :    -0.000000  s :    -0.000000
      pz      :    -0.000000  p :    -0.000000
      px      :    -0.000000
      py      :    -0.000000
 68 H s       :    -0.000000  s :    -0.000000
      pz      :    -0.000000  p :    -0.000000
      px      :    -0.000000
      py      :     0.000000
 69 H s       :    -0.000000  s :    -0.000000
      pz      :     0.000000  p :    -0.000000
      px      :     0.000000
      py      :    -0.000000
 70 H s       :    -0.000000  s :    -0.000000
      pz      :    -0.000000  p :    -0.000000
      px      :    -0.000000
      py      :     0.000000
 71 H s       :     0.000000  s :     0.000000
      pz      :     0.000000  p :     0.000000
      px      :    -0.000000
      py      :     0.000000
 72 H s       :     0.000000  s :     0.000000
      pz      :     0.000000  p :     0.000000
      px      :    -0.000000
      py      :     0.000000
 73 H s       :     0.000000  s :     0.000000
      pz      :     0.000000  p :     0.000000
      px      :     0.000000
      py      :     0.000000
 74 H s       :    -0.000000  s :    -0.000000
      pz      :    -0.000000  p :    -0.000000
      px      :    -0.000000
      py      :    -0.000000
 75 H s       :    -0.000000  s :    -0.000000
      pz      :     0.000000  p :     0.000000
      px      :     0.000000
      py      :    -0.000000
 76 H s       :    -0.000698  s :    -0.000698
      pz      :     0.000008  p :     0.000472
      px      :     0.000306
      py      :     0.000159
 77 H s       :    -0.000273  s :    -0.000273
      pz      :     0.000025  p :     0.000251
      px      :     0.000163
      py      :     0.000063
 78 H s       :    -0.001757  s :    -0.001757
      pz      :     0.000249  p :     0.001665
      px      :     0.001031
      py      :     0.000386
 79 H s       :     0.000559  s :     0.000559
      pz      :    -0.000073  p :    -0.000834
      px      :    -0.000503
      py      :    -0.000258
 80 H s       :     0.000587  s :     0.000587
      pz      :    -0.000077  p :    -0.000863
      px      :    -0.000520
      py      :    -0.000267
 81 H s       :    -0.001798  s :    -0.001798
      pz      :     0.000271  p :     0.001699
      px      :     0.001009
      py      :     0.000419
 82 H s       :    -0.000304  s :    -0.000304
      pz      :     0.000028  p :     0.000278
      px      :     0.000191
      py      :     0.000059
 83 H s       :    -0.000677  s :    -0.000677
      pz      :     0.000010  p :     0.000446
      px      :     0.000281
      py      :     0.000155


                      *****************************
                      * MAYER POPULATION ANALYSIS *
                      *****************************

  NA   - Mulliken gross atomic population
  ZA   - Total nuclear charge
  QA   - Mulliken gross atomic charge
  VA   - Mayer's total valence
  BVA  - Mayer's bonded valence
  FA   - Mayer's free valence

  ATOM       NA         ZA         QA         VA         BVA        FA
  0 C      6.1564     6.0000    -0.1564     3.8717     3.8717     0.0000
  1 C      6.1867     6.0000    -0.1867     3.9710     3.9710     0.0000
  2 C      5.9254     6.0000     0.0746     3.7147     3.7147     0.0000
  3 C      6.1817     6.0000    -0.1817     3.9630     3.9630     0.0000
  4 C      6.1481     6.0000    -0.1481     3.9295     3.9295     0.0000
  5 C      5.8273     6.0000     0.1727     3.6276     3.6276     0.0000
  6 C      5.7768     6.0000     0.2232     4.0452     4.0452     0.0000
  7 N      7.2390     7.0000    -0.2390     3.0300     3.0300     0.0000
  8 C      5.7714     6.0000     0.2286     4.0386     4.0386     0.0000
  9 N      7.2755     7.0000    -0.2755     3.0164     3.0164     0.0000
 10 C      5.8079     6.0000     0.1921     4.1035     4.1035     0.0000
 11 N      7.2769     7.0000    -0.2769     3.0080     3.0080     0.0000
 12 C      5.9042     6.0000     0.0958     3.7525     3.7525     0.0000
 13 C      6.1222     6.0000    -0.1222     3.8870     3.8870     0.0000
 14 C      6.1779     6.0000    -0.1779     3.9399     3.9398     0.0001
 15 C      6.0421     6.0000    -0.0421     3.5234     3.5231     0.0003
 16 C      6.1807     6.0000    -0.1807     3.9445     3.9444     0.0001
 17 C      6.1268     6.0000    -0.1268     3.8936     3.8936     0.0000
 18 C      5.9651     6.0000     0.0349     3.7558     3.7558     0.0000
 19 C      6.2143     6.0000    -0.2143     4.0381     4.0381     0.0000
 20 C      6.1877     6.0000    -0.1877     3.8869     3.8869     0.0000
 21 C      5.8279     6.0000     0.1721     3.9839     3.9839     0.0000
 22 C      6.1860     6.0000    -0.1860     3.8779     3.8779     0.0000
 23 C      6.2148     6.0000    -0.2148     4.0438     4.0438     0.0000
 24 C      6.0403     6.0000    -0.0403     4.2242     4.2242     0.0000
 25 S     16.1700    16.0000    -0.1700     2.2461     2.2461     0.0000
 26 S     16.0670    16.0000    -0.0670     2.3866     2.3866     0.0000
 27 N      7.0228     7.0000    -0.0228     3.0691     3.0691     0.0000
 28 C      5.8553     6.0000     0.1447     3.5870     3.5870     0.0000
 29 C      6.0247     6.0000    -0.0247     3.9520     3.9520     0.0000
 30 S     15.9971    16.0000     0.0029     2.4910     2.4910     0.0000
 31 C      6.0285     6.0000    -0.0285     3.9721     3.9721    -0.0000
 32 C      5.8495     6.0000     0.1505     3.6082     3.6082     0.0000
 33 C      6.1346     6.0000    -0.1346     3.8616     3.8616     0.0000
 34 C      6.1384     6.0000    -0.1384     3.9232     3.9232    -0.0000
 35 C      6.0667     6.0000    -0.0667     3.8276     3.8276     0.0000
 36 C      6.2854     6.0000    -0.2854     3.9982     3.9982     0.0000
 37 C      6.2854     6.0000    -0.2854     3.9987     3.9987     0.0000
 38 C      6.0680     6.0000    -0.0680     3.8409     3.8409     0.0000
 39 C      6.1396     6.0000    -0.1396     3.9360     3.9360     0.0000
 40 C      6.1319     6.0000    -0.1319     3.8582     3.8582     0.0000
 41 N      6.9063     7.0000     0.0937     3.1968     3.1255     0.0713
 42 C      5.8529     6.0000     0.1471     3.8477     3.8437     0.0041
 43 C      6.0073     6.0000    -0.0073     3.9603     3.9464     0.0139
 44 S     15.8513    16.0000     0.1487     2.8347     2.7440     0.0906
 45 C      6.0058     6.0000    -0.0058     3.9579     3.9432     0.0147
 46 C      5.8490     6.0000     0.1510     3.8414     3.8371     0.0043
 47 C      6.1517     6.0000    -0.1517     3.8731     3.8721     0.0011
 48 C      6.1214     6.0000    -0.1214     3.9242     3.9236     0.0006
 49 C      6.1160     6.0000    -0.1160     3.9338     3.9273     0.0065
 50 C      6.1519     6.0000    -0.1519     3.8509     3.8491     0.0018
 51 C      6.1525     6.0000    -0.1525     3.8492     3.8473     0.0019
 52 C      6.1146     6.0000    -0.1146     3.9341     3.9273     0.0069
 53 C      6.1204     6.0000    -0.1204     3.9244     3.9237     0.0007
 54 C      6.1543     6.0000    -0.1543     3.8706     3.8696     0.0010
 55 H      0.8473     1.0000     0.1527     0.9864     0.9864     0.0000
 56 H      0.8631     1.0000     0.1369     0.9917     0.9917     0.0000
 57 H      0.8372     1.0000     0.1628     0.9834     0.9834     0.0000
 58 H      0.8520     1.0000     0.1480     1.0071     1.0071     0.0000
 59 H      0.8107     1.0000     0.1893     0.9819     0.9819     0.0000
 60 H      0.8515     1.0000     0.1485     0.9860     0.9860     0.0000
 61 H      0.8681     1.0000     0.1319     0.9894     0.9894     0.0000
 62 H      0.8136     1.0000     0.1864     0.9817     0.9817     0.0000
 63 H      0.8285     1.0000     0.1715     0.9825     0.9825     0.0000
 64 H      0.8235     1.0000     0.1765     0.9539     0.9539     0.0000
 65 H      0.8432     1.0000     0.1568     0.9595     0.9595     0.0000
 66 H      0.8628     1.0000     0.1372     0.9916     0.9916     0.0000
 67 H      0.8301     1.0000     0.1699     0.9807     0.9807     0.0000
 68 H      0.8650     1.0000     0.1350     0.9808     0.9808     0.0000
 69 H      0.8778     1.0000     0.1222     0.9710     0.9710     0.0000
 70 H      0.8771     1.0000     0.1229     0.9704     0.9704     0.0000
 71 H      0.8534     1.0000     0.1466     0.9789     0.9789    -0.0000
 72 H      0.8521     1.0000     0.1479     0.9784     0.9784     0.0000
 73 H      0.8562     1.0000     0.1438     0.9679     0.9679     0.0000
 74 H      0.8556     1.0000     0.1444     0.9684     0.9684     0.0000
 75 H      0.8598     1.0000     0.1402     0.9785     0.9785     0.0000
 76 H      0.7941     1.0000     0.2059     0.9465     0.9465     0.0000
 77 H      0.8302     1.0000     0.1698     0.9648     0.9648     0.0000
 78 H      0.8343     1.0000     0.1657     0.9651     0.9650     0.0000
 79 H      0.8401     1.0000     0.1599     0.9693     0.9693     0.0000
 80 H      0.8392     1.0000     0.1608     0.9692     0.9692     0.0000
 81 H      0.8298     1.0000     0.1702     0.9641     0.9641     0.0000
 82 H      0.8265     1.0000     0.1735     0.9640     0.9640     0.0000
 83 H      0.7940     1.0000     0.2060     0.9462     0.9462     0.0000

  Mayer bond orders larger than 0.100000
B(  0-C ,  1-C ) :   1.4374 B(  0-C ,  5-C ) :   1.3380 B(  0-C , 55-H ) :   0.9464 
B(  1-C ,  2-C ) :   1.3771 B(  1-C , 56-H ) :   0.9504 B(  2-C ,  3-C ) :   1.3660 
B(  2-C ,  6-C ) :   1.0189 B(  3-C ,  4-C ) :   1.4549 B(  3-C , 57-H ) :   0.9406 
B(  4-C ,  5-C ) :   1.3563 B(  4-C , 58-H ) :   0.9518 B(  5-C , 24-C ) :   0.9459 
B(  6-C ,  7-N ) :   1.4875 B(  6-C , 11-N ) :   1.4145 B(  7-N ,  8-C ) :   1.4511 
B(  8-C ,  9-N ) :   1.4099 B(  8-C , 18-C ) :   1.0555 B(  9-N , 10-C ) :   1.4977 
B( 10-C , 11-N ) :   1.4795 B( 10-C , 12-C ) :   1.0120 B( 12-C , 13-C ) :   1.3813 
B( 12-C , 17-C ) :   1.3873 B( 13-C , 14-C ) :   1.3770 B( 13-C , 59-H ) :   0.9346 
B( 14-C , 15-C ) :   1.4390 B( 14-C , 60-H ) :   0.9983 B( 15-C , 16-C ) :   1.4319 
B( 15-C , 41-N ) :   0.6338 B( 16-C , 17-C ) :   1.3807 B( 16-C , 61-H ) :   1.0040 
B( 17-C , 62-H ) :   0.9296 B( 18-C , 19-C ) :   1.3713 B( 18-C , 23-C ) :   1.3745 
B( 19-C , 20-C ) :   1.5067 B( 19-C , 63-H ) :   0.9357 B( 20-C , 21-C ) :   1.3218 
B( 20-C , 64-H ) :   0.9350 B( 21-C , 22-C ) :   1.3255 B( 21-C , 27-N ) :   1.1717 
B( 22-C , 23-C ) :   1.5029 B( 22-C , 65-H ) :   0.9378 B( 23-C , 66-H ) :   0.9462 
B( 24-C , 25-S ) :   2.0009 B( 24-C , 26-S ) :   1.2790 B( 25-S , 26-S ) :   0.1373 
B( 26-S , 67-H ) :   0.9578 B( 27-N , 28-C ) :   0.8760 B( 27-N , 32-C ) :   0.8926 
B( 28-C , 29-C ) :   1.3444 B( 28-C , 37-C ) :   1.3640 B( 29-C , 30-S ) :   1.1078 
B( 29-C , 40-C ) :   1.3361 B( 30-S , 31-C ) :   1.1197 B( 31-C , 32-C ) :   1.3438 
B( 31-C , 33-C ) :   1.3426 B( 32-C , 36-C ) :   1.3691 B( 33-C , 34-C ) :   1.4278 
B( 33-C , 68-H ) :   0.9577 B( 34-C , 35-C ) :   1.3925 B( 34-C , 69-H ) :   0.9736 
B( 35-C , 36-C ) :   1.4048 B( 35-C , 70-H ) :   0.9738 B( 36-C , 71-H ) :   0.9760 
B( 37-C , 38-C ) :   1.4077 B( 37-C , 72-H ) :   0.9788 B( 38-C , 39-C ) :   1.3969 
B( 38-C , 73-H ) :   0.9676 B( 39-C , 40-C ) :   1.4297 B( 39-C , 74-H ) :   0.9666 
B( 40-C , 75-H ) :   0.9597 B( 41-N , 42-C ) :   1.1864 B( 41-N , 46-C ) :   1.1873 
B( 42-C , 43-C ) :   1.2173 B( 42-C , 47-C ) :   1.2835 B( 43-C , 44-S ) :   1.2543 
B( 43-C , 50-C ) :   1.2721 B( 44-S , 45-C ) :   1.2564 B( 45-C , 46-C ) :   1.2146 
B( 45-C , 51-C ) :   1.2698 B( 46-C , 54-C ) :   1.2800 B( 47-C , 48-C ) :   1.5272 
B( 47-C , 76-H ) :   0.9241 B( 48-C , 49-C ) :   1.3034 B( 48-C , 77-H ) :   0.9517 
B( 49-C , 50-C ) :   1.5127 B( 49-C , 78-H ) :   0.9602 B( 50-C , 79-H ) :   0.9499 
B( 51-C , 52-C ) :   1.5125 B( 51-C , 80-H ) :   0.9506 B( 52-C , 53-C ) :   1.3033 
B( 52-C , 81-H ) :   0.9579 B( 53-C , 54-C ) :   1.5261 B( 53-C , 82-H ) :   0.9509 
B( 54-C , 83-H ) :   0.9257 

-------
TIMINGS
-------

Total SCF time: 0 days 0 hours 14 min 36 sec 

Total time                  ....     876.466 sec
Sum of individual times     ....     855.026 sec  ( 97.6%)

Fock matrix formation       ....     742.992 sec  ( 84.8%)
  Split-RI-J                ....      47.382 sec  (  6.4% of F)
  Chain of spheres X        ....     619.069 sec  ( 83.3% of F)
  XC integration            ....      48.272 sec  (  6.5% of F)
    Basis function eval.    ....       3.331 sec  (  6.9% of XC)
    Density eval.           ....      20.886 sec  ( 43.3% of XC)
    XC-Functional eval.     ....       0.813 sec  (  1.7% of XC)
    XC-Potential eval.      ....       9.325 sec  ( 19.3% of XC)
Diagonalization             ....      46.807 sec  (  5.3%)
Density matrix formation    ....       3.413 sec  (  0.4%)
Population analysis         ....       8.337 sec  (  1.0%)
Initial guess               ....       1.810 sec  (  0.2%)
Orbital Transformation      ....       0.000 sec  (  0.0%)
Orbital Orthonormalization  ....       0.000 sec  (  0.0%)
DIIS solution               ....      42.768 sec  (  4.9%)
Grid generation             ....       8.899 sec  (  1.0%)

Maximum memory used throughout the entire SCF-calculation: 754.6 MB


-------------------------------------------------------------------------------
                          DFT DISPERSION CORRECTION                            
                                                                               
                                 DFTD4 V2.5                                    
-------------------------------------------------------------------------------
The CAM-B3LYP functional is recognized
Active option DFTDOPT                   ...         5   

Starting D4
-------------------------   ----------------
Dispersion correction           -0.136155922
-------------------------   ----------------


-------------------------   --------------------
FINAL SINGLE POINT ENERGY     -3636.477703840969
-------------------------   --------------------



           ************************************************************
           *        Program running with 36 parallel MPI-processes    *
           *              working on a shared directory               *
           ************************************************************
------------------------------------------------------------------------------
                         ORCA SCF GRADIENT CALCULATION
------------------------------------------------------------------------------

 ... reading COSX grid (gridx3)
Gradient of the Kohn-Sham DFT energy:
Kohn-Sham wavefunction type      ... UKS
Hartree-Fock exchange scaling    ...    0.190
Number of operators              ...    2
Number of atoms                  ...   84
Basis set dimensions             ... 1903
Integral neglect threshold       ... 2.5e-11
Integral primitive cutoff        ... 2.5e-12
SHARK Integral package           ... ON

Nuc. rep. gradient       (SHARK) ... done (  0.0 sec)
HCore & Overlap gradient (SHARK) ... done (  0.9 sec)
RI-J gradient            (SHARK) ... done (  4.0 sec)
COSX-gradient                    ... done ( 64.3 sec)
Exchange-correlation gradient    ... done
Point charge gradient            ... done
Dispersion correction            ... Starting D4
Starting D4
Starting D4
Starting D4
Starting D4
Starting D4
Starting D4
Starting D4
Starting D4
Starting D4
Starting D4
Starting D4
Starting D4
Starting D4
Starting D4
Starting D4
Starting D4
Starting D4
Starting D4
Starting D4
Starting D4
Starting D4
Starting D4
Starting D4
Starting D4
Starting D4
Starting D4
Starting D4
Starting D4
Starting D4
Starting D4
Starting D4
Starting D4
Starting D4
Starting D4
Starting D4


------------------- 
Dispersion Gradient 
------------------- 
   1  :   -0.000072763   -0.000280496   -0.000052499
   2  :   -0.000062822   -0.000268250   -0.000031465
   3  :   -0.000156774    0.000001459    0.000013582
   4  :   -0.000071118    0.000272963    0.000061352
   5  :   -0.000069735    0.000289777    0.000073173
   6  :   -0.000188726    0.000000471   -0.000001082
   7  :   -0.000175626    0.000007093    0.000011729
   8  :   -0.000069661    0.000114733    0.000020244
   9  :    0.000061939    0.000140726    0.000005572
  10  :    0.000141665    0.000007374   -0.000003021
  11  :    0.000047695   -0.000103605    0.000003472
  12  :   -0.000080225   -0.000114715    0.000012567
  13  :    0.000023687   -0.000036105    0.000001084
  14  :   -0.000325727   -0.000133432    0.000084795
  15  :   -0.000437809   -0.000045231    0.000085604
  16  :   -0.000150021    0.000247585    0.000006358
  17  :    0.000259018    0.000361934   -0.000078450
  18  :    0.000267102    0.000211186   -0.000075737
  19  :    0.000059065    0.000092867    0.000013032
  20  :   -0.000249351    0.000099184    0.000041919
  21  :   -0.000396470   -0.000142494    0.000148637
  22  :   -0.000163670   -0.000305692    0.000177903
  23  :    0.000100066   -0.000422658    0.000113907
  24  :    0.000204064   -0.000163084    0.000010803
  25  :   -0.000360418    0.000009737    0.000001209
  26  :   -0.000637751    0.000334362    0.000317459
  27  :   -0.000648048   -0.000351151   -0.000364606
  28  :    0.000022236    0.000004968    0.000200249
  29  :   -0.000188750    0.000337221    0.000065700
  30  :   -0.000143255    0.000381685   -0.000264360
  31  :    0.000092118    0.000361664   -0.001279691
  32  :    0.000362742    0.000088398   -0.000313097
  33  :    0.000390944    0.000001767    0.000012207
  34  :    0.000458657    0.000056913   -0.000294096
  35  :    0.000495160   -0.000011029   -0.000050374
  36  :    0.000538119   -0.000053833    0.000182230
  37  :    0.000537319   -0.000095798    0.000348894
  38  :   -0.000297768    0.000385866    0.000426739
  39  :   -0.000284803    0.000421701    0.000258742
  40  :   -0.000257128    0.000425229    0.000021051
  41  :   -0.000214191    0.000449769   -0.000230213
  42  :   -0.000010025    0.000012295    0.000000539
  43  :    0.000156028   -0.000137354    0.000321273
  44  :    0.000245982   -0.000308564    0.000261875
  45  :    0.000563633   -0.000943185   -0.000023673
  46  :    0.000144660   -0.000355440   -0.000277572
  47  :    0.000033978   -0.000193867   -0.000328026
  48  :    0.000102710    0.000052235    0.000589037
  49  :    0.000086630    0.000073000    0.000562879
  50  :    0.000145477   -0.000072191    0.000430862
  51  :    0.000220077   -0.000242740    0.000312235
  52  :    0.000099110   -0.000298772   -0.000324841
  53  :   -0.000018421   -0.000148406   -0.000435302
  54  :   -0.000122225   -0.000023479   -0.000559940
  55  :   -0.000115504   -0.000048694   -0.000587021
  56  :   -0.000027192   -0.000118455   -0.000023722
  57  :   -0.000056990   -0.000102696   -0.000024161
  58  :   -0.000058099    0.000100820    0.000029578
  59  :   -0.000028237    0.000118734    0.000026022
  60  :   -0.000076900   -0.000093335    0.000033426
  61  :   -0.000195564   -0.000056441    0.000040877
  62  :    0.000142900    0.000142643   -0.000038747
  63  :    0.000119270    0.000018038   -0.000032134
  64  :   -0.000068692    0.000083730    0.000003573
  65  :   -0.000153599   -0.000027690    0.000039000
  66  :    0.000054734   -0.000146554    0.000025127
  67  :    0.000108753   -0.000015676   -0.000008672
  68  :   -0.000050455   -0.000023604   -0.000028934
  69  :    0.000081904    0.000025551   -0.000101558
  70  :    0.000098409   -0.000002263   -0.000020373
  71  :    0.000094268   -0.000018614    0.000052273
  72  :    0.000121285   -0.000018357    0.000154793
  73  :   -0.000055506    0.000082225    0.000171606
  74  :   -0.000055926    0.000067097    0.000066408
  75  :   -0.000053174    0.000085610   -0.000006264
  76  :   -0.000031704    0.000092151   -0.000090889
  77  :    0.000012455    0.000033690    0.000157646
  78  :    0.000006508    0.000030957    0.000111138
  79  :    0.000033768   -0.000019888    0.000091944
  80  :    0.000065861   -0.000090162    0.000049041
  81  :    0.000046106   -0.000099468   -0.000053603
  82  :   -0.000001543   -0.000036286   -0.000093274
  83  :   -0.000034214    0.000012376   -0.000109965
  84  :   -0.000043816    0.000008213   -0.000155447

  |G| =    0.038736420

done

------------------
CARTESIAN GRADIENT
------------------

   1   C   :   -0.000400213    0.000172544   -0.000297573
   2   C   :    0.000143511    0.000083470   -0.000069034
   3   C   :   -0.001911933    0.000061167    0.000000555
   4   C   :    0.000109962   -0.000230291    0.000032427
   5   C   :   -0.000337615    0.000009904    0.000178098
   6   C   :   -0.000868942   -0.000293728   -0.000028318
   7   C   :    0.005612428    0.000331596   -0.000116258
   8   N   :   -0.004116392   -0.001791401    0.000293603
   9   C   :    0.003358777    0.002414005   -0.000230343
  10   N   :   -0.001684103   -0.000735002    0.000002046
  11   C   :    0.002750989   -0.000574845    0.000016056
  12   N   :   -0.003637356    0.001220083    0.000204917
  13   C   :   -0.000071791    0.000049820   -0.000143101
  14   C   :    0.000186523   -0.000183495    0.000083171
  15   C   :   -0.000060730    0.000449288   -0.000104015
  16   C   :    0.000271851   -0.000576377    0.000064051
  17   C   :   -0.000172290    0.000047780   -0.000188908
  18   C   :   -0.000211090    0.000254720    0.000035717
  19   C   :   -0.001311524   -0.001659207    0.000035232
  20   C   :    0.000075431    0.000994639    0.000140889
  21   C   :   -0.001183879   -0.000689882    0.000052839
  22   C   :    0.001358156    0.002477465   -0.000052042
  23   C   :    0.000196674   -0.001263068   -0.000226557
  24   C   :    0.000941918    0.000601708   -0.000189066
  25   C   :    0.002414527   -0.000228817   -0.000141530
  26   S   :   -0.001332373    0.000564774    0.000443559
  27   S   :   -0.000353293   -0.000234288   -0.000469262
  28   N   :   -0.002213493   -0.001908474   -0.000397848
  29   C   :   -0.000083591   -0.000194024    0.000577555
  30   C   :    0.000635142   -0.000135516   -0.000767683
  31   S   :   -0.000813908    0.000354806    0.000123883
  32   C   :    0.000366068   -0.000691160    0.000980591
  33   C   :    0.001689344    0.000156293   -0.000658824
  34   C   :   -0.000366492   -0.000072394   -0.000193494
  35   C   :    0.000154017    0.000041843    0.000003887
  36   C   :   -0.000000541    0.000108267   -0.000036955
  37   C   :   -0.000094409    0.000113521   -0.000190981
  38   C   :   -0.000305530   -0.000049090   -0.000054677
  39   C   :   -0.000040370   -0.000126685   -0.000102590
  40   C   :    0.000018501   -0.000164091   -0.000072879
  41   C   :   -0.000316318    0.000052339    0.000336958
  42   N   :   -0.000456969    0.000098547    0.000028653
  43   C   :    0.000186491    0.000424661    0.000438665
  44   C   :   -0.000038127    0.000098395   -0.000432880
  45   S   :    0.000350031    0.000074366   -0.000022906
  46   C   :   -0.000039726    0.000182931    0.000491483
  47   C   :    0.000145822    0.000109090   -0.000526618
  48   C   :   -0.000053136   -0.000284444   -0.000204111
  49   C   :   -0.000119029   -0.000021181   -0.000099404
  50   C   :    0.000036948   -0.000154047    0.000058327
  51   C   :   -0.000026428   -0.000087311    0.000149221
  52   C   :   -0.000261807   -0.000104633   -0.000099531
  53   C   :   -0.000154819   -0.000080717   -0.000039120
  54   C   :    0.000020181   -0.000248797    0.000017776
  55   C   :    0.000072925   -0.000093482    0.000261550
  56   H   :    0.000084726   -0.000141336    0.000115161
  57   H   :    0.000239209    0.000170465    0.000119631
  58   H   :    0.000233864   -0.000071713   -0.000018903
  59   H   :    0.000120285    0.000086925   -0.000033792
  60   H   :    0.000147654   -0.000066392    0.000018627
  61   H   :    0.000199429    0.000007341   -0.000048708
  62   H   :   -0.000063887    0.000057203   -0.000044322
  63   H   :    0.000213389   -0.000125478    0.000003815
  64   H   :    0.000011294    0.000082884    0.000047880
  65   H   :    0.000099812    0.000078093   -0.000003443
  66   H   :   -0.000061409    0.000064687    0.000030232
  67   H   :    0.000140510    0.000169983    0.000019046
  68   H   :    0.000166633    0.000043341    0.000191393
  69   H   :    0.000121140   -0.000036344    0.000037089
  70   H   :   -0.000160656    0.000027865    0.000037337
  71   H   :   -0.000050228    0.000125725   -0.000149220
  72   H   :    0.000129585   -0.000073969    0.000053475
  73   H   :    0.000169856    0.000048221    0.000024378
  74   H   :    0.000149873    0.000075754    0.000123068
  75   H   :    0.000108424    0.000162880    0.000024094
  76   H   :    0.000181322   -0.000012929   -0.000006401
  77   H   :    0.000197336    0.000053756    0.000044686
  78   H   :    0.000227537    0.000046104    0.000013801
  79   H   :    0.000228897    0.000081906   -0.000069879
  80   H   :    0.000206870    0.000091837    0.000019319
  81   H   :    0.000181675    0.000068285   -0.000048087
  82   H   :    0.000191817    0.000069731    0.000008548
  83   H   :    0.000143508    0.000053454   -0.000045147
  84   H   :    0.000128794    0.000016666   -0.000067219

Difference to translation invariance:
           :    0.0017452563   -0.0001734800   -0.0007083381

Difference to rotation invariance:
           :   -0.0010186027    0.0073541428    0.0210755197

Norm of the cartesian gradient     ...    0.0121437186
RMS gradient                       ...    0.0007649824
MAX gradient                       ...    0.0056124279

-------
TIMINGS
-------

Total SCF gradient time            ...       95.577 sec

One electron gradient       ....       0.911 sec  (  1.0%)
RI-J Coulomb gradient       ....       3.999 sec  (  4.2%)
COSX gradient               ....      64.268 sec  ( 67.2%)
XC gradient                 ....       8.292 sec  (  8.7%)
Point charge gradient       ....       1.588 sec  (  1.7%)

Maximum memory used throughout the entire SCFGRAD-calculation: 485.1 MB
------------------------------------------------------------------------------
                         ORCA GEOMETRY RELAXATION STEP
------------------------------------------------------------------------------

Reading the OPT-File                    .... done
Getting information on internals        .... done
Copying old internal coords+grads       .... done
Making the new internal coordinates     .... (new redundants).... done
Validating the new internal coordinates .... (new redundants).... done
Calculating the B-matrix                .... done
Calculating the G,G- and P matrices     .... done
Transforming gradient to internals      .... done
Projecting the internal gradient        .... done
Number of atoms                         ....  84
Number of internal coordinates          .... 473
Current Energy                          .... -3636.477703841 Eh
Current gradient norm                   ....     0.012143719 Eh/bohr
Maximum allowed component of the step   ....  0.300
Current trust radius                    ....  0.300
Evaluating the initial hessian          ....  (Almloef) done
Projecting the Hessian                  .... done
Forming the augmented Hessian           .... done
Diagonalizing the augmented Hessian     .... done
Last element of RFO vector              ....  0.985350302
Lowest eigenvalues of augmented Hessian:
 -0.000956222  0.004542357  0.010586594  0.012680020  0.013207090
Length of the computed step             ....  0.173078153
The final length of the internal step   ....  0.173078153
Converting the step to cartesian space:
 Initial RMS(Int)=    0.0079581419
Transforming coordinates:
 Iter   0:  RMS(Cart)=    0.2385506864 RMS(Int)=    1.4414245236
 Iter   1:  RMS(Cart)=    0.0100564300 RMS(Int)=    0.0024054044
 Iter   2:  RMS(Cart)=    0.0007652592 RMS(Int)=    0.0000574756
 Iter   3:  RMS(Cart)=    0.0000646949 RMS(Int)=    0.0000157608
 Iter   4:  RMS(Cart)=    0.0000051906 RMS(Int)=    0.0000005892
 Iter   5:  RMS(Cart)=    0.0000004437 RMS(Int)=    0.0000001079
 Iter   6:  RMS(Cart)=    0.0000000370 RMS(Int)=    0.0000000056
done
Storing new coordinates                 .... done

                                .--------------------.
          ----------------------|Geometry convergence|-------------------------
          Item                value                   Tolerance       Converged
          ---------------------------------------------------------------------
          RMS gradient        0.0005808723            0.0001000000      NO
          MAX gradient        0.0042071500            0.0003000000      NO
          RMS step            0.0079581419            0.0020000000      NO
          MAX step            0.0488206043            0.0040000000      NO
          ........................................................
          Max(Bonds)      0.0023      Max(Angles)    0.57
          Max(Dihed)        2.80      Max(Improp)    0.00
          ---------------------------------------------------------------------

The optimization has not yet converged - more geometry cycles are needed


    ---------------------------------------------------------------------------
                         Redundant Internal Coordinates
                            (Angstroem and degrees)

        Definition                    Value    dE/dq     Step     New-Value
    ----------------------------------------------------------------------------
     1. B(C   1,C   0)                1.3792  0.000357 -0.0003    1.3789   
     2. B(C   2,C   1)                1.3884 -0.000342  0.0003    1.3887   
     3. B(C   3,C   2)                1.3909 -0.000180  0.0002    1.3910   
     4. B(C   4,C   3)                1.3769  0.000349 -0.0003    1.3766   
     5. B(C   5,C   4)                1.3925  0.000154 -0.0001    1.3924   
     6. B(C   5,C   0)                1.3924  0.000069 -0.0001    1.3924   
     7. B(C   6,C   2)                1.4754  0.001996 -0.0023    1.4731   
     8. B(N   7,C   6)                1.3217 -0.001333  0.0010    1.3227   
     9. B(C   8,N   7)                1.3329  0.001888 -0.0014    1.3315   
    10. B(N   9,C   8)                1.3390 -0.000852  0.0007    1.3397   
    11. B(C  10,N   9)                1.3180 -0.001463  0.0011    1.3190   
    12. B(N  11,C   6)                1.3346 -0.000367  0.0003    1.3348   
    13. B(N  11,C  10)                1.3226  0.002210 -0.0016    1.3210   
    14. B(C  12,C  10)                1.4863  0.000003 -0.0000    1.4863   
    15. B(C  13,C  12)                1.3887  0.000208 -0.0002    1.3885   
    16. B(C  14,C  13)                1.3816  0.000610 -0.0005    1.3810   
    17. B(C  15,C  14)                1.3808  0.000394 -0.0003    1.3805   
    18. B(C  16,C  15)                1.3813 -0.000536  0.0005    1.3817   
    19. B(C  17,C  16)                1.3810 -0.000714  0.0006    1.3816   
    20. B(C  17,C  12)                1.3889 -0.000270  0.0002    1.3891   
    21. B(C  18,C   8)                1.4559 -0.001511  0.0016    1.4575   
    22. B(C  19,C  18)                1.3932  0.000780 -0.0007    1.3925   
    23. B(C  20,C  19)                1.3730 -0.000059  0.0000    1.3730   
    24. B(C  21,C  20)                1.4012  0.001203 -0.0011    1.4001   
    25. B(C  22,C  21)                1.4013  0.000007  0.0000    1.4013   
    26. B(C  23,C  22)                1.3730 -0.001518  0.0012    1.3743   
    27. B(C  23,C  18)                1.3927  0.000614 -0.0005    1.3922   
    28. B(C  24,C   5)                1.4810 -0.000803  0.0009    1.4820   
    29. B(S  25,C  24)                1.6214  0.001335 -0.0010    1.6205   
    30. B(S  26,C  24)                1.7464  0.000392 -0.0005    1.7459   
    31. B(N  27,C  21)                1.3874 -0.002341  0.0022    1.3896   
    32. B(C  28,N  27)                1.4234 -0.000386  0.0004    1.4239   
    33. B(C  29,C  28)                1.3887  0.000029  0.0000    1.3887   
    34. B(S  30,C  29)                1.7629 -0.000543  0.0007    1.7635   
    35. B(C  31,S  30)                1.7625  0.000554 -0.0007    1.7618   
    36. B(C  32,C  31)                1.3890 -0.000695  0.0006    1.3897   
    37. B(C  32,N  27)                1.4230  0.001342 -0.0014    1.4216   
    38. B(C  33,C  31)                1.3865 -0.000194  0.0002    1.3867   
    39. B(C  34,C  33)                1.3822 -0.000129  0.0001    1.3822   
    40. B(C  35,C  34)                1.3860 -0.000209  0.0001    1.3861   
    41. B(C  36,C  35)                1.3825 -0.000060  0.0000    1.3825   
    42. B(C  36,C  32)                1.3844 -0.000069  0.0001    1.3845   
    43. B(C  37,C  28)                1.3843 -0.000009  0.0000    1.3843   
    44. B(C  38,C  37)                1.3823 -0.000142  0.0001    1.3824   
    45. B(C  39,C  38)                1.3861 -0.000010 -0.0000    1.3860   
    46. B(C  40,C  39)                1.3821 -0.000066  0.0000    1.3821   
    47. B(C  40,C  29)                1.3863  0.000017  0.0000    1.3863   
    48. B(N  41,C  15)                1.4458 -0.000126  0.0001    1.4459   
    49. B(C  42,N  41)                1.3819  0.000422 -0.0004    1.3815   
    50. B(C  43,C  42)                1.4070  0.000080 -0.0001    1.4070   
    51. B(S  44,C  43)                1.7145 -0.000264  0.0003    1.7148   
    52. B(C  45,S  44)                1.7143 -0.000127  0.0001    1.7145   
    53. B(C  46,C  45)                1.4070  0.000019 -0.0000    1.4070   
    54. B(C  46,N  41)                1.3818  0.000246 -0.0002    1.3816   
    55. B(C  47,C  42)                1.4059 -0.000151  0.0001    1.4061   
    56. B(C  48,C  47)                1.3674  0.000075 -0.0001    1.3674   
    57. B(C  49,C  48)                1.3977 -0.000006  0.0000    1.3977   
    58. B(C  50,C  49)                1.3673 -0.000180  0.0001    1.3675   
    59. B(C  50,C  43)                1.3985  0.000198 -0.0002    1.3983   
    60. B(C  51,C  45)                1.3985  0.000093 -0.0001    1.3984   
    61. B(C  52,C  51)                1.3673 -0.000167  0.0001    1.3674   
    62. B(C  53,C  52)                1.3977 -0.000141  0.0001    1.3979   
    63. B(C  54,C  46)                1.4060 -0.000215  0.0002    1.4062   
    64. B(C  54,C  53)                1.3674  0.000133 -0.0001    1.3673   
    65. B(H  55,C   0)                1.0808  0.000060 -0.0001    1.0807   
    66. B(H  56,C   1)                1.0793 -0.000067  0.0001    1.0793   
    67. B(H  57,C   3)                1.0795  0.000059 -0.0001    1.0794   
    68. B(H  58,C   4)                1.0800  0.000033 -0.0000    1.0800   
    69. B(H  59,C  13)                1.0797 -0.000112  0.0002    1.0799   
    70. B(H  60,C  14)                1.0817 -0.000094  0.0001    1.0819   
    71. B(H  61,C  16)                1.0818 -0.000089  0.0001    1.0819   
    72. B(H  62,C  17)                1.0796 -0.000024  0.0000    1.0796   
    73. B(H  63,C  19)                1.0798  0.000004 -0.0000    1.0798   
    74. B(H  64,C  20)                1.0778  0.000023 -0.0000    1.0778   
    75. B(H  65,C  22)                1.0778 -0.000078  0.0001    1.0779   
    76. B(H  66,C  23)                1.0798 -0.000085  0.0001    1.0799   
    77. B(H  67,S  26)                1.3392 -0.000084  0.0001    1.3393   
    78. B(H  68,C  33)                1.0816 -0.000046  0.0001    1.0817   
    79. B(H  69,C  34)                1.0813 -0.000173  0.0002    1.0816   
    80. B(H  70,C  35)                1.0812 -0.000150  0.0002    1.0814   
    81. B(H  71,C  36)                1.0815  0.000067 -0.0001    1.0814   
    82. B(H  72,C  37)                1.0815  0.000004 -0.0000    1.0815   
    83. B(H  73,C  38)                1.0811  0.000048 -0.0001    1.0811   
    84. B(H  74,C  39)                1.0813  0.000080 -0.0001    1.0812   
    85. B(H  75,C  40)                1.0816  0.000006 -0.0000    1.0816   
    86. B(H  76,C  47)                1.0770 -0.000039  0.0001    1.0771   
    87. B(H  77,C  48)                1.0808  0.000022 -0.0000    1.0808   
    88. B(H  78,C  49)                1.0805  0.000001 -0.0000    1.0805   
    89. B(H  79,C  50)                1.0820  0.000011 -0.0000    1.0820   
    90. B(H  80,C  51)                1.0820  0.000020 -0.0000    1.0820   
    91. B(H  81,C  52)                1.0805 -0.000042  0.0001    1.0805   
    92. B(H  82,C  53)                1.0808 -0.000003  0.0000    1.0808   
    93. B(H  83,C  54)                1.0770 -0.000039  0.0001    1.0771   
    94. A(C   1,C   0,H  55)          119.48 -0.000115    0.02    119.50   
    95. A(C   5,C   0,H  55)          119.98  0.000088   -0.02    119.97   
    96. A(C   1,C   0,C   5)          120.52  0.000028   -0.00    120.51   
    97. A(C   0,C   1,C   2)          120.41  0.000064   -0.01    120.40   
    98. A(C   0,C   1,H  56)          120.36  0.000257   -0.04    120.31   
    99. A(C   2,C   1,H  56)          119.23 -0.000323    0.05    119.28   
   100. A(C   3,C   2,C   6)          120.40 -0.000122    0.02    120.42   
   101. A(C   1,C   2,C   3)          119.21 -0.000032    0.01    119.22   
   102. A(C   1,C   2,C   6)          120.38  0.000149   -0.02    120.36   
   103. A(C   2,C   3,H  57)          119.13 -0.000309    0.05    119.18   
   104. A(C   4,C   3,H  57)          120.46  0.000133   -0.02    120.44   
   105. A(C   2,C   3,C   4)          120.40  0.000176   -0.02    120.38   
   106. A(C   3,C   4,H  58)          120.49 -0.000074    0.02    120.51   
   107. A(C   5,C   4,H  58)          118.93  0.000208   -0.03    118.90   
   108. A(C   3,C   4,C   5)          120.57 -0.000136    0.02    120.59   
   109. A(C   0,C   5,C   4)          118.87 -0.000103    0.01    118.88   
   110. A(C   4,C   5,C  24)          119.80  0.000287   -0.04    119.76   
   111. A(C   0,C   5,C  24)          121.33 -0.000183    0.03    121.35   
   112. A(N   7,C   6,N  11)          123.87  0.002019   -0.26    123.61   
   113. A(C   2,C   6,N   7)          118.19 -0.001731    0.23    118.42   
   114. A(C   2,C   6,N  11)          117.94 -0.000294    0.04    117.98   
   115. A(C   6,N   7,C   8)          117.05 -0.000795    0.11    117.16   
   116. A(N   7,C   8,N   9)          122.68 -0.001210    0.16    122.84   
   117. A(N   7,C   8,C  18)          118.73  0.003346   -0.45    118.28   
   118. A(N   9,C   8,C  18)          118.58 -0.002136    0.29    118.87   
   119. A(C   8,N   9,C  10)          115.78  0.002185   -0.28    115.50   
   120. A(N  11,C  10,C  12)          117.21  0.004207   -0.57    116.63   
   121. A(N   9,C  10,N  11)          125.57 -0.001068    0.14    125.71   
   122. A(N   9,C  10,C  12)          117.22 -0.003139    0.43    117.66   
   123. A(C   6,N  11,C  10)          115.03 -0.001145    0.15    115.18   
   124. A(C  10,C  12,C  17)          120.10 -0.002793    0.39    120.49   
   125. A(C  13,C  12,C  17)          119.68 -0.000180    0.02    119.70   
   126. A(C  10,C  12,C  13)          120.22  0.002972   -0.41    119.81   
   127. A(C  14,C  13,H  59)          120.82  0.000118   -0.01    120.81   
   128. A(C  12,C  13,H  59)          118.81  0.000239   -0.03    118.78   
   129. A(C  12,C  13,C  14)          120.37 -0.000358    0.04    120.41   
   130. A(C  13,C  14,C  15)          118.98  0.000163   -0.03    118.94   
   131. A(C  15,C  14,H  60)          120.20 -0.000223    0.04    120.24   
   132. A(C  13,C  14,H  60)          120.82  0.000060   -0.01    120.81   
   133. A(C  14,C  15,C  16)          121.62 -0.000321    0.04    121.67   
   134. A(C  16,C  15,N  41)          119.07 -0.001319    0.18    119.25   
   135. A(C  14,C  15,N  41)          119.31  0.001639   -0.23    119.08   
   136. A(C  15,C  16,C  17)          118.99  0.000249   -0.02    118.97   
   137. A(C  15,C  16,H  61)          120.21 -0.000070    0.00    120.22   
   138. A(C  17,C  16,H  61)          120.79 -0.000180    0.02    120.81   
   139. A(C  12,C  17,H  62)          118.78  0.000006   -0.01    118.77   
   140. A(C  12,C  17,C  16)          120.36  0.000445   -0.05    120.31   
   141. A(C  16,C  17,H  62)          120.85 -0.000451    0.06    120.92   
   142. A(C   8,C  18,C  19)          121.01  0.002420   -0.33    120.67   
   143. A(C  19,C  18,C  23)          117.87  0.000028   -0.00    117.86   
   144. A(C   8,C  18,C  23)          121.12 -0.002446    0.33    121.45   
   145. A(C  20,C  19,H  63)          119.64  0.000146   -0.01    119.62   
   146. A(C  18,C  19,H  63)          119.04  0.000332   -0.04    119.00   
   147. A(C  18,C  19,C  20)          121.32 -0.000476    0.06    121.37   
   148. A(C  19,C  20,H  64)          119.19  0.000169   -0.02    119.17   
   149. A(C  19,C  20,C  21)          120.78 -0.000087    0.00    120.78   
   150. A(C  21,C  20,H  64)          120.03 -0.000083    0.02    120.05   
   151. A(C  22,C  21,N  27)          121.04 -0.001509    0.20    121.24   
   152. A(C  20,C  21,N  27)          121.04  0.001370   -0.19    120.85   
   153. A(C  20,C  21,C  22)          117.92  0.000140   -0.02    117.90   
   154. A(C  23,C  22,H  65)          119.27  0.000089   -0.02    119.25   
   155. A(C  21,C  22,H  65)          120.05 -0.000030   -0.00    120.05   
   156. A(C  21,C  22,C  23)          120.67 -0.000056    0.02    120.69   
   157. A(C  18,C  23,H  66)          119.06 -0.000033   -0.00    119.06   
   158. A(C  22,C  23,H  66)          119.50 -0.000418    0.06    119.56   
   159. A(C  18,C  23,C  22)          121.43  0.000451   -0.05    121.38   
   160. A(S  25,C  24,S  26)          123.80 -0.001035    0.13    123.93   
   161. A(C   5,C  24,S  26)          113.00 -0.000250    0.04    113.04   
   162. A(C   5,C  24,S  25)          123.20  0.001284   -0.16    123.03   
   163. A(C  24,S  26,H  67)           95.60 -0.000517    0.08     95.68   
   164. A(C  28,N  27,C  32)          114.16 -0.000021    0.04    114.19   
   165. A(C  21,N  27,C  32)          120.69 -0.000755    0.06    120.75   
   166. A(C  21,N  27,C  28)          120.66  0.000862   -0.19    120.47   
   167. A(N  27,C  28,C  29)          118.53 -0.000030    0.05    118.58   
   168. A(C  29,C  28,C  37)          119.96  0.000131   -0.02    119.94   
   169. A(N  27,C  28,C  37)          121.49 -0.000105   -0.02    121.47   
   170. A(C  28,C  29,S  30)          119.01  0.000007    0.04    119.05   
   171. A(C  28,C  29,C  40)          119.99 -0.000234    0.02    120.02   
   172. A(S  30,C  29,C  40)          120.99  0.000227   -0.06    120.93   
   173. A(C  29,S  30,C  31)           97.97  0.000035    0.06     98.03   
   174. A(C  32,C  31,C  33)          119.97  0.000171   -0.03    119.94   
   175. A(S  30,C  31,C  33)          120.99 -0.000271   -0.01    120.98   
   176. A(S  30,C  31,C  32)          119.03  0.000098    0.04    119.07   
   177. A(C  31,C  32,C  36)          119.92  0.000013   -0.01    119.91   
   178. A(N  27,C  32,C  36)          121.57  0.000357   -0.10    121.47   
   179. A(N  27,C  32,C  31)          118.50 -0.000370    0.11    118.61   
   180. A(C  31,C  33,H  68)          119.61  0.000174   -0.03    119.58   
   181. A(C  31,C  33,C  34)          119.83 -0.000050    0.02    119.85   
   182. A(C  34,C  33,H  68)          120.55 -0.000125    0.02    120.57   
   183. A(C  35,C  34,H  69)          120.15  0.000025    0.00    120.15   
   184. A(C  33,C  34,H  69)          119.64  0.000050   -0.00    119.64   
   185. A(C  33,C  34,C  35)          120.19 -0.000075    0.00    120.19   
   186. A(C  36,C  35,H  70)          119.83  0.000050   -0.01    119.83   
   187. A(C  34,C  35,H  70)          120.15 -0.000079    0.02    120.16   
   188. A(C  34,C  35,C  36)          120.02  0.000029   -0.01    120.00   
   189. A(C  35,C  36,H  71)          120.96 -0.000103    0.01    120.97   
   190. A(C  32,C  36,H  71)          119.05  0.000190   -0.03    119.01   
   191. A(C  32,C  36,C  35)          119.99 -0.000087    0.02    120.01   
   192. A(C  28,C  37,H  72)          119.10 -0.000055    0.00    119.10   
   193. A(C  28,C  37,C  38)          119.93  0.000013    0.00    119.94   
   194. A(C  38,C  37,H  72)          120.96  0.000045   -0.01    120.95   
   195. A(C  37,C  38,C  39)          120.03 -0.000045    0.00    120.04   
   196. A(C  39,C  38,H  73)          120.15  0.000081   -0.01    120.14   
   197. A(C  37,C  38,H  73)          119.81 -0.000038    0.01    119.82   
   198. A(C  38,C  39,C  40)          120.22  0.000005   -0.00    120.21   
   199. A(C  40,C  39,H  74)          119.67 -0.000021    0.01    119.68   
   200. A(C  38,C  39,H  74)          120.10  0.000014    0.00    120.10   
   201. A(C  29,C  40,C  39)          119.78  0.000136   -0.01    119.77   
   202. A(C  39,C  40,H  75)          120.54  0.000059   -0.01    120.53   
   203. A(C  29,C  40,H  75)          119.68 -0.000197    0.03    119.71   
   204. A(C  42,N  41,C  46)          125.17 -0.000139    0.02    125.18   
   205. A(C  15,N  41,C  46)          117.43  0.000644   -0.09    117.34   
   206. A(C  15,N  41,C  42)          117.40 -0.000508    0.08    117.48   
   207. A(C  43,C  42,C  47)          117.93 -0.000165    0.02    117.95   
   208. A(N  41,C  42,C  47)          119.87  0.000207   -0.03    119.84   
   209. A(N  41,C  42,C  43)          122.21 -0.000042    0.00    122.21   
   210. A(S  44,C  43,C  50)          116.01 -0.000257    0.03    116.04   
   211. A(C  42,C  43,C  50)          120.44  0.000080   -0.01    120.43   
   212. A(C  42,C  43,S  44)          123.56  0.000177   -0.02    123.53   
   213. A(C  43,S  44,C  45)          103.29 -0.000140    0.02    103.32   
   214. A(C  46,C  45,C  51)          120.44 -0.000010    0.00    120.44   
   215. A(S  44,C  45,C  51)          116.01 -0.000340    0.04    116.06   
   216. A(S  44,C  45,C  46)          123.55  0.000349   -0.04    123.50   
   217. A(C  45,C  46,C  54)          117.92 -0.000055    0.01    117.93   
   218. A(N  41,C  46,C  54)          119.85  0.000261   -0.03    119.82   
   219. A(N  41,C  46,C  45)          122.23 -0.000206    0.03    122.25   
   220. A(C  42,C  47,C  48)          120.75  0.000083   -0.01    120.74   
   221. A(C  48,C  47,H  76)          119.68 -0.000129    0.02    119.70   
   222. A(C  42,C  47,H  76)          119.57  0.000047   -0.01    119.56   
   223. A(C  47,C  48,C  49)          120.91  0.000084   -0.01    120.90   
   224. A(C  49,C  48,H  77)          119.88 -0.000125    0.02    119.90   
   225. A(C  47,C  48,H  77)          119.21  0.000041   -0.01    119.20   
   226. A(C  48,C  49,C  50)          119.53 -0.000101    0.01    119.55   
   227. A(C  50,C  49,H  78)          120.14  0.000021   -0.00    120.13   
   228. A(C  48,C  49,H  78)          120.33  0.000080   -0.01    120.32   
   229. A(C  43,C  50,C  49)          120.44  0.000019   -0.00    120.44   
   230. A(C  49,C  50,H  79)          120.55 -0.000084    0.01    120.56   
   231. A(C  43,C  50,H  79)          119.01  0.000066   -0.01    119.00   
   232. A(C  45,C  51,C  52)          120.44  0.000068   -0.01    120.43   
   233. A(C  52,C  51,H  80)          120.56 -0.000030    0.00    120.56   
   234. A(C  45,C  51,H  80)          119.00 -0.000037    0.01    119.00   
   235. A(C  51,C  52,C  53)          119.53 -0.000090    0.01    119.55   
   236. A(C  53,C  52,H  81)          120.33  0.000094   -0.01    120.32   
   237. A(C  51,C  52,H  81)          120.13 -0.000004    0.00    120.14   
   238. A(C  52,C  53,C  54)          120.91  0.000076   -0.01    120.90   
   239. A(C  54,C  53,H  82)          119.21 -0.000021    0.00    119.21   
   240. A(C  52,C  53,H  82)          119.88 -0.000055    0.01    119.89   
   241. A(C  46,C  54,C  53)          120.75  0.000011   -0.00    120.75   
   242. A(C  53,C  54,H  83)          119.70 -0.000040    0.01    119.71   
   243. A(C  46,C  54,H  83)          119.55  0.000029   -0.00    119.55   
   244. D(H  56,C   1,C   0,C   5)    179.20  0.000144   -0.29    178.91   
   245. D(H  56,C   1,C   0,H  55)      0.81  0.000070   -0.14      0.67   
   246. D(C   2,C   1,C   0,H  55)   -179.69 -0.000143    0.26   -179.43   
   247. D(C   2,C   1,C   0,C   5)     -1.31 -0.000070    0.12     -1.19   
   248. D(C   3,C   2,C   1,H  56)   -179.44 -0.000014    0.08   -179.36   
   249. D(C   6,C   2,C   1,C   0)   -178.11  0.000574   -1.23   -179.34   
   250. D(C   3,C   2,C   1,C   0)      1.06  0.000195   -0.32      0.74   
   251. D(C   6,C   2,C   1,H  56)      1.39  0.000366   -0.83      0.56   
   252. D(C   4,C   3,C   2,C   1)      0.21 -0.000133    0.20      0.41   
   253. D(C   4,C   3,C   2,C   6)    179.38 -0.000510    1.11    180.48   
   254. D(H  57,C   3,C   2,C   1)   -179.78  0.000066   -0.18   -179.96   
   255. D(H  57,C   3,C   2,C   6)     -0.61 -0.000312    0.72      0.12   
   256. D(H  58,C   4,C   3,C   2)    179.33  0.000186   -0.36    178.97   
   257. D(C   5,C   4,C   3,H  57)    178.76 -0.000257    0.51    179.27   
   258. D(C   5,C   4,C   3,C   2)     -1.22 -0.000055    0.12     -1.10   
   259. D(H  58,C   4,C   3,H  57)     -0.69 -0.000015    0.03     -0.66   
   260. D(C   4,C   5,C   0,C   1)      0.29 -0.000120    0.20      0.49   
   261. D(C   0,C   5,C   4,H  58)   -179.57 -0.000062    0.16   -179.42   
   262. D(C  24,C   5,C   4,C   3)   -179.25  0.000350   -0.76   -180.01   
   263. D(C  24,C   5,C   4,H  58)      0.20  0.000111   -0.28     -0.08   
   264. D(C  24,C   5,C   0,H  55)     -1.10 -0.000226    0.50     -0.60   
   265. D(C   0,C   5,C   4,C   3)      0.97  0.000178   -0.32      0.65   
   266. D(C   4,C   5,C   0,H  55)    178.67 -0.000050    0.06    178.73   
   267. D(C  24,C   5,C   0,C   1)   -179.48 -0.000297    0.65   -178.83   
   268. D(N  11,C   6,C   2,C   1)     -8.92 -0.000055    0.41     -8.51   
   269. D(N   7,C   6,C   2,C   3)     -8.69 -0.000218    0.62     -8.06   
   270. D(N  11,C   6,C   2,C   3)    171.92  0.000328   -0.51    171.41   
   271. D(N   7,C   6,C   2,C   1)    170.47 -0.000602    1.54    172.02   
   272. D(C   8,N   7,C   6,N  11)      1.33  0.000545   -0.67      0.67   
   273. D(C   8,N   7,C   6,C   2)   -178.02  0.001143   -1.87   -179.89   
   274. D(N   9,C   8,N   7,C   6)     -0.71 -0.000102    0.08     -0.63   
   275. D(C  18,C   8,N   7,C   6)    178.90 -0.000025   -0.08    178.82   
   276. D(C  10,N   9,C   8,C  18)   -179.93 -0.000471    0.69   -179.23   
   277. D(C  10,N   9,C   8,N   7)     -0.32 -0.000374    0.53      0.21   
   278. D(C  12,C  10,N   9,C   8)   -179.25  0.000730   -1.09   -180.34   
   279. D(N  11,C  10,N   9,C   8)      0.86  0.000492   -0.64      0.22   
   280. D(C   6,N  11,C  10,C  12)    179.80 -0.000345    0.57    180.37   
   281. D(C  10,N  11,C   6,N   7)     -0.85 -0.000438    0.57     -0.28   
   282. D(C  10,N  11,C   6,C   2)    178.50 -0.001044    1.77    180.28   
   283. D(C   6,N  11,C  10,N   9)     -0.31 -0.000115    0.13     -0.19   
   284. D(C  17,C  12,C  10,N  11)    171.54 -0.000239    1.50    173.04   
   285. D(C  13,C  12,C  10,N  11)     -8.60 -0.000606    2.39     -6.21   
   286. D(C  13,C  12,C  10,N   9)    171.51 -0.000818    2.80    174.30   
   287. D(C  17,C  12,C  10,N   9)     -8.36 -0.000451    1.91     -6.45   
   288. D(H  59,C  13,C  12,C  17)    179.94 -0.000082    0.22    180.16   
   289. D(H  59,C  13,C  12,C  10)      0.07  0.000288   -0.66     -0.59   
   290. D(C  14,C  13,C  12,C  17)      0.11  0.000272   -0.47     -0.36   
   291. D(C  14,C  13,C  12,C  10)   -179.75  0.000642   -1.35   -181.11   
   292. D(C  15,C  14,C  13,H  59)    179.79  0.000194   -0.38    179.40   
   293. D(H  60,C  14,C  13,H  59)     -0.14  0.000066   -0.14     -0.28   
   294. D(C  15,C  14,C  13,C  12)     -0.39 -0.000167    0.32     -0.07   
   295. D(H  60,C  14,C  13,C  12)    179.68 -0.000295    0.57    180.24   
   296. D(N  41,C  15,C  14,H  60)      0.12 -0.000242    0.49      0.61   
   297. D(N  41,C  15,C  14,C  13)   -179.81 -0.000370    0.74   -179.07   
   298. D(C  16,C  15,C  14,C  13)      0.25 -0.000147    0.24      0.49   
   299. D(C  16,C  15,C  14,H  60)   -179.82 -0.000019   -0.01   -179.82   
   300. D(H  61,C  16,C  15,N  41)      0.12  0.000210   -0.43     -0.31   
   301. D(H  61,C  16,C  15,C  14)   -179.94 -0.000010    0.06   -179.88   
   302. D(C  17,C  16,C  15,N  41)   -179.77  0.000571   -1.13   -180.90   
   303. D(C  17,C  16,C  15,C  14)      0.17  0.000351   -0.64     -0.47   
   304. D(C  16,C  17,C  12,C  13)      0.32 -0.000065    0.06      0.38   
   305. D(C  16,C  17,C  12,C  10)   -179.82 -0.000426    0.95   -178.87   
   306. D(H  62,C  17,C  12,C  10)      0.10 -0.000320    0.74      0.84   
   307. D(H  62,C  17,C  16,H  61)     -0.26  0.000011   -0.01     -0.27   
   308. D(H  62,C  17,C  16,C  15)    179.63 -0.000352    0.69    180.32   
   309. D(C  12,C  17,C  16,H  61)    179.66  0.000120   -0.23    179.43   
   310. D(C  12,C  17,C  16,C  15)     -0.45 -0.000243    0.48      0.02   
   311. D(H  62,C  17,C  12,C  13)   -179.77  0.000041   -0.14   -179.91   
   312. D(C  23,C  18,C   8,N   9)      1.51  0.000680   -2.25     -0.74   
   313. D(C  23,C  18,C   8,N   7)   -178.11  0.000604   -2.09   -180.20   
   314. D(C  19,C  18,C   8,N   9)   -179.55  0.000784   -2.49   -182.05   
   315. D(C  19,C  18,C   8,N   7)      0.82  0.000707   -2.34     -1.51   
   316. D(H  63,C  19,C  18,C  23)    178.94  0.000056   -0.13    178.80   
   317. D(H  63,C  19,C  18,C   8)     -0.03 -0.000017    0.10      0.07   
   318. D(C  20,C  19,C  18,C  23)     -0.57 -0.000145    0.27     -0.30   
   319. D(C  20,C  19,C  18,C   8)   -179.54 -0.000218    0.50   -179.04   
   320. D(H  64,C  20,C  19,H  63)     -0.49 -0.000053    0.11     -0.38   
   321. D(H  64,C  20,C  19,C  18)    179.02  0.000151   -0.29    178.72   
   322. D(C  21,C  20,C  19,H  63)   -179.46  0.000008    0.01   -179.45   
   323. D(C  21,C  20,C  19,C  18)      0.04  0.000211   -0.39     -0.35   
   324. D(N  27,C  21,C  20,H  64)      1.23  0.000069   -0.16      1.07   
   325. D(C  22,C  21,C  20,H  64)   -178.35  0.000013   -0.02   -178.37   
   326. D(C  22,C  21,C  20,C  19)      0.61 -0.000045    0.08      0.69   
   327. D(N  27,C  21,C  20,C  19)   -179.81  0.000010   -0.06   -179.87   
   328. D(H  65,C  22,C  21,N  27)     -1.23 -0.000012    0.04     -1.19   
   329. D(H  65,C  22,C  21,C  20)    178.35  0.000056   -0.11    178.25   
   330. D(C  23,C  22,C  21,N  27)    179.68 -0.000250    0.50    180.17   
   331. D(C  23,C  22,C  21,C  20)     -0.74 -0.000182    0.35     -0.39   
   332. D(H  66,C  23,C  22,H  65)      0.78 -0.000043    0.10      0.88   
   333. D(C  18,C  23,C  22,H  65)   -178.88  0.000013   -0.03   -178.91   
   334. D(C  18,C  23,C  22,C  21)      0.22  0.000248   -0.48     -0.26   
   335. D(H  66,C  23,C  18,C  19)   -179.22 -0.000024    0.04   -179.18   
   336. D(H  66,C  23,C  22,C  21)    179.88  0.000192   -0.36    179.53   
   337. D(H  66,C  23,C  18,C   8)     -0.26  0.000102   -0.20     -0.45   
   338. D(C  22,C  23,C  18,C  19)      0.44 -0.000080    0.17      0.61   
   339. D(C  22,C  23,C  18,C   8)    179.41  0.000046   -0.07    179.33   
   340. D(S  26,C  24,C   5,C   4)    145.68 -0.000229    0.85    146.53   
   341. D(S  26,C  24,C   5,C   0)    -34.55 -0.000052    0.40    -34.15   
   342. D(S  25,C  24,C   5,C   4)    -33.77 -0.000061    0.04    -33.73   
   343. D(S  25,C  24,C   5,C   0)    146.00  0.000116   -0.41    145.59   
   344. D(H  67,S  26,C  24,S  25)     -4.00 -0.000157    1.24     -2.76   
   345. D(H  67,S  26,C  24,C   5)    176.56 -0.000003    0.43    176.98   
   346. D(C  32,N  27,C  21,C  22)     13.28  0.000403   -0.99     12.29   
   347. D(C  32,N  27,C  21,C  20)   -166.28  0.000338   -0.84   -167.13   
   348. D(C  28,N  27,C  21,C  22)    168.12  0.000626   -1.24    166.88   
   349. D(C  28,N  27,C  21,C  20)    -11.45  0.000560   -1.09    -12.54   
   350. D(C  37,C  28,N  27,C  32)   -128.14  0.000273   -0.53   -128.67   
   351. D(C  37,C  28,N  27,C  21)     75.49  0.000258   -0.30     75.18   
   352. D(C  29,C  28,N  27,C  32)     50.45  0.000090    0.08     50.53   
   353. D(C  29,C  28,N  27,C  21)   -105.92  0.000075    0.30   -105.62   
   354. D(C  40,C  29,C  28,C  37)     -2.29  0.000055   -0.11     -2.40   
   355. D(C  40,C  29,C  28,N  27)    179.10  0.000238   -0.71    178.39   
   356. D(S  30,C  29,C  28,C  37)    176.77  0.000045    0.09    176.86   
   357. D(S  30,C  29,C  28,N  27)     -1.84  0.000229   -0.51     -2.35   
   358. D(C  31,S  30,C  29,C  40)    142.81 -0.000328    0.68    143.49   
   359. D(C  31,S  30,C  29,C  28)    -36.24 -0.000313    0.48    -35.76   
   360. D(C  33,C  31,S  30,C  29)   -142.86  0.000138   -0.30   -143.16   
   361. D(C  32,C  31,S  30,C  29)     36.01  0.000009   -0.05     35.96   
   362. D(C  36,C  32,C  31,C  33)      2.54  0.000049   -0.05      2.50   
   363. D(C  36,C  32,C  31,S  30)   -176.33  0.000181   -0.30   -176.63   
   364. D(N  27,C  32,C  31,C  33)   -178.81  0.000084   -0.07   -178.88   
   365. D(N  27,C  32,C  31,S  30)      2.31  0.000217   -0.32      1.99   
   366. D(C  36,C  32,N  27,C  28)    127.91 -0.000255    0.36    128.28   
   367. D(C  36,C  32,N  27,C  21)    -75.72  0.000180    0.07    -75.65   
   368. D(C  31,C  32,N  27,C  28)    -50.71 -0.000286    0.38    -50.33   
   369. D(C  31,C  32,N  27,C  21)    105.66  0.000149    0.09    105.75   
   370. D(C  34,C  33,C  31,S  30)    178.87 -0.000219    0.40    179.27   
   371. D(H  68,C  33,C  31,C  32)   -179.02  0.000017   -0.04   -179.07   
   372. D(H  68,C  33,C  31,S  30)     -0.17 -0.000113    0.21      0.04   
   373. D(C  34,C  33,C  31,C  32)      0.02 -0.000088    0.14      0.16   
   374. D(H  69,C  34,C  33,H  68)     -1.07 -0.000032    0.05     -1.02   
   375. D(H  69,C  34,C  33,C  31)    179.89  0.000072   -0.13    179.76   
   376. D(C  35,C  34,C  33,H  68)    177.18 -0.000056    0.09    177.27   
   377. D(C  35,C  34,C  33,C  31)     -1.85  0.000047   -0.09     -1.94   
   378. D(H  70,C  35,C  34,H  69)      0.18 -0.000009    0.01      0.19   
   379. D(H  70,C  35,C  34,C  33)   -178.06  0.000015   -0.03   -178.09   
   380. D(C  36,C  35,C  34,H  69)    179.37  0.000009   -0.01    179.36   
   381. D(C  36,C  35,C  34,C  33)      1.12  0.000033   -0.05      1.07   
   382. D(H  71,C  36,C  35,H  70)     -0.26 -0.000030    0.05     -0.22   
   383. D(H  71,C  36,C  35,C  34)   -179.45 -0.000047    0.07   -179.38   
   384. D(C  32,C  36,C  35,H  70)   -179.36 -0.000062    0.13   -179.24   
   385. D(C  32,C  36,C  35,C  34)      1.45 -0.000079    0.15      1.60   
   386. D(H  71,C  36,C  32,C  31)    177.60  0.000009   -0.02    177.58   
   387. D(H  71,C  36,C  32,N  27)     -1.00 -0.000018   -0.00     -1.00   
   388. D(C  35,C  36,C  32,C  31)     -3.28  0.000037   -0.10     -3.37   
   389. D(C  35,C  36,C  32,N  27)    178.12  0.000011   -0.08    178.04   
   390. D(H  72,C  37,C  28,C  29)   -177.80  0.000139   -0.34   -178.14   
   391. D(H  72,C  37,C  28,N  27)      0.77 -0.000049    0.28      1.04   
   392. D(C  38,C  37,C  28,C  29)      3.21 -0.000112    0.16      3.37   
   393. D(C  38,C  37,C  28,N  27)   -178.22 -0.000299    0.77   -177.45   
   394. D(H  73,C  38,C  37,H  72)      0.16 -0.000023    0.08      0.23   
   395. D(H  73,C  38,C  37,C  28)    179.12  0.000231   -0.43    178.69   
   396. D(C  39,C  38,C  37,H  72)    179.43 -0.000180    0.43    179.86   
   397. D(C  39,C  38,C  37,C  28)     -1.60  0.000074   -0.07     -1.68   
   398. D(H  74,C  39,C  38,H  73)     -0.15 -0.000021    0.05     -0.10   
   399. D(H  74,C  39,C  38,C  37)   -179.42  0.000137   -0.31   -179.73   
   400. D(C  40,C  39,C  38,H  73)    178.33 -0.000126    0.29    178.63   
   401. D(C  40,C  39,C  38,C  37)     -0.94  0.000031   -0.06     -1.00   
   402. D(H  75,C  40,C  39,H  74)      1.09 -0.000029    0.04      1.13   
   403. D(H  75,C  40,C  39,C  38)   -177.40  0.000076   -0.20   -177.60   
   404. D(C  29,C  40,C  39,H  74)   -179.65 -0.000194    0.36   -179.29   
   405. D(C  29,C  40,C  39,C  38)      1.86 -0.000090    0.11      1.97   
   406. D(H  75,C  40,C  29,S  30)     -0.02 -0.000104    0.08      0.06   
   407. D(H  75,C  40,C  29,C  28)    179.02 -0.000116    0.29    179.31   
   408. D(C  39,C  40,C  29,S  30)   -179.29  0.000059   -0.23   -179.52   
   409. D(C  39,C  40,C  29,C  28)     -0.25  0.000047   -0.03     -0.27   
   410. D(C  46,N  41,C  15,C  16)    -91.19 -0.000293    1.05    -90.13   
   411. D(C  46,N  41,C  15,C  14)     88.88 -0.000077    0.57     89.45   
   412. D(C  42,N  41,C  15,C  16)     88.50 -0.000724    2.08     90.58   
   413. D(C  42,N  41,C  15,C  14)    -91.44 -0.000508    1.60    -89.84   
   414. D(C  47,C  42,N  41,C  46)   -179.61 -0.000227    0.59   -179.03   
   415. D(C  47,C  42,N  41,C  15)      0.73  0.000238   -0.53      0.20   
   416. D(C  43,C  42,N  41,C  46)      0.33  0.000001    0.06      0.39   
   417. D(C  43,C  42,N  41,C  15)   -179.33  0.000466   -1.06   -180.39   
   418. D(C  50,C  43,C  42,C  47)     -0.05 -0.000002    0.06      0.00   
   419. D(C  50,C  43,C  42,N  41)    180.00 -0.000226    0.58    180.58   
   420. D(S  44,C  43,C  42,C  47)    179.95  0.000160   -0.36    179.59   
   421. D(S  44,C  43,C  42,N  41)      0.01 -0.000064    0.16      0.17   
   422. D(C  45,S  44,C  43,C  50)    179.66  0.000173   -0.50    179.16   
   423. D(C  45,S  44,C  43,C  42)     -0.35  0.000017   -0.10     -0.45   
   424. D(C  51,C  45,S  44,C  43)   -179.60 -0.000053    0.19   -179.41   
   425. D(C  46,C  45,S  44,C  43)      0.46  0.000094   -0.16      0.31   
   426. D(C  54,C  46,C  45,C  51)     -0.16 -0.000050    0.09     -0.07   
   427. D(C  54,C  46,C  45,S  44)    179.78 -0.000203    0.45    180.23   
   428. D(N  41,C  46,C  45,C  51)    179.81 -0.000012    0.02    179.83   
   429. D(N  41,C  46,C  45,S  44)     -0.25 -0.000166    0.38      0.13   
   430. D(C  54,C  46,N  41,C  42)    179.76  0.000156   -0.41    179.35   
   431. D(C  54,C  46,N  41,C  15)     -0.58 -0.000313    0.70      0.13   
   432. D(C  45,C  46,N  41,C  42)     -0.21  0.000118   -0.33     -0.54   
   433. D(C  45,C  46,N  41,C  15)    179.45 -0.000351    0.78    180.24   
   434. D(H  76,C  47,C  42,C  43)   -179.92 -0.000152    0.30   -179.62   
   435. D(H  76,C  47,C  42,N  41)      0.03  0.000066   -0.21     -0.18   
   436. D(C  48,C  47,C  42,C  43)      0.02  0.000020   -0.06     -0.04   
   437. D(C  48,C  47,C  42,N  41)    179.97  0.000238   -0.57    179.40   
   438. D(H  77,C  48,C  47,H  76)     -0.00  0.000009   -0.03     -0.03   
   439. D(H  77,C  48,C  47,C  42)   -179.93 -0.000163    0.32   -179.62   
   440. D(C  49,C  48,C  47,H  76)    179.96  0.000161   -0.34    179.62   
   441. D(C  49,C  48,C  47,C  42)      0.03 -0.000011    0.01      0.04   
   442. D(H  78,C  49,C  48,H  77)     -0.05 -0.000004    0.01     -0.04   
   443. D(H  78,C  49,C  48,C  47)    179.99 -0.000157    0.32    180.31   
   444. D(C  50,C  49,C  48,H  77)    179.93  0.000137   -0.27    179.65   
   445. D(C  50,C  49,C  48,C  47)     -0.04 -0.000016    0.04      0.01   
   446. D(H  79,C  50,C  49,H  78)     -0.01 -0.000000    0.00     -0.01   
   447. D(H  79,C  50,C  49,C  48)   -179.99 -0.000141    0.28   -179.71   
   448. D(C  43,C  50,C  49,H  78)    179.97  0.000175   -0.32    179.65   
   449. D(C  43,C  50,C  49,C  48)      0.00  0.000034   -0.04     -0.04   
   450. D(H  79,C  50,C  43,S  44)      0.03 -0.000003    0.06      0.09   
   451. D(H  79,C  50,C  43,C  42)   -179.97  0.000147   -0.32   -180.29   
   452. D(C  49,C  50,C  43,S  44)   -179.96 -0.000175    0.38   -179.58   
   453. D(C  49,C  50,C  43,C  42)      0.05 -0.000025   -0.01      0.04   
   454. D(H  80,C  51,C  45,C  46)   -179.96 -0.000124    0.25   -179.71   
   455. D(H  80,C  51,C  45,S  44)      0.09  0.000018   -0.08      0.01   
   456. D(C  52,C  51,C  45,C  46)     -0.00  0.000038   -0.06     -0.06   
   457. D(C  52,C  51,C  45,S  44)   -179.95  0.000180   -0.39   -180.34   
   458. D(H  81,C  52,C  51,H  80)      0.04  0.000013   -0.03      0.01   
   459. D(H  81,C  52,C  51,C  45)   -179.92 -0.000151    0.29   -179.63   
   460. D(C  53,C  52,C  51,H  80)   -179.95  0.000163   -0.32   -180.28   
   461. D(C  53,C  52,C  51,C  45)      0.09 -0.000002   -0.01      0.08   
   462. D(H  82,C  53,C  52,H  81)     -0.02  0.000027   -0.05     -0.07   
   463. D(H  82,C  53,C  52,C  51)    179.97 -0.000123    0.24    180.21   
   464. D(C  54,C  53,C  52,H  81)   -180.00  0.000128   -0.26   -180.26   
   465. D(C  54,C  53,C  52,C  51)     -0.01 -0.000022    0.04      0.03   
   466. D(H  83,C  54,C  53,H  82)     -0.03  0.000037   -0.06     -0.10   
   467. D(H  83,C  54,C  53,C  52)    179.95 -0.000064    0.14    180.08   
   468. D(C  46,C  54,C  53,H  82)    179.86  0.000109   -0.21    179.65   
   469. D(C  46,C  54,C  53,C  52)     -0.16  0.000008   -0.00     -0.16   
   470. D(H  83,C  54,C  46,C  45)   -179.87  0.000099   -0.20   -180.07   
   471. D(H  83,C  54,C  46,N  41)      0.16  0.000062   -0.13      0.03   
   472. D(C  53,C  54,C  46,C  45)      0.24  0.000027   -0.06      0.18   
   473. D(C  53,C  54,C  46,N  41)   -179.73 -0.000010    0.01   -179.72   
    ----------------------------------------------------------------------------
n1628:rank32.orca_util_mpi: Failed to modify UD QP to INIT on mlx5_0: Operation not permitted
n1628:rank33.orca_util_mpi: Failed to modify UD QP to INIT on mlx5_0: Operation not permitted
n1628:rank34.orca_util_mpi: Failed to modify UD QP to INIT on mlx5_0: Operation not permitted
n1628:rank35.orca_util_mpi: Failed to modify UD QP to INIT on mlx5_0: Operation not permitted
n1628:rank32.orca_util_mpi: Failed to modify UD QP to INIT on mlx5_0: Operation not permitted
n1628:rank33.orca_util_mpi: Failed to modify UD QP to INIT on mlx5_0: Operation not permitted
n1628:rank34.orca_util_mpi: Failed to modify UD QP to INIT on mlx5_0: Operation not permitted
n1628:rank32.orca_util_mpi: Failed to modify UD QP to INIT on mlx5_0: Operation not permitted
n1628:rank33.orca_util_mpi: Failed to modify UD QP to INIT on mlx5_0: Operation not permitted
n1628:rank34.orca_util_mpi: Failed to modify UD QP to INIT on mlx5_0: Operation not permitted
n1628:rank35.orca_util_mpi: Failed to modify UD QP to INIT on mlx5_0: Operation not permitted
n1628:rank35.orca_util_mpi: Failed to modify UD QP to INIT on mlx5_0: Operation not permitted
n1420:rank0.orca_util_mpi: Failed to modify UD QP to INIT on mlx5_0: Operation not permitted
n1628:rank32.orca_util_mpi: Failed to modify UD QP to INIT on mlx5_0: Operation not permitted
n1628:rank33.orca_util_mpi: Failed to modify UD QP to INIT on mlx5_0: Operation not permitted
n1628:rank35.orca_util_mpi: Failed to modify UD QP to INIT on mlx5_0: Operation not permitted
n1628:rank34.orca_util_mpi: Failed to modify UD QP to INIT on mlx5_0: Operation not permitted
n1420:rank5.orca_util_mpi: Failed to modify UD QP to INIT on mlx5_0: Operation not permitted
n1420:rank0.orca_util_mpi: Failed to modify UD QP to INIT on mlx5_0: Operation not permitted
n1420:rank5.orca_util_mpi: Failed to modify UD QP to INIT on mlx5_0: Operation not permitted
n1420:rank0.orca_util_mpi: Failed to modify UD QP to INIT on mlx5_0: Operation not permitted
n1420:rank5.orca_util_mpi: Failed to modify UD QP to INIT on mlx5_0: Operation not permitted
n1420:rank13.orca_util_mpi: Failed to modify UD QP to INIT on mlx5_0: Operation not permitted
n1420:rank13.orca_util_mpi: Failed to modify UD QP to INIT on mlx5_0: Operation not permitted
n1420:rank13.orca_util_mpi: Failed to modify UD QP to INIT on mlx5_0: Operation not permitted
n1420:rank16.orca_util_mpi: Failed to modify UD QP to INIT on mlx5_0: Operation not permitted
n1420:rank16.orca_util_mpi: Failed to modify UD QP to INIT on mlx5_0: Operation not permitted
n1420:rank16.orca_util_mpi: Failed to modify UD QP to INIT on mlx5_0: Operation not permitted
n1420:rank26.orca_util_mpi: Failed to modify UD QP to INIT on mlx5_0: Operation not permitted
n1420:rank1.orca_util_mpi: Failed to modify UD QP to INIT on mlx5_0: Operation not permitted
n1420:rank26.orca_util_mpi: Failed to modify UD QP to INIT on mlx5_0: Operation not permitted
n1420:rank1.orca_util_mpi: Failed to modify UD QP to INIT on mlx5_0: Operation not permitted
n1420:rank26.orca_util_mpi: Failed to modify UD QP to INIT on mlx5_0: Operation not permitted
n1420:rank1.orca_util_mpi: Failed to modify UD QP to INIT on mlx5_0: Operation not permitted
n1420:rank4.orca_util_mpi: Failed to modify UD QP to INIT on mlx5_0: Operation not permitted
n1420:rank4.orca_util_mpi: Failed to modify UD QP to INIT on mlx5_0: Operation not permitted
n1420:rank4.orca_util_mpi: Failed to modify UD QP to INIT on mlx5_0: Operation not permitted
n1420:rank19.orca_util_mpi: Failed to modify UD QP to INIT on mlx5_0: Operation not permitted
n1420:rank3.orca_util_mpi: Failed to modify UD QP to INIT on mlx5_0: Operation not permitted
n1420:rank19.orca_util_mpi: Failed to modify UD QP to INIT on mlx5_0: Operation not permitted
n1420:rank22.orca_util_mpi: Failed to modify UD QP to INIT on mlx5_0: Operation not permitted
n1420:rank3.orca_util_mpi: Failed to modify UD QP to INIT on mlx5_0: Operation not permitted
n1420:rank19.orca_util_mpi: Failed to modify UD QP to INIT on mlx5_0: Operation not permitted
n1420:rank28.orca_util_mpi: Failed to modify UD QP to INIT on mlx5_0: Operation not permitted
n1420:rank3.orca_util_mpi: Failed to modify UD QP to INIT on mlx5_0: Operation not permitted
n1420:rank22.orca_util_mpi: Failed to modify UD QP to INIT on mlx5_0: Operation not permitted
n1420:rank28.orca_util_mpi: Failed to modify UD QP to INIT on mlx5_0: Operation not permitted
n1420:rank22.orca_util_mpi: Failed to modify UD QP to INIT on mlx5_0: Operation not permitted
n1420:rank12.orca_util_mpi: Failed to modify UD QP to INIT on mlx5_0: Operation not permitted
n1420:rank28.orca_util_mpi: Failed to modify UD QP to INIT on mlx5_0: Operation not permitted
n1420:rank12.orca_util_mpi: Failed to modify UD QP to INIT on mlx5_0: Operation not permitted
n1420:rank0.orca_util_mpi: Failed to modify UD QP to INIT on mlx5_0: Operation not permitted
n1420:rank5.orca_util_mpi: Failed to modify UD QP to INIT on mlx5_0: Operation not permitted
n1420:rank12.orca_util_mpi: Failed to modify UD QP to INIT on mlx5_0: Operation not permitted
n1420:rank27.orca_util_mpi: Failed to modify UD QP to INIT on mlx5_0: Operation not permitted
n1420:rank27.orca_util_mpi: Failed to modify UD QP to INIT on mlx5_0: Operation not permitted
n1420:rank24.orca_util_mpi: Failed to modify UD QP to INIT on mlx5_0: Operation not permitted
n1420:rank27.orca_util_mpi: Failed to modify UD QP to INIT on mlx5_0: Operation not permitted
n1420:rank6.orca_util_mpi: Failed to modify UD QP to INIT on mlx5_0: Operation not permitted
n1420:rank24.orca_util_mpi: Failed to modify UD QP to INIT on mlx5_0: Operation not permitted
n1420:rank6.orca_util_mpi: Failed to modify UD QP to INIT on mlx5_0: Operation not permitted
n1420:rank24.orca_util_mpi: Failed to modify UD QP to INIT on mlx5_0: Operation not permitted
n1420:rank6.orca_util_mpi: Failed to modify UD QP to INIT on mlx5_0: Operation not permitted
n1420:rank13.orca_util_mpi: Failed to modify UD QP to INIT on mlx5_0: Operation not permitted
n1420:rank11.orca_util_mpi: Failed to modify UD QP to INIT on mlx5_0: Operation not permitted
n1420:rank11.orca_util_mpi: Failed to modify UD QP to INIT on mlx5_0: Operation not permitted
n1420:rank11.orca_util_mpi: Failed to modify UD QP to INIT on mlx5_0: Operation not permitted
n1420:rank16.orca_util_mpi: Failed to modify UD QP to INIT on mlx5_0: Operation not permitted
n1420:rank9.orca_util_mpi: Failed to modify UD QP to INIT on mlx5_0: Operation not permitted
n1420:rank2.orca_util_mpi: Failed to modify UD QP to INIT on mlx5_0: Operation not permitted
n1420:rank9.orca_util_mpi: Failed to modify UD QP to INIT on mlx5_0: Operation not permitted
n1420:rank9.orca_util_mpi: Failed to modify UD QP to INIT on mlx5_0: Operation not permitted
n1420:rank2.orca_util_mpi: Failed to modify UD QP to INIT on mlx5_0: Operation not permitted
n1420:rank21.orca_util_mpi: Failed to modify UD QP to INIT on mlx5_0: Operation not permitted
n1420:rank31.orca_util_mpi: Failed to modify UD QP to INIT on mlx5_0: Operation not permitted
n1420:rank25.orca_util_mpi: Failed to modify UD QP to INIT on mlx5_0: Operation not permitted
n1420:rank2.orca_util_mpi: Failed to modify UD QP to INIT on mlx5_0: Operation not permitted
n1420:rank8.orca_util_mpi: Failed to modify UD QP to INIT on mlx5_0: Operation not permitted
n1420:rank23.orca_util_mpi: Failed to modify UD QP to INIT on mlx5_0: Operation not permitted
n1420:rank10.orca_util_mpi: Failed to modify UD QP to INIT on mlx5_0: Operation not permitted
n1420:rank17.orca_util_mpi: Failed to modify UD QP to INIT on mlx5_0: Operation not permitted
n1420:rank21.orca_util_mpi: Failed to modify UD QP to INIT on mlx5_0: Operation not permitted
n1420:rank14.orca_util_mpi: Failed to modify UD QP to INIT on mlx5_0: Operation not permitted
n1420:rank15.orca_util_mpi: Failed to modify UD QP to INIT on mlx5_0: Operation not permitted
n1420:rank30.orca_util_mpi: Failed to modify UD QP to INIT on mlx5_0: Operation not permitted
n1420:rank31.orca_util_mpi: Failed to modify UD QP to INIT on mlx5_0: Operation not permitted
n1420:rank25.orca_util_mpi: Failed to modify UD QP to INIT on mlx5_0: Operation not permitted
n1420:rank20.orca_util_mpi: Failed to modify UD QP to INIT on mlx5_0: Operation not permitted
n1420:rank29.orca_util_mpi: Failed to modify UD QP to INIT on mlx5_0: Operation not permitted
n1420:rank18.orca_util_mpi: Failed to modify UD QP to INIT on mlx5_0: Operation not permitted
n1420:rank7.orca_util_mpi: Failed to modify UD QP to INIT on mlx5_0: Operation not permitted
n1420:rank8.orca_util_mpi: Failed to modify UD QP to INIT on mlx5_0: Operation not permitted
n1420:rank23.orca_util_mpi: Failed to modify UD QP to INIT on mlx5_0: Operation not permitted
n1420:rank21.orca_util_mpi: Failed to modify UD QP to INIT on mlx5_0: Operation not permitted
n1420:rank17.orca_util_mpi: Failed to modify UD QP to INIT on mlx5_0: Operation not permitted
n1420:rank10.orca_util_mpi: Failed to modify UD QP to INIT on mlx5_0: Operation not permitted
n1420:rank31.orca_util_mpi: Failed to modify UD QP to INIT on mlx5_0: Operation not permitted
n1420:rank25.orca_util_mpi: Failed to modify UD QP to INIT on mlx5_0: Operation not permitted
n1420:rank14.orca_util_mpi: Failed to modify UD QP to INIT on mlx5_0: Operation not permitted
n1420:rank8.orca_util_mpi: Failed to modify UD QP to INIT on mlx5_0: Operation not permitted
n1420:rank15.orca_util_mpi: Failed to modify UD QP to INIT on mlx5_0: Operation not permitted
n1420:rank30.orca_util_mpi: Failed to modify UD QP to INIT on mlx5_0: Operation not permitted
n1420:rank23.orca_util_mpi: Failed to modify UD QP to INIT on mlx5_0: Operation not permitted
n1420:rank29.orca_util_mpi: Failed to modify UD QP to INIT on mlx5_0: Operation not permitted
n1420:rank18.orca_util_mpi: Failed to modify UD QP to INIT on mlx5_0: Operation not permitted
n1420:rank7.orca_util_mpi: Failed to modify UD QP to INIT on mlx5_0: Operation not permitted
n1420:rank17.orca_util_mpi: Failed to modify UD QP to INIT on mlx5_0: Operation not permitted
n1420:rank10.orca_util_mpi: Failed to modify UD QP to INIT on mlx5_0: Operation not permitted
n1420:rank20.orca_util_mpi: Failed to modify UD QP to INIT on mlx5_0: Operation not permitted
n1420:rank1.orca_util_mpi: Failed to modify UD QP to INIT on mlx5_0: Operation not permitted
n1420:rank14.orca_util_mpi: Failed to modify UD QP to INIT on mlx5_0: Operation not permitted
n1420:rank15.orca_util_mpi: Failed to modify UD QP to INIT on mlx5_0: Operation not permitted
n1420:rank30.orca_util_mpi: Failed to modify UD QP to INIT on mlx5_0: Operation not permitted
n1420:rank29.orca_util_mpi: Failed to modify UD QP to INIT on mlx5_0: Operation not permitted
n1420:rank18.orca_util_mpi: Failed to modify UD QP to INIT on mlx5_0: Operation not permitted
n1420:rank7.orca_util_mpi: Failed to modify UD QP to INIT on mlx5_0: Operation not permitted
n1420:rank26.orca_util_mpi: Failed to modify UD QP to INIT on mlx5_0: Operation not permitted
n1420:rank20.orca_util_mpi: Failed to modify UD QP to INIT on mlx5_0: Operation not permitted
n1420:rank4.orca_util_mpi: Failed to modify UD QP to INIT on mlx5_0: Operation not permitted
n1420:rank19.orca_util_mpi: Failed to modify UD QP to INIT on mlx5_0: Operation not permitted
n1420:rank3.orca_util_mpi: Failed to modify UD QP to INIT on mlx5_0: Operation not permitted
n1420:rank22.orca_util_mpi: Failed to modify UD QP to INIT on mlx5_0: Operation not permitted
n1420:rank28.orca_util_mpi: Failed to modify UD QP to INIT on mlx5_0: Operation not permitted
n1420:rank12.orca_util_mpi: Failed to modify UD QP to INIT on mlx5_0: Operation not permitted
n1420:rank27.orca_util_mpi: Failed to modify UD QP to INIT on mlx5_0: Operation not permitted
n1420:rank24.orca_util_mpi: Failed to modify UD QP to INIT on mlx5_0: Operation not permitted
n1420:rank6.orca_util_mpi: Failed to modify UD QP to INIT on mlx5_0: Operation not permitted
n1420:rank11.orca_util_mpi: Failed to modify UD QP to INIT on mlx5_0: Operation not permitted
n1420:rank2.orca_util_mpi: Failed to modify UD QP to INIT on mlx5_0: Operation not permitted
n1420:rank9.orca_util_mpi: Failed to modify UD QP to INIT on mlx5_0: Operation not permitted
n1420:rank21.orca_util_mpi: Failed to modify UD QP to INIT on mlx5_0: Operation not permitted
n1420:rank17.orca_util_mpi: Failed to modify UD QP to INIT on mlx5_0: Operation not permitted
n1420:rank25.orca_util_mpi: Failed to modify UD QP to INIT on mlx5_0: Operation not permitted
n1420:rank18.orca_util_mpi: Failed to modify UD QP to INIT on mlx5_0: Operation not permitted
n1420:rank20.orca_util_mpi: Failed to modify UD QP to INIT on mlx5_0: Operation not permitted
n1420:rank8.orca_util_mpi: Failed to modify UD QP to INIT on mlx5_0: Operation not permitted
n1420:rank7.orca_util_mpi: Failed to modify UD QP to INIT on mlx5_0: Operation not permitted
n1420:rank15.orca_util_mpi: Failed to modify UD QP to INIT on mlx5_0: Operation not permitted
n1420:rank29.orca_util_mpi: Failed to modify UD QP to INIT on mlx5_0: Operation not permitted
n1420:rank14.orca_util_mpi: Failed to modify UD QP to INIT on mlx5_0: Operation not permitted
n1420:rank30.orca_util_mpi: Failed to modify UD QP to INIT on mlx5_0: Operation not permitted
n1420:rank10.orca_util_mpi: Failed to modify UD QP to INIT on mlx5_0: Operation not permitted
n1420:rank23.orca_util_mpi: Failed to modify UD QP to INIT on mlx5_0: Operation not permitted
n1420:rank31.orca_util_mpi: Failed to modify UD QP to INIT on mlx5_0: Operation not permitted

         *************************************************************
         *                GEOMETRY OPTIMIZATION CYCLE   2            *
         *************************************************************
---------------------------------
CARTESIAN COORDINATES (ANGSTROEM)
---------------------------------
  C     -8.275952   -1.181967    0.129766
  C     -6.897310   -1.179184    0.103306
  C     -6.193815    0.008239    0.257251
  C     -6.895996    1.192834    0.453938
  C     -8.271709    1.186648    0.503786
  C     -8.981501    0.000632    0.335626
  C     -4.721313    0.012261    0.214373
  N     -4.095038    1.177290    0.203949
  C     -2.764424    1.151667    0.162729
  N     -2.059883    0.012326    0.144623
  C     -2.773337   -1.096907    0.166129
  N     -4.092141   -1.164909    0.198985
  C     -2.040042   -2.389397    0.139557
  C     -2.737602   -3.581678    0.280033
  C     -2.071715   -4.790722    0.234427
  C     -0.704179   -4.793570    0.045710
  C      0.012034   -3.619532   -0.087987
  C     -0.662851   -2.414866   -0.040497
  C     -2.050141    2.421561    0.123907
  C     -2.745950    3.627530    0.098287
  C     -2.088054    4.831336    0.041950
  C     -0.689130    4.882812    0.015733
  C      0.012225    3.669745    0.033818
  C     -0.659433    2.471839    0.084060
  C    -10.462298    0.015033    0.392964
  S    -11.299399    1.016547    1.353241
  S    -11.198713   -1.157507   -0.670564
  N     -0.021788    6.100446   -0.038532
  C     -0.730291    7.299468   -0.334833
  C     -0.578095    7.867491   -1.592916
  S      0.529304    7.117878   -2.742629
  C      1.760197    6.596912   -1.594787
  C      1.366981    6.155473   -0.337117
  C      3.106674    6.639542   -1.923644
  C      4.053542    6.239305   -0.999616
  C      3.663534    5.834076    0.267254
  C      2.322572    5.808279    0.602595
  C     -1.544460    7.908758    0.604403
  C     -2.259046    9.042764    0.266101
  C     -2.133759    9.589286   -1.001447
  C     -1.279625    9.016226   -1.924664
  N     -0.006827   -6.058342   -0.022693
  C      0.465191   -6.590778    1.161506
  C      1.150062   -7.818804    1.211281
  S      1.475909   -8.778484   -0.171939
  C      0.775506   -7.877608   -1.451465
  C      0.121124   -6.645862   -1.266572
  C      0.254289   -5.904391    2.370417
  C      0.702855   -6.420450    3.554577
  C      1.382257   -7.641327    3.593987
  C      1.601386   -8.328923    2.432471
  C      0.880100   -8.439812   -2.727583
  C      0.346583   -7.800244   -3.812059
  C     -0.305106   -6.575830   -3.638529
  C     -0.415768   -6.008709   -2.399318
  H     -8.808417   -2.115659    0.017756
  H     -6.353304   -2.100493   -0.038953
  H     -6.348647    2.115517    0.572849
  H     -8.818334    2.102593    0.672977
  H     -3.808135   -3.544642    0.416684
  H     -2.609251   -5.723744    0.339253
  H      1.083242   -3.649164   -0.236992
  H     -0.135250   -1.478924   -0.146691
  H     -3.825553    3.609251    0.108729
  H     -2.662417    5.742453    0.002713
  H      1.089051    3.668096   -0.013877
  H     -0.100848    1.547670    0.089479
  H    -12.459487   -0.899975   -0.299123
  H      3.407005    6.998463   -2.898819
  H      5.102602    6.270296   -1.261063
  H      4.406767    5.550465    0.999822
  H      2.001489    5.504370    1.589469
  H     -1.629334    7.471238    1.589755
  H     -2.910639    9.504874    0.994529
  H     -2.688860   10.478654   -1.265702
  H     -1.148797    9.460716   -2.901966
  H     -0.272495   -4.964932    2.363118
  H      0.521673   -5.874984    4.469874
  H      1.728241   -8.042840    4.535520
  H      2.121323   -9.277758    2.444537
  H      1.384107   -9.390333   -2.842404
  H      0.424985   -8.241899   -4.795085
  H     -0.731862   -6.067198   -4.491404
  H     -0.923123   -5.065230   -2.287473

----------------------------
CARTESIAN COORDINATES (A.U.)
----------------------------
  NO LB      ZA    FRAG     MASS         X           Y           Z
   0 C     6.0000    0    12.011  -15.639282   -2.233593    0.245222
   1 C     6.0000    0    12.011  -13.034026   -2.228335    0.195220
   2 C     6.0000    0    12.011  -11.704613    0.015569    0.486134
   3 C     6.0000    0    12.011  -13.031543    2.254129    0.857819
   4 C     6.0000    0    12.011  -15.631264    2.242439    0.952018
   5 C     6.0000    0    12.011  -16.972577    0.001195    0.634241
   6 C     6.0000    0    12.011   -8.921988    0.023170    0.405107
   7 N     7.0000    0    14.007   -7.738500    2.224756    0.385408
   8 C     6.0000    0    12.011   -5.224004    2.176336    0.307514
   9 N     7.0000    0    14.007   -3.892616    0.023293    0.273298
  10 C     6.0000    0    12.011   -5.240847   -2.072853    0.313939
  11 N     7.0000    0    14.007   -7.733026   -2.201358    0.376027
  12 C     6.0000    0    12.011   -3.855120   -4.515305    0.263725
  13 C     6.0000    0    12.011   -5.173317   -6.768391    0.529185
  14 C     6.0000    0    12.011   -3.914975   -9.053152    0.443003
  15 C     6.0000    0    12.011   -1.330705   -9.058535    0.086380
  16 C     6.0000    0    12.011    0.022741   -6.839924   -0.166271
  17 C     6.0000    0    12.011   -1.252606   -4.563435   -0.076527
  18 C     6.0000    0    12.011   -3.874205    4.576087    0.234151
  19 C     6.0000    0    12.011   -5.189093    6.855038    0.185736
  20 C     6.0000    0    12.011   -3.945850    9.129901    0.079273
  21 C     6.0000    0    12.011   -1.302267    9.227178    0.029731
  22 C     6.0000    0    12.011    0.023101    6.934812    0.063907
  23 C     6.0000    0    12.011   -1.246148    4.671099    0.158851
  24 C     6.0000    0    12.011  -19.770878    0.028409    0.742594
  25 S    16.0000    0    32.060  -21.352770    1.920995    2.557255
  26 S    16.0000    0    32.060  -21.162501   -2.187371   -1.267183
  27 N     7.0000    0    14.007   -0.041173   11.528173   -0.072815
  28 C     6.0000    0    12.011   -1.380050   13.793996   -0.632743
  29 C     6.0000    0    12.011   -1.092441   14.867404   -3.010175
  30 S    16.0000    0    32.060    1.000241   13.450840   -5.182817
  31 C     6.0000    0    12.011    3.326291   12.466357   -3.013711
  32 C     6.0000    0    12.011    2.583221   11.632159   -0.637058
  33 C     6.0000    0    12.011    5.870763   12.546917   -3.635160
  34 C     6.0000    0    12.011    7.660083   11.790578   -1.889000
  35 C     6.0000    0    12.011    6.923075   11.024806    0.505037
  36 C     6.0000    0    12.011    4.389024   10.976056    1.138740
  37 C     6.0000    0    12.011   -2.918606   14.945387    1.142157
  38 C     6.0000    0    12.011   -4.268979   17.088347    0.502859
  39 C     6.0000    0    12.011   -4.032221   18.121125   -1.892460
  40 C     6.0000    0    12.011   -2.418142   17.038198   -3.637087
  41 N     7.0000    0    14.007   -0.012902  -11.448607   -0.042883
  42 C     6.0000    0    12.011    0.879084  -12.454765    2.194928
  43 C     6.0000    0    12.011    2.173302  -14.775398    2.288990
  44 S    16.0000    0    32.060    2.789063  -16.588931   -0.324918
  45 C     6.0000    0    12.011    1.465494  -14.886522   -2.742872
  46 C     6.0000    0    12.011    0.228891  -12.558860   -2.393474
  47 C     6.0000    0    12.011    0.480536  -11.157683    4.479440
  48 C     6.0000    0    12.011    1.328203  -12.132893    6.717177
  49 C     6.0000    0    12.011    2.612086  -14.440016    6.791650
  50 C     6.0000    0    12.011    3.026180  -15.739383    4.596703
  51 C     6.0000    0    12.011    1.663148  -15.948933   -5.154384
  52 C     6.0000    0    12.011    0.654947  -14.740325   -7.203747
  53 C     6.0000    0    12.011   -0.576567  -12.426518   -6.875824
  54 C     6.0000    0    12.011   -0.785688  -11.354814   -4.534054
  55 H     1.0000    0     1.008  -16.645495   -3.998016    0.033553
  56 H     1.0000    0     1.008  -12.006004   -3.969357   -0.073611
  57 H     1.0000    0     1.008  -11.997205    3.997748    1.082527
  58 H     1.0000    0     1.008  -16.664235    3.973325    1.271743
  59 H     1.0000    0     1.008   -7.196331   -6.698403    0.787420
  60 H     1.0000    0     1.008   -4.930770  -10.816309    0.641095
  61 H     1.0000    0     1.008    2.047030   -6.895920   -0.447850
  62 H     1.0000    0     1.008   -0.255585   -2.794761   -0.277205
  63 H     1.0000    0     1.008   -7.229247    6.820495    0.205468
  64 H     1.0000    0     1.008   -5.031238   10.851664    0.005127
  65 H     1.0000    0     1.008    2.058008    6.931697   -0.026224
  66 H     1.0000    0     1.008   -0.190575    2.924673    0.169092
  67 H     1.0000    0     1.008  -23.545019   -1.700707   -0.565261
  68 H     1.0000    0     1.008    6.438306   13.225178   -5.477975
  69 H     1.0000    0     1.008    9.642520   11.849143   -2.383063
  70 H     1.0000    0     1.008    8.327582   10.488858    1.889389
  71 H     1.0000    0     1.008    3.782266   10.401752    3.003661
  72 H     1.0000    0     1.008   -3.078996   14.118594    3.004202
  73 H     1.0000    0     1.008   -5.500310   17.961609    1.879387
  74 H     1.0000    0     1.008   -5.081209   19.801786   -2.391829
  75 H     1.0000    0     1.008   -2.170911   17.878162   -5.483921
  76 H     1.0000    0     1.008   -0.514941   -9.382361    4.465645
  77 H     1.0000    0     1.008    0.985819  -11.102110    8.446838
  78 H     1.0000    0     1.008    3.265902  -15.198765    8.570890
  79 H     1.0000    0     1.008    4.008720  -17.532422    4.619506
  80 H     1.0000    0     1.008    2.615582  -17.745158   -5.371364
  81 H     1.0000    0     1.008    0.803105  -15.574932   -9.061397
  82 H     1.0000    0     1.008   -1.383019  -11.465343   -8.487523
  83 H     1.0000    0     1.008   -1.744449   -9.571897   -4.322697

--------------------------------
INTERNAL COORDINATES (ANGSTROEM)
--------------------------------
 C      0   0   0     0.000000000000     0.00000000     0.00000000
 C      1   0   0     1.378898727353     0.00000000     0.00000000
 C      2   1   0     1.388731950555   120.40291635     0.00000000
 C      3   2   1     1.391046126865   119.21597622     0.73640374
 C      4   3   2     1.376629809216   120.38072338     0.40657145
 C      5   4   3     1.392377520911   120.58957858   358.89609704
 C      3   2   1     1.473131622163   120.36224657   180.65887364
 N      7   3   2     1.322732699685   118.41810897   172.01794134
 C      8   7   3     1.331499083187   117.15827965   180.11008291
 N      9   8   7     1.339702612720   122.84223521   359.37397035
 C     10   9   8     1.319043512406   115.49932104     0.20706636
 N     11  10   9     1.320964906229   125.71109293     0.22003090
 C     11  10   9     1.486256492363   117.65496465   179.65733431
 C     13  11  10     1.388473641117   119.80616393   174.30376727
 C     14  13  11     1.381039781023   120.40969826   178.89505324
 C     15  14  13     1.380499556125   118.94409011   359.92719472
 C     16  15  14     1.381738211873   121.66479034     0.49153689
 C     17  16  15     1.381645616000   118.96833139   359.53260657
 C      9   8   7     1.457510641606   118.28142711   178.81826772
 C     19   9   8     1.392539579226   120.67449741   358.48590609
 C     20  19   9     1.373007633244   121.37443633   180.96221626
 C     21  20  19     1.400115873373   120.78112760   359.64912412
 C     22  21  20     1.401341757124   117.90413020     0.69299849
 C     23  22  21     1.374272973343   120.69177867   359.60834036
 C      6   5   4     1.481976490810   119.76304255   179.98987525
 S     25   6   5     1.620462656887   123.03177442   326.27091626
 S     25   6   5     1.745923950356   113.03920492   146.52787870
 N     22  21  20     1.389576345879   120.84969785   180.13207285
 C     28  22  21     1.423876386635   120.46729025   347.45856189
 C     29  28  22     1.388735863954   118.58192103   254.37629275
 S     30  29  28     1.763545253615   119.04900837   357.65328520
 C     31  30  29     1.761829511606    98.02802633   324.23572587
 C     32  31  30     1.389683775071   119.06887248    35.96268827
 C     32  31  30     1.386709540499   120.98277690   216.84409006
 C     34  32  31     1.382235882772   119.84893733   179.27082145
 C     35  34  32     1.386101301999   120.19237578   358.05683386
 C     36  35  34     1.382497107202   120.00459380     1.07067659
 C     29  28  22     1.384293956386   121.47337344    75.18239014
 C     38  29  28     1.382407822329   119.93633461   182.55481002
 C     39  38  29     1.386023908099   120.03522936   358.32416797
 C     40  39  38     1.382126005864   120.21482605   358.99500217
 N     16  15  14     1.445899642139   119.08055628   180.92413275
 C     42  16  15     1.381526496967   117.47426122   270.15954206
 C     43  42  16     1.406973350227   122.20945347   179.61194552
 S     44  43  42     1.714777831362   123.53407164     0.16667898
 C     45  44  43     1.714447074143   103.31535756   359.55310089
 C     42  16  15     1.381588456298   117.33796175    89.44558598
 C     43  42  16     1.406084279534   119.84053061     0.19693400
 C     48  43  42     1.367392477658   120.73881569   179.40067805
 C     49  48  43     1.397741049394   120.89850520     0.03662844
 C     50  49  48     1.367451743474   119.54755244     0.00000000
 C     46  45  44     1.398387764446   116.05619448   180.59210846
 C     52  46  45     1.367397429921   120.43249914   179.66047733
 C     53  52  46     1.397855681458   119.54698743     0.08128717
 C     54  53  52     1.367303118394   120.90072739     0.03176614
 H      1   2   3     1.080669780883   119.49716581   180.56945754
 H      2   1   3     1.079347523140   120.31318383   180.09659102
 H      4   3   2     1.079386349001   119.18020323   180.04151063
 H      5   4   3     1.079990758228   120.50828482   178.96614793
 H     14  13  11     1.079854726998   118.77744790   359.40769455
 H     15  14  13     1.081879631569   120.81309336   180.24183363
 H     17  16  15     1.081927416519   120.21597309   180.12097912
 H     18  17  16     1.079642345023   120.91539252   180.32435096
 H     20  19   9     1.079808066100   118.99518321     0.06857709
 H     21  20  19     1.077760673260   119.16568872   178.72324987
 H     23  22  21     1.077883178790   120.04962171   178.24698541
 H     24  23  22     1.079876944288   119.56132086   179.52560426
 H     27  25   6     1.339344407627    95.68029970   176.98404399
 H     34  32  31     1.081660627798   119.57781916     0.04488665
 H     35  34  32     1.081592377268   119.63890700   179.76217008
 H     36  35  34     1.081427793734   120.16097205   181.90883774
 H     37  36  35     1.081376044567   120.97128718   180.62022619
 H     38  29  28     1.081455545652   119.09714429     1.04404128
 H     39  38  29     1.081075942350   119.82231314   178.69216808
 H     40  39  38     1.081176226571   120.09718109   180.26740680
 H     41  40  39     1.081576094844   120.52588831   182.39623823
 H     48  43  42     1.077097302859   119.55813255   359.81834276
 H     49  48  43     1.080800455882   119.20424635   180.38474015
 H     50  49  48     1.080463970337   120.31862050   180.31026115
 H     51  50  49     1.082021249340   120.56173649   180.29462440
 H     52  46  45     1.081988041503   119.00399641     0.00000000
 H     53  52  46     1.080530495637   120.13503893   180.36832150
 H     54  53  52     1.080842892387   119.88875017   180.21367543
 H     55  54  53     1.077065687278   119.70727277   180.08392950

---------------------------
INTERNAL COORDINATES (A.U.)
---------------------------
 C      0   0   0     0.000000000000     0.00000000     0.00000000
 C      1   0   0     2.605740961110     0.00000000     0.00000000
 C      2   1   0     2.624323059975   120.40291635     0.00000000
 C      3   2   1     2.628696219428   119.21597622     0.73640374
 C      4   3   2     2.601453327210   120.38072338     0.40657145
 C      5   4   3     2.631212189550   120.58957858   358.89609704
 C      3   2   1     2.783815325107   120.36224657   180.65887364
 N      7   3   2     2.499602550786   118.41810897   172.01794134
 C      8   7   3     2.516168614790   117.15827965   180.11008291
 N      9   8   7     2.531671038939   122.84223521   359.37397035
 C     10   9   8     2.492630997172   115.49932104     0.20706636
 N     11  10   9     2.496261905293   125.71109293     0.22003090
 C     11  10   9     2.808617735328   117.65496465   179.65733431
 C     13  11  10     2.623834925880   119.80616393   174.30376727
 C     14  13  11     2.609786966183   120.40969826   178.89505324
 C     15  14  13     2.608766089076   118.94409011   359.92719472
 C     16  15  14     2.611106809214   121.66479034     0.49153689
 C     17  16  15     2.610931828373   118.96833139   359.53260657
 C      9   8   7     2.754295949911   118.28142711   178.81826772
 C     19   9   8     2.631518435384   120.67449741   358.48590609
 C     20  19   9     2.594608406615   121.37443633   180.96221626
 C     21  20  19     2.645835556431   120.78112760   359.64912412
 C     22  21  20     2.648152140993   117.90413020     0.69299849
 C     23  22  21     2.596999552868   120.69177867   359.60834036
 C      6   5   4     2.800529704540   119.76304255   179.98987525
 S     25   6   5     3.062230631763   123.03177442   326.27091626
 S     25   6   5     3.299318116826   113.03920492   146.52787870
 N     22  21  20     2.625918735887   120.84969785   180.13207285
 C     28  22  21     2.690736419297   120.46729025   347.45856189
 C     29  28  22     2.624330455227   118.58192103   254.37629275
 S     30  29  28     3.332617554109   119.04900837   357.65328520
 C     31  30  29     3.329375271596    98.02802633   324.23572587
 C     32  31  30     2.626121747638   119.06887248    35.96268827
 C     32  31  30     2.620501258839   120.98277690   216.84409006
 C     34  32  31     2.612047270918   119.84893733   179.27082145
 C     35  34  32     2.619351854650   120.19237578   358.05683386
 C     36  35  34     2.612540913549   120.00459380     1.07067659
 C     29  28  22     2.615936466412   121.47337344    75.18239014
 C     38  29  28     2.612372189592   119.93633461   182.55481002
 C     39  38  29     2.619205601374   120.03522936   358.32416797
 C     40  39  38     2.611839633654   120.21482605   358.99500217
 N     16  15  14     2.732354340777   119.08055628   180.92413275
 C     42  16  15     2.610706726023   117.47426122   270.15954206
 C     43  42  16     2.658794309654   122.20945347   179.61194552
 S     44  43  42     3.240460481793   123.53407164     0.16667898
 C     45  44  43     3.239835441234   103.31535756   359.55310089
 C     42  16  15     2.610823812190   117.33796175    89.44558598
 C     43  42  16     2.657114209531   119.84053061     0.19693400
 C     48  43  42     2.583997300357   120.73881569   179.40067805
 C     49  48  43     2.641347789494   120.89850520     0.03662844
 C     50  49  48     2.584109296519   119.54755244     0.00000000
 C     46  45  44     2.642569903830   116.05619448   180.59210846
 C     52  46  45     2.584006658778   120.43249914   179.66047733
 C     53  52  46     2.641564412702   119.54698743     0.08128717
 C     54  53  52     2.583828435822   120.90072739     0.03176614
 H      1   2   3     2.042169927073   119.49716581   180.56945754
 H      2   1   3     2.039671222060   120.31318383   180.09659102
 H      4   3   2     2.039744592305   119.18020323   180.04151063
 H      5   4   3     2.040886760217   120.50828482   178.96614793
 H     14  13  11     2.040629698446   118.77744790   359.40769455
 H     15  14  13     2.044456213533   120.81309336   180.24183363
 H     17  16  15     2.044546514003   120.21597309   180.12097912
 H     18  17  16     2.040228354678   120.91539252   180.32435096
 H     20  19   9     2.040541522128   118.99518321     0.06857709
 H     21  20  19     2.036672510371   119.16568872   178.72324987
 H     23  22  21     2.036904012273   120.04962171   178.24698541
 H     24  23  22     2.040671683039   119.56132086   179.52560426
 H     27  25   6     2.530994129414    95.68029970   176.98404399
 H     34  32  31     2.044042356384   119.57781916     0.04488665
 H     35  34  32     2.043913381573   119.63890700   179.76217008
 H     36  35  34     2.043602363768   120.16097205   181.90883774
 H     37  36  35     2.043504572014   120.97128718   180.62022619
 H     38  29  28     2.043654807292   119.09714429     1.04404128
 H     39  38  29     2.042937461011   119.82231314   178.69216808
 H     40  39  38     2.043126970725   120.09718109   180.26740680
 H     41  40  39     2.043882612250   120.52588831   182.39623823
 H     48  43  42     2.035418921989   119.55813255   359.81834276
 H     49  48  43     2.042416867034   119.20424635   180.38474015
 H     50  49  48     2.041781001507   120.31862050   180.31026115
 H     51  50  49     2.044723832335   120.56173649   180.29462440
 H     52  46  45     2.044661078619   119.00399641     0.00000000
 H     53  52  46     2.041906716104   120.13503893   180.36832150
 H     54  53  52     2.042497060406   119.88875017   180.21367543
 H     55  54  53     2.035359177198   119.70727277   180.08392950

n1628:rank34.orca_gtoint_mpi: Failed to modify UD QP to INIT on mlx5_0: Operation not permitted
n1628:rank34.orca_gtoint_mpi: Failed to modify UD QP to INIT on mlx5_0: Operation not permitted
n1628:rank32.orca_gtoint_mpi: Failed to modify UD QP to INIT on mlx5_0: Operation not permitted
n1628:rank33.orca_gtoint_mpi: Failed to modify UD QP to INIT on mlx5_0: Operation not permitted
n1628:rank35.orca_gtoint_mpi: Failed to modify UD QP to INIT on mlx5_0: Operation not permitted
n1628:rank32.orca_gtoint_mpi: Failed to modify UD QP to INIT on mlx5_0: Operation not permitted
n1628:rank33.orca_gtoint_mpi: Failed to modify UD QP to INIT on mlx5_0: Operation not permitted
n1628:rank35.orca_gtoint_mpi: Failed to modify UD QP to INIT on mlx5_0: Operation not permitted
n1628:rank34.orca_gtoint_mpi: Failed to modify UD QP to INIT on mlx5_0: Operation not permitted
n1628:rank32.orca_gtoint_mpi: Failed to modify UD QP to INIT on mlx5_0: Operation not permitted
n1628:rank33.orca_gtoint_mpi: Failed to modify UD QP to INIT on mlx5_0: Operation not permitted
n1628:rank35.orca_gtoint_mpi: Failed to modify UD QP to INIT on mlx5_0: Operation not permitted
n1628:rank34.orca_gtoint_mpi: Failed to modify UD QP to INIT on mlx5_0: Operation not permitted
n1628:rank33.orca_gtoint_mpi: Failed to modify UD QP to INIT on mlx5_0: Operation not permitted
n1628:rank32.orca_gtoint_mpi: Failed to modify UD QP to INIT on mlx5_0: Operation not permitted
n1628:rank35.orca_gtoint_mpi: Failed to modify UD QP to INIT on mlx5_0: Operation not permitted
n1420:rank6.orca_gtoint_mpi: Failed to modify UD QP to INIT on mlx5_0: Operation not permitted
n1420:rank6.orca_gtoint_mpi: Failed to modify UD QP to INIT on mlx5_0: Operation not permitted
n1420:rank10.orca_gtoint_mpi: Failed to modify UD QP to INIT on mlx5_0: Operation not permitted
n1420:rank21.orca_gtoint_mpi: Failed to modify UD QP to INIT on mlx5_0: Operation not permitted
n1420:rank6.orca_gtoint_mpi: Failed to modify UD QP to INIT on mlx5_0: Operation not permitted
n1420:rank10.orca_gtoint_mpi: Failed to modify UD QP to INIT on mlx5_0: Operation not permitted
n1420:rank10.orca_gtoint_mpi: Failed to modify UD QP to INIT on mlx5_0: Operation not permitted
n1420:rank21.orca_gtoint_mpi: Failed to modify UD QP to INIT on mlx5_0: Operation not permitted
n1420:rank21.orca_gtoint_mpi: Failed to modify UD QP to INIT on mlx5_0: Operation not permitted
n1420:rank1.orca_gtoint_mpi: Failed to modify UD QP to INIT on mlx5_0: Operation not permitted
n1420:rank0.orca_gtoint_mpi: Failed to modify UD QP to INIT on mlx5_0: Operation not permitted
n1420:rank1.orca_gtoint_mpi: Failed to modify UD QP to INIT on mlx5_0: Operation not permitted
n1420:rank1.orca_gtoint_mpi: Failed to modify UD QP to INIT on mlx5_0: Operation not permitted
n1420:rank0.orca_gtoint_mpi: Failed to modify UD QP to INIT on mlx5_0: Operation not permitted
n1420:rank0.orca_gtoint_mpi: Failed to modify UD QP to INIT on mlx5_0: Operation not permitted
n1420:rank27.orca_gtoint_mpi: Failed to modify UD QP to INIT on mlx5_0: Operation not permitted
n1420:rank15.orca_gtoint_mpi: Failed to modify UD QP to INIT on mlx5_0: Operation not permitted
n1420:rank27.orca_gtoint_mpi: Failed to modify UD QP to INIT on mlx5_0: Operation not permitted
n1420:rank23.orca_gtoint_mpi: Failed to modify UD QP to INIT on mlx5_0: Operation not permitted
n1420:rank27.orca_gtoint_mpi: Failed to modify UD QP to INIT on mlx5_0: Operation not permitted
n1420:rank23.orca_gtoint_mpi: Failed to modify UD QP to INIT on mlx5_0: Operation not permitted
n1420:rank15.orca_gtoint_mpi: Failed to modify UD QP to INIT on mlx5_0: Operation not permitted
n1420:rank23.orca_gtoint_mpi: Failed to modify UD QP to INIT on mlx5_0: Operation not permitted
n1420:rank15.orca_gtoint_mpi: Failed to modify UD QP to INIT on mlx5_0: Operation not permitted
n1420:rank7.orca_gtoint_mpi: Failed to modify UD QP to INIT on mlx5_0: Operation not permitted
n1420:rank7.orca_gtoint_mpi: Failed to modify UD QP to INIT on mlx5_0: Operation not permitted
n1420:rank7.orca_gtoint_mpi: Failed to modify UD QP to INIT on mlx5_0: Operation not permitted
n1420:rank10.orca_gtoint_mpi: Failed to modify UD QP to INIT on mlx5_0: Operation not permitted
n1420:rank21.orca_gtoint_mpi: Failed to modify UD QP to INIT on mlx5_0: Operation not permitted
n1420:rank6.orca_gtoint_mpi: Failed to modify UD QP to INIT on mlx5_0: Operation not permitted
n1420:rank4.orca_gtoint_mpi: Failed to modify UD QP to INIT on mlx5_0: Operation not permitted
n1420:rank4.orca_gtoint_mpi: Failed to modify UD QP to INIT on mlx5_0: Operation not permitted
n1420:rank4.orca_gtoint_mpi: Failed to modify UD QP to INIT on mlx5_0: Operation not permitted
n1420:rank1.orca_gtoint_mpi: Failed to modify UD QP to INIT on mlx5_0: Operation not permitted
n1420:rank0.orca_gtoint_mpi: Failed to modify UD QP to INIT on mlx5_0: Operation not permitted
n1420:rank9.orca_gtoint_mpi: Failed to modify UD QP to INIT on mlx5_0: Operation not permitted
n1420:rank8.orca_gtoint_mpi: Failed to modify UD QP to INIT on mlx5_0: Operation not permitted
n1420:rank9.orca_gtoint_mpi: Failed to modify UD QP to INIT on mlx5_0: Operation not permitted
n1420:rank8.orca_gtoint_mpi: Failed to modify UD QP to INIT on mlx5_0: Operation not permitted
n1420:rank8.orca_gtoint_mpi: Failed to modify UD QP to INIT on mlx5_0: Operation not permitted
n1420:rank9.orca_gtoint_mpi: Failed to modify UD QP to INIT on mlx5_0: Operation not permitted
n1420:rank27.orca_gtoint_mpi: Failed to modify UD QP to INIT on mlx5_0: Operation not permitted
n1420:rank18.orca_gtoint_mpi: Failed to modify UD QP to INIT on mlx5_0: Operation not permitted
n1420:rank29.orca_gtoint_mpi: Failed to modify UD QP to INIT on mlx5_0: Operation not permitted
n1420:rank16.orca_gtoint_mpi: Failed to modify UD QP to INIT on mlx5_0: Operation not permitted
n1420:rank5.orca_gtoint_mpi: Failed to modify UD QP to INIT on mlx5_0: Operation not permitted
n1420:rank18.orca_gtoint_mpi: Failed to modify UD QP to INIT on mlx5_0: Operation not permitted
n1420:rank29.orca_gtoint_mpi: Failed to modify UD QP to INIT on mlx5_0: Operation not permitted
n1420:rank16.orca_gtoint_mpi: Failed to modify UD QP to INIT on mlx5_0: Operation not permitted
n1420:rank5.orca_gtoint_mpi: Failed to modify UD QP to INIT on mlx5_0: Operation not permitted
n1420:rank18.orca_gtoint_mpi: Failed to modify UD QP to INIT on mlx5_0: Operation not permitted
n1420:rank29.orca_gtoint_mpi: Failed to modify UD QP to INIT on mlx5_0: Operation not permitted
n1420:rank14.orca_gtoint_mpi: Failed to modify UD QP to INIT on mlx5_0: Operation not permitted
n1420:rank16.orca_gtoint_mpi: Failed to modify UD QP to INIT on mlx5_0: Operation not permitted
n1420:rank5.orca_gtoint_mpi: Failed to modify UD QP to INIT on mlx5_0: Operation not permitted
n1420:rank13.orca_gtoint_mpi: Failed to modify UD QP to INIT on mlx5_0: Operation not permitted
n1420:rank11.orca_gtoint_mpi: Failed to modify UD QP to INIT on mlx5_0: Operation not permitted
n1420:rank28.orca_gtoint_mpi: Failed to modify UD QP to INIT on mlx5_0: Operation not permitted
n1420:rank23.orca_gtoint_mpi: Failed to modify UD QP to INIT on mlx5_0: Operation not permitted
n1420:rank14.orca_gtoint_mpi: Failed to modify UD QP to INIT on mlx5_0: Operation not permitted
n1420:rank26.orca_gtoint_mpi: Failed to modify UD QP to INIT on mlx5_0: Operation not permitted
n1420:rank15.orca_gtoint_mpi: Failed to modify UD QP to INIT on mlx5_0: Operation not permitted
n1420:rank17.orca_gtoint_mpi: Failed to modify UD QP to INIT on mlx5_0: Operation not permitted
n1420:rank11.orca_gtoint_mpi: Failed to modify UD QP to INIT on mlx5_0: Operation not permitted
n1420:rank14.orca_gtoint_mpi: Failed to modify UD QP to INIT on mlx5_0: Operation not permitted
n1420:rank20.orca_gtoint_mpi: Failed to modify UD QP to INIT on mlx5_0: Operation not permitted
n1420:rank13.orca_gtoint_mpi: Failed to modify UD QP to INIT on mlx5_0: Operation not permitted
n1420:rank12.orca_gtoint_mpi: Failed to modify UD QP to INIT on mlx5_0: Operation not permitted
n1420:rank31.orca_gtoint_mpi: Failed to modify UD QP to INIT on mlx5_0: Operation not permitted
n1420:rank24.orca_gtoint_mpi: Failed to modify UD QP to INIT on mlx5_0: Operation not permitted
n1420:rank28.orca_gtoint_mpi: Failed to modify UD QP to INIT on mlx5_0: Operation not permitted
n1420:rank22.orca_gtoint_mpi: Failed to modify UD QP to INIT on mlx5_0: Operation not permitted
n1420:rank3.orca_gtoint_mpi: Failed to modify UD QP to INIT on mlx5_0: Operation not permitted
n1420:rank2.orca_gtoint_mpi: Failed to modify UD QP to INIT on mlx5_0: Operation not permitted
n1420:rank26.orca_gtoint_mpi: Failed to modify UD QP to INIT on mlx5_0: Operation not permitted
n1420:rank25.orca_gtoint_mpi: Failed to modify UD QP to INIT on mlx5_0: Operation not permitted
n1420:rank19.orca_gtoint_mpi: Failed to modify UD QP to INIT on mlx5_0: Operation not permitted
n1420:rank17.orca_gtoint_mpi: Failed to modify UD QP to INIT on mlx5_0: Operation not permitted
n1420:rank11.orca_gtoint_mpi: Failed to modify UD QP to INIT on mlx5_0: Operation not permitted
n1420:rank30.orca_gtoint_mpi: Failed to modify UD QP to INIT on mlx5_0: Operation not permitted
n1420:rank28.orca_gtoint_mpi: Failed to modify UD QP to INIT on mlx5_0: Operation not permitted
n1420:rank26.orca_gtoint_mpi: Failed to modify UD QP to INIT on mlx5_0: Operation not permitted
n1420:rank20.orca_gtoint_mpi: Failed to modify UD QP to INIT on mlx5_0: Operation not permitted
n1420:rank12.orca_gtoint_mpi: Failed to modify UD QP to INIT on mlx5_0: Operation not permitted
n1420:rank31.orca_gtoint_mpi: Failed to modify UD QP to INIT on mlx5_0: Operation not permitted
n1420:rank24.orca_gtoint_mpi: Failed to modify UD QP to INIT on mlx5_0: Operation not permitted
n1420:rank22.orca_gtoint_mpi: Failed to modify UD QP to INIT on mlx5_0: Operation not permitted
n1420:rank2.orca_gtoint_mpi: Failed to modify UD QP to INIT on mlx5_0: Operation not permitted
n1420:rank17.orca_gtoint_mpi: Failed to modify UD QP to INIT on mlx5_0: Operation not permitted
n1420:rank3.orca_gtoint_mpi: Failed to modify UD QP to INIT on mlx5_0: Operation not permitted
n1420:rank13.orca_gtoint_mpi: Failed to modify UD QP to INIT on mlx5_0: Operation not permitted
n1420:rank25.orca_gtoint_mpi: Failed to modify UD QP to INIT on mlx5_0: Operation not permitted
n1420:rank30.orca_gtoint_mpi: Failed to modify UD QP to INIT on mlx5_0: Operation not permitted
n1420:rank19.orca_gtoint_mpi: Failed to modify UD QP to INIT on mlx5_0: Operation not permitted
n1420:rank20.orca_gtoint_mpi: Failed to modify UD QP to INIT on mlx5_0: Operation not permitted
n1420:rank12.orca_gtoint_mpi: Failed to modify UD QP to INIT on mlx5_0: Operation not permitted
n1420:rank31.orca_gtoint_mpi: Failed to modify UD QP to INIT on mlx5_0: Operation not permitted
n1420:rank22.orca_gtoint_mpi: Failed to modify UD QP to INIT on mlx5_0: Operation not permitted
n1420:rank24.orca_gtoint_mpi: Failed to modify UD QP to INIT on mlx5_0: Operation not permitted
n1420:rank2.orca_gtoint_mpi: Failed to modify UD QP to INIT on mlx5_0: Operation not permitted
n1420:rank7.orca_gtoint_mpi: Failed to modify UD QP to INIT on mlx5_0: Operation not permitted
n1420:rank3.orca_gtoint_mpi: Failed to modify UD QP to INIT on mlx5_0: Operation not permitted
n1420:rank25.orca_gtoint_mpi: Failed to modify UD QP to INIT on mlx5_0: Operation not permitted
n1420:rank30.orca_gtoint_mpi: Failed to modify UD QP to INIT on mlx5_0: Operation not permitted
n1420:rank19.orca_gtoint_mpi: Failed to modify UD QP to INIT on mlx5_0: Operation not permitted
n1420:rank4.orca_gtoint_mpi: Failed to modify UD QP to INIT on mlx5_0: Operation not permitted
n1420:rank9.orca_gtoint_mpi: Failed to modify UD QP to INIT on mlx5_0: Operation not permitted
n1420:rank8.orca_gtoint_mpi: Failed to modify UD QP to INIT on mlx5_0: Operation not permitted
n1420:rank29.orca_gtoint_mpi: Failed to modify UD QP to INIT on mlx5_0: Operation not permitted
n1420:rank18.orca_gtoint_mpi: Failed to modify UD QP to INIT on mlx5_0: Operation not permitted
n1420:rank16.orca_gtoint_mpi: Failed to modify UD QP to INIT on mlx5_0: Operation not permitted
n1420:rank5.orca_gtoint_mpi: Failed to modify UD QP to INIT on mlx5_0: Operation not permitted
n1420:rank17.orca_gtoint_mpi: Failed to modify UD QP to INIT on mlx5_0: Operation not permitted
n1420:rank12.orca_gtoint_mpi: Failed to modify UD QP to INIT on mlx5_0: Operation not permitted
n1420:rank13.orca_gtoint_mpi: Failed to modify UD QP to INIT on mlx5_0: Operation not permitted
n1420:rank3.orca_gtoint_mpi: Failed to modify UD QP to INIT on mlx5_0: Operation not permitted
n1420:rank28.orca_gtoint_mpi: Failed to modify UD QP to INIT on mlx5_0: Operation not permitted
n1420:rank20.orca_gtoint_mpi: Failed to modify UD QP to INIT on mlx5_0: Operation not permitted
n1420:rank2.orca_gtoint_mpi: Failed to modify UD QP to INIT on mlx5_0: Operation not permitted
n1420:rank26.orca_gtoint_mpi: Failed to modify UD QP to INIT on mlx5_0: Operation not permitted
n1420:rank11.orca_gtoint_mpi: Failed to modify UD QP to INIT on mlx5_0: Operation not permitted
n1420:rank24.orca_gtoint_mpi: Failed to modify UD QP to INIT on mlx5_0: Operation not permitted
n1420:rank25.orca_gtoint_mpi: Failed to modify UD QP to INIT on mlx5_0: Operation not permitted
n1420:rank31.orca_gtoint_mpi: Failed to modify UD QP to INIT on mlx5_0: Operation not permitted
n1420:rank14.orca_gtoint_mpi: Failed to modify UD QP to INIT on mlx5_0: Operation not permitted
n1420:rank19.orca_gtoint_mpi: Failed to modify UD QP to INIT on mlx5_0: Operation not permitted
n1420:rank22.orca_gtoint_mpi: Failed to modify UD QP to INIT on mlx5_0: Operation not permitted
n1420:rank30.orca_gtoint_mpi: Failed to modify UD QP to INIT on mlx5_0: Operation not permitted


           ************************************************************
           *        Program running with 36 parallel MPI-processes    *
           *              working on a shared directory               *
           ************************************************************
------------------------------------------------------------------------------
                   ___                                                        
                  /   \      - P O W E R E D   B Y -                         
                 /     \                                                     
                 |  |  |   _    _      __       _____    __    __             
                 |  |  |  | |  | |    /  \     |  _  \  |  |  /  |          
                  \  \/   | |  | |   /    \    | | | |  |  | /  /          
                 / \  \   | |__| |  /  /\  \   | |_| |  |  |/  /          
                |  |  |   |  __  | /  /__\  \  |    /   |      \           
                |  |  |   | |  | | |   __   |  |    \   |  |\   \          
                \     /   | |  | | |  |  |  |  | |\  \  |  | \   \       
                 \___/    |_|  |_| |__|  |__|  |_| \__\ |__|  \__/        
                                                                              
                      - O R C A' S   B I G   F R I E N D -                    
                                      &                                       
                       - I N T E G R A L  F E E D E R -                       
                                                                              
 v1 FN, 2020, v2 2021                                                         
------------------------------------------------------------------------------


Reading SHARK input file Combo62_Cf10tc_0.21702_-0.21702_ck-1.SHARKINP.tmp ... ok
----------------------
SHARK INTEGRAL PACKAGE
----------------------

Number of atoms                             ...     84
Number of basis functions                   ...   1903
Number of shells                            ...    729
Maximum angular momentum                    ...      3
Integral batch strategy                     ... SHARK/LIBINT Hybrid
RI-J (if used) integral strategy            ... SPLIT-RIJ (Revised 2003 algorithm where possible)
Printlevel                                  ...      1
Contraction scheme used                     ... SEGMENTED contraction
Coulomb Range Separation                    ... NOT USED
Exchange Range Separation                   ... Long Range
   Mu parameter                             ...  0.330000
   Scaling (regular/separated)              ...  0.190000  0.460000
Finite Nucleus Model                        ... NOT USED
Auxiliary Coulomb fitting basis             ... AVAILABLE
   # of basis functions in Aux-J            ...   3022
   # of shells in Aux-J                     ...    978
   Maximum angular momentum in Aux-J        ...      4
Auxiliary J/K fitting basis                 ... NOT available
Auxiliary Correlation fitting basis         ... NOT available
Auxiliary 'external' fitting basis          ... NOT available
Integral threshold                          ...     2.500000e-11
Primitive cut-off                           ...     2.500000e-12
Primitive pair pre-selection threshold      ...     2.500000e-12

Calculating pre-screening integrals         ... done (  0.1 sec) Dimension = 729
Organizing shell pair data                  ... done (  0.8 sec)
Shell pair information
Total number of shell pairs                 ...    266085
Shell pairs after pre-screening             ...     97952
Total number of primitive shell pairs       ...    849606
Primitive shell pairs kept                  ...    193044
          la=0 lb=0:  23151 shell pairs
          la=1 lb=0:  28793 shell pairs
          la=1 lb=1:   8935 shell pairs
          la=2 lb=0:  13783 shell pairs
          la=2 lb=1:   8572 shell pairs
          la=2 lb=2:   2073 shell pairs
          la=3 lb=0:   6265 shell pairs
          la=3 lb=1:   4032 shell pairs
          la=3 lb=2:   1886 shell pairs
          la=3 lb=3:    462 shell pairs

Reading point charge file                   ... ok (4 point charges)
Calculating one electron integrals          ... done (  0.2 sec)
Calculating RI/J V-Matrix + Cholesky decomp.... done (  0.6 sec)
Calculating Nuclear repulsion               ... (+Point charges) done (  0.0 sec) ENN=   7038.539218325347 Eh

SHARK setup successfully completed in   2.5 seconds

Maximum memory used throughout the entire GTOINT-calculation: 184.9 MB
ENUC WAS=  0.000000000
ENUC IS =  0.000000000
n1628:rank35.orca_scf_mpi: Failed to modify UD QP to INIT on mlx5_0: Operation not permitted
n1628:rank32.orca_scf_mpi: Failed to modify UD QP to INIT on mlx5_0: Operation not permitted
n1628:rank33.orca_scf_mpi: Failed to modify UD QP to INIT on mlx5_0: Operation not permitted
n1628:rank34.orca_scf_mpi: Failed to modify UD QP to INIT on mlx5_0: Operation not permitted
n1628:rank35.orca_scf_mpi: Failed to modify UD QP to INIT on mlx5_0: Operation not permitted
n1628:rank34.orca_scf_mpi: Failed to modify UD QP to INIT on mlx5_0: Operation not permitted
n1628:rank33.orca_scf_mpi: Failed to modify UD QP to INIT on mlx5_0: Operation not permitted
n1628:rank32.orca_scf_mpi: Failed to modify UD QP to INIT on mlx5_0: Operation not permitted
n1628:rank35.orca_scf_mpi: Failed to modify UD QP to INIT on mlx5_0: Operation not permitted
n1628:rank32.orca_scf_mpi: Failed to modify UD QP to INIT on mlx5_0: Operation not permitted
n1628:rank33.orca_scf_mpi: Failed to modify UD QP to INIT on mlx5_0: Operation not permitted
n1628:rank34.orca_scf_mpi: Failed to modify UD QP to INIT on mlx5_0: Operation not permitted
n1628:rank35.orca_scf_mpi: Failed to modify UD QP to INIT on mlx5_0: Operation not permitted
n1628:rank34.orca_scf_mpi: Failed to modify UD QP to INIT on mlx5_0: Operation not permitted
n1628:rank32.orca_scf_mpi: Failed to modify UD QP to INIT on mlx5_0: Operation not permitted
n1628:rank33.orca_scf_mpi: Failed to modify UD QP to INIT on mlx5_0: Operation not permitted
n1420:rank8.orca_scf_mpi: Failed to modify UD QP to INIT on mlx5_0: Operation not permitted
n1420:rank14.orca_scf_mpi: Failed to modify UD QP to INIT on mlx5_0: Operation not permitted
n1420:rank8.orca_scf_mpi: Failed to modify UD QP to INIT on mlx5_0: Operation not permitted
n1420:rank23.orca_scf_mpi: Failed to modify UD QP to INIT on mlx5_0: Operation not permitted
n1420:rank14.orca_scf_mpi: Failed to modify UD QP to INIT on mlx5_0: Operation not permitted
n1420:rank8.orca_scf_mpi: Failed to modify UD QP to INIT on mlx5_0: Operation not permitted
n1420:rank14.orca_scf_mpi: Failed to modify UD QP to INIT on mlx5_0: Operation not permitted
n1420:rank23.orca_scf_mpi: Failed to modify UD QP to INIT on mlx5_0: Operation not permitted
n1420:rank23.orca_scf_mpi: Failed to modify UD QP to INIT on mlx5_0: Operation not permitted
n1420:rank12.orca_scf_mpi: Failed to modify UD QP to INIT on mlx5_0: Operation not permitted
n1420:rank12.orca_scf_mpi: Failed to modify UD QP to INIT on mlx5_0: Operation not permitted
n1420:rank12.orca_scf_mpi: Failed to modify UD QP to INIT on mlx5_0: Operation not permitted
n1420:rank4.orca_scf_mpi: Failed to modify UD QP to INIT on mlx5_0: Operation not permitted
n1420:rank13.orca_scf_mpi: Failed to modify UD QP to INIT on mlx5_0: Operation not permitted
n1420:rank16.orca_scf_mpi: Failed to modify UD QP to INIT on mlx5_0: Operation not permitted
n1420:rank10.orca_scf_mpi: Failed to modify UD QP to INIT on mlx5_0: Operation not permitted
n1420:rank4.orca_scf_mpi: Failed to modify UD QP to INIT on mlx5_0: Operation not permitted
n1420:rank13.orca_scf_mpi: Failed to modify UD QP to INIT on mlx5_0: Operation not permitted
n1420:rank16.orca_scf_mpi: Failed to modify UD QP to INIT on mlx5_0: Operation not permitted
n1420:rank10.orca_scf_mpi: Failed to modify UD QP to INIT on mlx5_0: Operation not permitted
n1420:rank4.orca_scf_mpi: Failed to modify UD QP to INIT on mlx5_0: Operation not permitted
n1420:rank13.orca_scf_mpi: Failed to modify UD QP to INIT on mlx5_0: Operation not permitted
n1420:rank16.orca_scf_mpi: Failed to modify UD QP to INIT on mlx5_0: Operation not permitted
n1420:rank10.orca_scf_mpi: Failed to modify UD QP to INIT on mlx5_0: Operation not permitted
n1420:rank14.orca_scf_mpi: Failed to modify UD QP to INIT on mlx5_0: Operation not permitted
n1420:rank8.orca_scf_mpi: Failed to modify UD QP to INIT on mlx5_0: Operation not permitted
n1420:rank23.orca_scf_mpi: Failed to modify UD QP to INIT on mlx5_0: Operation not permitted
n1420:rank12.orca_scf_mpi: Failed to modify UD QP to INIT on mlx5_0: Operation not permitted
n1420:rank30.orca_scf_mpi: Failed to modify UD QP to INIT on mlx5_0: Operation not permitted
n1420:rank22.orca_scf_mpi: Failed to modify UD QP to INIT on mlx5_0: Operation not permitted
n1420:rank10.orca_scf_mpi: Failed to modify UD QP to INIT on mlx5_0: Operation not permitted
n1420:rank22.orca_scf_mpi: Failed to modify UD QP to INIT on mlx5_0: Operation not permitted
n1420:rank30.orca_scf_mpi: Failed to modify UD QP to INIT on mlx5_0: Operation not permitted
n1420:rank16.orca_scf_mpi: Failed to modify UD QP to INIT on mlx5_0: Operation not permitted
n1420:rank13.orca_scf_mpi: Failed to modify UD QP to INIT on mlx5_0: Operation not permitted
n1420:rank22.orca_scf_mpi: Failed to modify UD QP to INIT on mlx5_0: Operation not permitted
n1420:rank4.orca_scf_mpi: Failed to modify UD QP to INIT on mlx5_0: Operation not permitted
n1420:rank30.orca_scf_mpi: Failed to modify UD QP to INIT on mlx5_0: Operation not permitted
n1420:rank26.orca_scf_mpi: Failed to modify UD QP to INIT on mlx5_0: Operation not permitted
n1420:rank29.orca_scf_mpi: Failed to modify UD QP to INIT on mlx5_0: Operation not permitted
n1420:rank26.orca_scf_mpi: Failed to modify UD QP to INIT on mlx5_0: Operation not permitted
n1420:rank28.orca_scf_mpi: Failed to modify UD QP to INIT on mlx5_0: Operation not permitted
n1420:rank29.orca_scf_mpi: Failed to modify UD QP to INIT on mlx5_0: Operation not permitted
n1420:rank26.orca_scf_mpi: Failed to modify UD QP to INIT on mlx5_0: Operation not permitted
n1420:rank3.orca_scf_mpi: Failed to modify UD QP to INIT on mlx5_0: Operation not permitted
n1420:rank29.orca_scf_mpi: Failed to modify UD QP to INIT on mlx5_0: Operation not permitted
n1420:rank0.orca_scf_mpi: Failed to modify UD QP to INIT on mlx5_0: Operation not permitted
n1420:rank28.orca_scf_mpi: Failed to modify UD QP to INIT on mlx5_0: Operation not permitted
n1420:rank3.orca_scf_mpi: Failed to modify UD QP to INIT on mlx5_0: Operation not permitted
n1420:rank28.orca_scf_mpi: Failed to modify UD QP to INIT on mlx5_0: Operation not permitted
n1420:rank0.orca_scf_mpi: Failed to modify UD QP to INIT on mlx5_0: Operation not permitted
n1420:rank3.orca_scf_mpi: Failed to modify UD QP to INIT on mlx5_0: Operation not permitted
n1420:rank0.orca_scf_mpi: Failed to modify UD QP to INIT on mlx5_0: Operation not permitted
n1420:rank20.orca_scf_mpi: Failed to modify UD QP to INIT on mlx5_0: Operation not permitted
n1420:rank20.orca_scf_mpi: Failed to modify UD QP to INIT on mlx5_0: Operation not permitted
n1420:rank20.orca_scf_mpi: Failed to modify UD QP to INIT on mlx5_0: Operation not permitted
n1420:rank6.orca_scf_mpi: Failed to modify UD QP to INIT on mlx5_0: Operation not permitted
n1420:rank5.orca_scf_mpi: Failed to modify UD QP to INIT on mlx5_0: Operation not permitted
n1420:rank6.orca_scf_mpi: Failed to modify UD QP to INIT on mlx5_0: Operation not permitted
n1420:rank24.orca_scf_mpi: Failed to modify UD QP to INIT on mlx5_0: Operation not permitted
n1420:rank5.orca_scf_mpi: Failed to modify UD QP to INIT on mlx5_0: Operation not permitted
n1420:rank18.orca_scf_mpi: Failed to modify UD QP to INIT on mlx5_0: Operation not permitted
n1420:rank21.orca_scf_mpi: Failed to modify UD QP to INIT on mlx5_0: Operation not permitted
n1420:rank6.orca_scf_mpi: Failed to modify UD QP to INIT on mlx5_0: Operation not permitted
n1420:rank2.orca_scf_mpi: Failed to modify UD QP to INIT on mlx5_0: Operation not permitted
n1420:rank5.orca_scf_mpi: Failed to modify UD QP to INIT on mlx5_0: Operation not permitted
n1420:rank7.orca_scf_mpi: Failed to modify UD QP to INIT on mlx5_0: Operation not permitted
n1420:rank1.orca_scf_mpi: Failed to modify UD QP to INIT on mlx5_0: Operation not permitted
n1420:rank31.orca_scf_mpi: Failed to modify UD QP to INIT on mlx5_0: Operation not permitted
n1420:rank9.orca_scf_mpi: Failed to modify UD QP to INIT on mlx5_0: Operation not permitted
n1420:rank24.orca_scf_mpi: Failed to modify UD QP to INIT on mlx5_0: Operation not permitted
n1420:rank18.orca_scf_mpi: Failed to modify UD QP to INIT on mlx5_0: Operation not permitted
n1420:rank17.orca_scf_mpi: Failed to modify UD QP to INIT on mlx5_0: Operation not permitted
n1420:rank21.orca_scf_mpi: Failed to modify UD QP to INIT on mlx5_0: Operation not permitted
n1420:rank27.orca_scf_mpi: Failed to modify UD QP to INIT on mlx5_0: Operation not permitted
n1420:rank19.orca_scf_mpi: Failed to modify UD QP to INIT on mlx5_0: Operation not permitted
n1420:rank2.orca_scf_mpi: Failed to modify UD QP to INIT on mlx5_0: Operation not permitted
n1420:rank25.orca_scf_mpi: Failed to modify UD QP to INIT on mlx5_0: Operation not permitted
n1420:rank11.orca_scf_mpi: Failed to modify UD QP to INIT on mlx5_0: Operation not permitted
n1420:rank15.orca_scf_mpi: Failed to modify UD QP to INIT on mlx5_0: Operation not permitted
n1420:rank1.orca_scf_mpi: Failed to modify UD QP to INIT on mlx5_0: Operation not permitted
n1420:rank18.orca_scf_mpi: Failed to modify UD QP to INIT on mlx5_0: Operation not permitted
n1420:rank24.orca_scf_mpi: Failed to modify UD QP to INIT on mlx5_0: Operation not permitted
n1420:rank31.orca_scf_mpi: Failed to modify UD QP to INIT on mlx5_0: Operation not permitted
n1420:rank21.orca_scf_mpi: Failed to modify UD QP to INIT on mlx5_0: Operation not permitted
n1420:rank9.orca_scf_mpi: Failed to modify UD QP to INIT on mlx5_0: Operation not permitted
n1420:rank2.orca_scf_mpi: Failed to modify UD QP to INIT on mlx5_0: Operation not permitted
n1420:rank27.orca_scf_mpi: Failed to modify UD QP to INIT on mlx5_0: Operation not permitted
n1420:rank17.orca_scf_mpi: Failed to modify UD QP to INIT on mlx5_0: Operation not permitted
n1420:rank7.orca_scf_mpi: Failed to modify UD QP to INIT on mlx5_0: Operation not permitted
n1420:rank19.orca_scf_mpi: Failed to modify UD QP to INIT on mlx5_0: Operation not permitted
n1420:rank25.orca_scf_mpi: Failed to modify UD QP to INIT on mlx5_0: Operation not permitted
n1420:rank1.orca_scf_mpi: Failed to modify UD QP to INIT on mlx5_0: Operation not permitted
n1420:rank15.orca_scf_mpi: Failed to modify UD QP to INIT on mlx5_0: Operation not permitted
n1420:rank9.orca_scf_mpi: Failed to modify UD QP to INIT on mlx5_0: Operation not permitted
n1420:rank31.orca_scf_mpi: Failed to modify UD QP to INIT on mlx5_0: Operation not permitted
n1420:rank11.orca_scf_mpi: Failed to modify UD QP to INIT on mlx5_0: Operation not permitted
n1420:rank7.orca_scf_mpi: Failed to modify UD QP to INIT on mlx5_0: Operation not permitted
n1420:rank27.orca_scf_mpi: Failed to modify UD QP to INIT on mlx5_0: Operation not permitted
n1420:rank19.orca_scf_mpi: Failed to modify UD QP to INIT on mlx5_0: Operation not permitted
n1420:rank17.orca_scf_mpi: Failed to modify UD QP to INIT on mlx5_0: Operation not permitted
n1420:rank25.orca_scf_mpi: Failed to modify UD QP to INIT on mlx5_0: Operation not permitted
n1420:rank15.orca_scf_mpi: Failed to modify UD QP to INIT on mlx5_0: Operation not permitted
n1420:rank11.orca_scf_mpi: Failed to modify UD QP to INIT on mlx5_0: Operation not permitted
n1420:rank22.orca_scf_mpi: Failed to modify UD QP to INIT on mlx5_0: Operation not permitted
n1420:rank30.orca_scf_mpi: Failed to modify UD QP to INIT on mlx5_0: Operation not permitted
n1420:rank26.orca_scf_mpi: Failed to modify UD QP to INIT on mlx5_0: Operation not permitted
n1420:rank29.orca_scf_mpi: Failed to modify UD QP to INIT on mlx5_0: Operation not permitted
n1420:rank28.orca_scf_mpi: Failed to modify UD QP to INIT on mlx5_0: Operation not permitted
n1420:rank0.orca_scf_mpi: Failed to modify UD QP to INIT on mlx5_0: Operation not permitted
n1420:rank3.orca_scf_mpi: Failed to modify UD QP to INIT on mlx5_0: Operation not permitted
n1420:rank20.orca_scf_mpi: Failed to modify UD QP to INIT on mlx5_0: Operation not permitted
n1420:rank6.orca_scf_mpi: Failed to modify UD QP to INIT on mlx5_0: Operation not permitted
n1420:rank5.orca_scf_mpi: Failed to modify UD QP to INIT on mlx5_0: Operation not permitted
n1420:rank24.orca_scf_mpi: Failed to modify UD QP to INIT on mlx5_0: Operation not permitted
n1420:rank21.orca_scf_mpi: Failed to modify UD QP to INIT on mlx5_0: Operation not permitted
n1420:rank18.orca_scf_mpi: Failed to modify UD QP to INIT on mlx5_0: Operation not permitted
n1420:rank31.orca_scf_mpi: Failed to modify UD QP to INIT on mlx5_0: Operation not permitted
n1420:rank15.orca_scf_mpi: Failed to modify UD QP to INIT on mlx5_0: Operation not permitted
n1420:rank17.orca_scf_mpi: Failed to modify UD QP to INIT on mlx5_0: Operation not permitted
n1420:rank25.orca_scf_mpi: Failed to modify UD QP to INIT on mlx5_0: Operation not permitted
n1420:rank11.orca_scf_mpi: Failed to modify UD QP to INIT on mlx5_0: Operation not permitted
n1420:rank7.orca_scf_mpi: Failed to modify UD QP to INIT on mlx5_0: Operation not permitted
n1420:rank2.orca_scf_mpi: Failed to modify UD QP to INIT on mlx5_0: Operation not permitted
n1420:rank9.orca_scf_mpi: Failed to modify UD QP to INIT on mlx5_0: Operation not permitted
n1420:rank27.orca_scf_mpi: Failed to modify UD QP to INIT on mlx5_0: Operation not permitted
n1420:rank19.orca_scf_mpi: Failed to modify UD QP to INIT on mlx5_0: Operation not permitted
n1420:rank1.orca_scf_mpi: Failed to modify UD QP to INIT on mlx5_0: Operation not permitted


           ************************************************************
           *        Program running with 36 parallel MPI-processes    *
           *              working on a shared directory               *
           ************************************************************

Diagonalization of the overlap matrix:
Smallest eigenvalue                        ... 4.034e-06
Time for diagonalization                   ...    0.457 sec
Threshold for overlap eigenvalues          ... 1.000e-08
Number of eigenvalues below threshold      ... 0
Time for construction of square roots      ...    0.374 sec
Total time needed                          ...    0.842 sec

-------------------
DFT GRID GENERATION
-------------------

General Integration Accuracy     IntAcc      ... 4.388
Radial Grid Type                 RadialGrid  ... OptM3 with GC (2021)
Angular Grid (max. ang.)         AngularGrid ... 4 (Lebedev-302)
Angular grid pruning method      GridPruning ... 4 (adaptive)
Weight generation scheme         WeightScheme... Becke
Basis function cutoff            BFCut       ... 1.0000e-11
Integration weight cutoff        WCut        ... 1.0000e-14
Angular grids for H and He will be reduced by one unit
Partially contracted basis set               ... off
Rotationally invariant grid construction     ... off

Total number of grid points                  ...   424300
Total number of batches                      ...     6670
Average number of points per batch           ...       63
Average number of grid points per atom       ...     5051
Time for grid setup =    2.111 sec

--------------------
COSX GRID GENERATION
--------------------

GRIDX 1
-------
General Integration Accuracy     IntAcc      ... 3.816
Radial Grid Type                 RadialGrid  ... OptM3 with GC (2021)
Angular Grid (max. ang.)         AngularGrid ... 1 (Lebedev-50)
Angular grid pruning method      GridPruning ... 4 (adaptive)
Weight generation scheme         WeightScheme... Becke
Basis function cutoff            BFCut       ... 1.0000e-11
Integration weight cutoff        WCut        ... 1.0000e-14
Angular grids for H and He will be reduced by one unit
Partially contracted basis set               ... on
Rotationally invariant grid construction     ... off

Total number of grid points                  ...    53512
Total number of batches                      ...      866
Average number of points per batch           ...       61
Average number of grid points per atom       ...      637
UseSFitting                                  ... on

GRIDX 2
-------
General Integration Accuracy     IntAcc      ... 4.020
Radial Grid Type                 RadialGrid  ... OptM3 with GC (2021)
Angular Grid (max. ang.)         AngularGrid ... 2 (Lebedev-110)
Angular grid pruning method      GridPruning ... 4 (adaptive)
Weight generation scheme         WeightScheme... Becke
Basis function cutoff            BFCut       ... 1.0000e-11
Integration weight cutoff        WCut        ... 1.0000e-14
Angular grids for H and He will be reduced by one unit
Partially contracted basis set               ... on
Rotationally invariant grid construction     ... off

Total number of grid points                  ...   117175
Total number of batches                      ...     1869
Average number of points per batch           ...       62
Average number of grid points per atom       ...     1395
UseSFitting                                  ... on

GRIDX 3
-------
General Integration Accuracy     IntAcc      ... 4.338
Radial Grid Type                 RadialGrid  ... OptM3 with GC (2021)
Angular Grid (max. ang.)         AngularGrid ... 3 (Lebedev-194)
Angular grid pruning method      GridPruning ... 4 (adaptive)
Weight generation scheme         WeightScheme... Becke
Basis function cutoff            BFCut       ... 1.0000e-11
Integration weight cutoff        WCut        ... 1.0000e-14
Angular grids for H and He will be reduced by one unit
Partially contracted basis set               ... on
Rotationally invariant grid construction     ... off

Total number of grid points                  ...   258557
Total number of batches                      ...     4080
Average number of points per batch           ...       63
Average number of grid points per atom       ...     3078
UseSFitting                                  ... on

Time for X-Grid setup             =    6.227 sec

--------------
SCF ITERATIONS
--------------
ITER       Energy         Delta-E        Max-DP      RMS-DP      [F,P]     Damp
               ***  Starting incremental Fock matrix formation  ***
  0  -3636.2479328635   0.000000000000 0.00480900  0.00004085  0.0296724 0.7000
  1  -3636.2705044275  -0.022571564003 0.00389573  0.00003482  0.0208093 0.7000
                               ***Turning on DIIS***
  2  -3636.2887902088  -0.018285781372 0.00927811  0.00008723  0.0145775 0.0000
  3  -3636.3391466279  -0.050356419096 0.00117002  0.00001703  0.0027128 0.0000
  4  -3636.3413709118  -0.002224283834 0.00149167  0.00001128  0.0010760 0.0000
  5  -3636.3418144144  -0.000443502593 0.00182478  0.00001060  0.0005668 0.0000
               *** Restarting incremental Fock matrix formation ***
                                   *** Resetting DIIS ***
  6  -3636.3419154006  -0.000100986260 0.00155812  0.00000712  0.0004324 0.0000
  7  -3636.3419148568   0.000000543847 0.00035374  0.00000177  0.0006411 0.0000
  8  -3636.3419314939  -0.000016637095 0.00021155  0.00000124  0.0000949 0.0000
  9  -3636.3419328578  -0.000001363910 0.00009356  0.00000052  0.0000538 0.0000
 10  -3636.3419332666  -0.000000408791 0.00011681  0.00000062  0.0000361 0.0000
 11  -3636.3419334590  -0.000000192446 0.00007149  0.00000062  0.0000145 0.0000
 12  -3636.3419334950  -0.000000036015 0.00008211  0.00000062  0.0000068 0.0000
 13  -3636.3419334684   0.000000026660 0.00005966  0.00000044  0.0000032 0.0000
 14  -3636.3419334706  -0.000000002235 0.00006425  0.00000041  0.0000014 0.0000
                 **** Energy Check signals convergence ****

               *****************************************************
               *                     SUCCESS                       *
               *           SCF CONVERGED AFTER  15 CYCLES          *
               *****************************************************

Old exchange energy                            =   -104.237744140 Eh
New exchange energy                            =   -104.237698526 Eh
Exchange energy change after final integration =      0.000045614 Eh
Total energy after final integration           =  -3636.341887865 Eh
Final COS-X integration done in                =    49.116 sec
Total Energy       :        -3636.34188786 Eh          -98949.89328 eV
  Last Energy change         ...   -8.2264e-09  Tolerance :   1.0000e-08
  Last MAX-Density change    ...    0.0000e+00  Tolerance :   1.0000e-07
             **** THE GBW FILE WAS UPDATED (Combo62_Cf10tc_0.21702_-0.21702_ck-1.gbw) ****
             **** DENSITY Combo62_Cf10tc_0.21702_-0.21702_ck-1.scfp WAS UPDATED ****
             **** ENERGY FILE WAS UPDATED (Combo62_Cf10tc_0.21702_-0.21702_ck-1.en.tmp) ****
----------------------
UHF SPIN CONTAMINATION
----------------------

Warning: in a DFT calculation there is little theoretical justification to 
         calculate <S**2> as in Hartree-Fock theory. We will do it anyways
         but you should keep in mind that the values have only limited relevance

Expectation value of <S**2>     :     0.768066
Ideal value S*(S+1) for S=0.5   :     0.750000
Deviation                       :     0.018066

             **** THE GBW FILE WAS UPDATED (Combo62_Cf10tc_0.21702_-0.21702_ck-1.gbw) ****
             **** DENSITY Combo62_Cf10tc_0.21702_-0.21702_ck-1.scfp WAS UPDATED ****
Total SCF time: 0 days 0 hours 6 min 55 sec 

Maximum memory used throughout the entire SCF-calculation: 753.3 MB


-------------------------------------------------------------------------------
                          DFT DISPERSION CORRECTION                            
                                                                               
                                 DFTD4 V2.5                                    
-------------------------------------------------------------------------------
Starting D4
-------------------------   ----------------
Dispersion correction           -0.136177304
-------------------------   ----------------


-------------------------   --------------------
FINAL SINGLE POINT ENERGY     -3636.478065169008
-------------------------   --------------------

n1420:rank0.orca_scfgrad_mpi: Failed to modify UD QP to INIT on mlx5_0: Operation not permitted
n1628:rank35.orca_scfgrad_mpi: Failed to modify UD QP to INIT on mlx5_0: Operation not permitted
n1628:rank34.orca_scfgrad_mpi: Failed to modify UD QP to INIT on mlx5_0: Operation not permitted
n1628:rank33.orca_scfgrad_mpi: Failed to modify UD QP to INIT on mlx5_0: Operation not permitted
n1420:rank0.orca_scfgrad_mpi: Failed to modify UD QP to INIT on mlx5_0: Operation not permitted
n1628:rank35.orca_scfgrad_mpi: Failed to modify UD QP to INIT on mlx5_0: Operation not permitted
n1628:rank32.orca_scfgrad_mpi: Failed to modify UD QP to INIT on mlx5_0: Operation not permitted
n1628:rank33.orca_scfgrad_mpi: Failed to modify UD QP to INIT on mlx5_0: Operation not permitted
n1628:rank34.orca_scfgrad_mpi: Failed to modify UD QP to INIT on mlx5_0: Operation not permitted
n1628:rank32.orca_scfgrad_mpi: Failed to modify UD QP to INIT on mlx5_0: Operation not permitted
n1628:rank33.orca_scfgrad_mpi: Failed to modify UD QP to INIT on mlx5_0: Operation not permitted
n1628:rank34.orca_scfgrad_mpi: Failed to modify UD QP to INIT on mlx5_0: Operation not permitted
n1420:rank30.orca_scfgrad_mpi: Failed to modify UD QP to INIT on mlx5_0: Operation not permitted
n1420:rank0.orca_scfgrad_mpi: Failed to modify UD QP to INIT on mlx5_0: Operation not permitted
n1628:rank35.orca_scfgrad_mpi: Failed to modify UD QP to INIT on mlx5_0: Operation not permitted
n1628:rank32.orca_scfgrad_mpi: Failed to modify UD QP to INIT on mlx5_0: Operation not permitted
n1420:rank30.orca_scfgrad_mpi: Failed to modify UD QP to INIT on mlx5_0: Operation not permitted
n1420:rank17.orca_scfgrad_mpi: Failed to modify UD QP to INIT on mlx5_0: Operation not permitted
n1420:rank5.orca_scfgrad_mpi: Failed to modify UD QP to INIT on mlx5_0: Operation not permitted
n1420:rank17.orca_scfgrad_mpi: Failed to modify UD QP to INIT on mlx5_0: Operation not permitted
n1420:rank30.orca_scfgrad_mpi: Failed to modify UD QP to INIT on mlx5_0: Operation not permitted
n1420:rank5.orca_scfgrad_mpi: Failed to modify UD QP to INIT on mlx5_0: Operation not permitted
n1420:rank20.orca_scfgrad_mpi: Failed to modify UD QP to INIT on mlx5_0: Operation not permitted
n1420:rank19.orca_scfgrad_mpi: Failed to modify UD QP to INIT on mlx5_0: Operation not permitted
n1628:rank35.orca_scfgrad_mpi: Failed to modify UD QP to INIT on mlx5_0: Operation not permitted
n1420:rank17.orca_scfgrad_mpi: Failed to modify UD QP to INIT on mlx5_0: Operation not permitted
n1420:rank12.orca_scfgrad_mpi: Failed to modify UD QP to INIT on mlx5_0: Operation not permitted
n1628:rank32.orca_scfgrad_mpi: Failed to modify UD QP to INIT on mlx5_0: Operation not permitted
n1420:rank5.orca_scfgrad_mpi: Failed to modify UD QP to INIT on mlx5_0: Operation not permitted
n1628:rank34.orca_scfgrad_mpi: Failed to modify UD QP to INIT on mlx5_0: Operation not permitted
n1628:rank33.orca_scfgrad_mpi: Failed to modify UD QP to INIT on mlx5_0: Operation not permitted
n1420:rank20.orca_scfgrad_mpi: Failed to modify UD QP to INIT on mlx5_0: Operation not permitted
n1420:rank12.orca_scfgrad_mpi: Failed to modify UD QP to INIT on mlx5_0: Operation not permitted
n1420:rank19.orca_scfgrad_mpi: Failed to modify UD QP to INIT on mlx5_0: Operation not permitted
n1420:rank20.orca_scfgrad_mpi: Failed to modify UD QP to INIT on mlx5_0: Operation not permitted
n1420:rank12.orca_scfgrad_mpi: Failed to modify UD QP to INIT on mlx5_0: Operation not permitted
n1420:rank19.orca_scfgrad_mpi: Failed to modify UD QP to INIT on mlx5_0: Operation not permitted
n1420:rank0.orca_scfgrad_mpi: Failed to modify UD QP to INIT on mlx5_0: Operation not permitted
n1420:rank17.orca_scfgrad_mpi: Failed to modify UD QP to INIT on mlx5_0: Operation not permitted
n1420:rank30.orca_scfgrad_mpi: Failed to modify UD QP to INIT on mlx5_0: Operation not permitted
n1420:rank20.orca_scfgrad_mpi: Failed to modify UD QP to INIT on mlx5_0: Operation not permitted
n1420:rank5.orca_scfgrad_mpi: Failed to modify UD QP to INIT on mlx5_0: Operation not permitted
n1420:rank12.orca_scfgrad_mpi: Failed to modify UD QP to INIT on mlx5_0: Operation not permitted
n1420:rank19.orca_scfgrad_mpi: Failed to modify UD QP to INIT on mlx5_0: Operation not permitted
n1420:rank29.orca_scfgrad_mpi: Failed to modify UD QP to INIT on mlx5_0: Operation not permitted
n1420:rank29.orca_scfgrad_mpi: Failed to modify UD QP to INIT on mlx5_0: Operation not permitted
n1420:rank29.orca_scfgrad_mpi: Failed to modify UD QP to INIT on mlx5_0: Operation not permitted
n1420:rank25.orca_scfgrad_mpi: Failed to modify UD QP to INIT on mlx5_0: Operation not permitted
n1420:rank8.orca_scfgrad_mpi: Failed to modify UD QP to INIT on mlx5_0: Operation not permitted
n1420:rank25.orca_scfgrad_mpi: Failed to modify UD QP to INIT on mlx5_0: Operation not permitted
n1420:rank25.orca_scfgrad_mpi: Failed to modify UD QP to INIT on mlx5_0: Operation not permitted
n1420:rank8.orca_scfgrad_mpi: Failed to modify UD QP to INIT on mlx5_0: Operation not permitted
n1420:rank13.orca_scfgrad_mpi: Failed to modify UD QP to INIT on mlx5_0: Operation not permitted
n1420:rank8.orca_scfgrad_mpi: Failed to modify UD QP to INIT on mlx5_0: Operation not permitted
n1420:rank29.orca_scfgrad_mpi: Failed to modify UD QP to INIT on mlx5_0: Operation not permitted
n1420:rank13.orca_scfgrad_mpi: Failed to modify UD QP to INIT on mlx5_0: Operation not permitted
n1420:rank13.orca_scfgrad_mpi: Failed to modify UD QP to INIT on mlx5_0: Operation not permitted
n1420:rank25.orca_scfgrad_mpi: Failed to modify UD QP to INIT on mlx5_0: Operation not permitted
n1420:rank8.orca_scfgrad_mpi: Failed to modify UD QP to INIT on mlx5_0: Operation not permitted
n1420:rank18.orca_scfgrad_mpi: Failed to modify UD QP to INIT on mlx5_0: Operation not permitted
n1420:rank16.orca_scfgrad_mpi: Failed to modify UD QP to INIT on mlx5_0: Operation not permitted
n1420:rank16.orca_scfgrad_mpi: Failed to modify UD QP to INIT on mlx5_0: Operation not permitted
n1420:rank13.orca_scfgrad_mpi: Failed to modify UD QP to INIT on mlx5_0: Operation not permitted
n1420:rank18.orca_scfgrad_mpi: Failed to modify UD QP to INIT on mlx5_0: Operation not permitted
n1420:rank16.orca_scfgrad_mpi: Failed to modify UD QP to INIT on mlx5_0: Operation not permitted
n1420:rank18.orca_scfgrad_mpi: Failed to modify UD QP to INIT on mlx5_0: Operation not permitted
n1420:rank16.orca_scfgrad_mpi: Failed to modify UD QP to INIT on mlx5_0: Operation not permitted
n1420:rank18.orca_scfgrad_mpi: Failed to modify UD QP to INIT on mlx5_0: Operation not permitted
n1420:rank4.orca_scfgrad_mpi: Failed to modify UD QP to INIT on mlx5_0: Operation not permitted
n1420:rank1.orca_scfgrad_mpi: Failed to modify UD QP to INIT on mlx5_0: Operation not permitted
n1420:rank14.orca_scfgrad_mpi: Failed to modify UD QP to INIT on mlx5_0: Operation not permitted
n1420:rank24.orca_scfgrad_mpi: Failed to modify UD QP to INIT on mlx5_0: Operation not permitted
n1420:rank9.orca_scfgrad_mpi: Failed to modify UD QP to INIT on mlx5_0: Operation not permitted
n1420:rank3.orca_scfgrad_mpi: Failed to modify UD QP to INIT on mlx5_0: Operation not permitted
n1420:rank15.orca_scfgrad_mpi: Failed to modify UD QP to INIT on mlx5_0: Operation not permitted
n1420:rank22.orca_scfgrad_mpi: Failed to modify UD QP to INIT on mlx5_0: Operation not permitted
n1420:rank14.orca_scfgrad_mpi: Failed to modify UD QP to INIT on mlx5_0: Operation not permitted
n1420:rank1.orca_scfgrad_mpi: Failed to modify UD QP to INIT on mlx5_0: Operation not permitted
n1420:rank24.orca_scfgrad_mpi: Failed to modify UD QP to INIT on mlx5_0: Operation not permitted
n1420:rank11.orca_scfgrad_mpi: Failed to modify UD QP to INIT on mlx5_0: Operation not permitted
n1420:rank4.orca_scfgrad_mpi: Failed to modify UD QP to INIT on mlx5_0: Operation not permitted
n1420:rank9.orca_scfgrad_mpi: Failed to modify UD QP to INIT on mlx5_0: Operation not permitted
n1420:rank3.orca_scfgrad_mpi: Failed to modify UD QP to INIT on mlx5_0: Operation not permitted
n1420:rank21.orca_scfgrad_mpi: Failed to modify UD QP to INIT on mlx5_0: Operation not permitted
n1420:rank2.orca_scfgrad_mpi: Failed to modify UD QP to INIT on mlx5_0: Operation not permitted
n1420:rank7.orca_scfgrad_mpi: Failed to modify UD QP to INIT on mlx5_0: Operation not permitted
n1420:rank28.orca_scfgrad_mpi: Failed to modify UD QP to INIT on mlx5_0: Operation not permitted
n1420:rank26.orca_scfgrad_mpi: Failed to modify UD QP to INIT on mlx5_0: Operation not permitted
n1420:rank15.orca_scfgrad_mpi: Failed to modify UD QP to INIT on mlx5_0: Operation not permitted
n1420:rank10.orca_scfgrad_mpi: Failed to modify UD QP to INIT on mlx5_0: Operation not permitted
n1420:rank14.orca_scfgrad_mpi: Failed to modify UD QP to INIT on mlx5_0: Operation not permitted
n1420:rank6.orca_scfgrad_mpi: Failed to modify UD QP to INIT on mlx5_0: Operation not permitted
n1420:rank27.orca_scfgrad_mpi: Failed to modify UD QP to INIT on mlx5_0: Operation not permitted
n1420:rank1.orca_scfgrad_mpi: Failed to modify UD QP to INIT on mlx5_0: Operation not permitted
n1420:rank31.orca_scfgrad_mpi: Failed to modify UD QP to INIT on mlx5_0: Operation not permitted
n1420:rank24.orca_scfgrad_mpi: Failed to modify UD QP to INIT on mlx5_0: Operation not permitted
n1420:rank22.orca_scfgrad_mpi: Failed to modify UD QP to INIT on mlx5_0: Operation not permitted
n1420:rank23.orca_scfgrad_mpi: Failed to modify UD QP to INIT on mlx5_0: Operation not permitted
n1420:rank4.orca_scfgrad_mpi: Failed to modify UD QP to INIT on mlx5_0: Operation not permitted
n1420:rank9.orca_scfgrad_mpi: Failed to modify UD QP to INIT on mlx5_0: Operation not permitted
n1420:rank3.orca_scfgrad_mpi: Failed to modify UD QP to INIT on mlx5_0: Operation not permitted
n1420:rank11.orca_scfgrad_mpi: Failed to modify UD QP to INIT on mlx5_0: Operation not permitted
n1420:rank15.orca_scfgrad_mpi: Failed to modify UD QP to INIT on mlx5_0: Operation not permitted
n1420:rank21.orca_scfgrad_mpi: Failed to modify UD QP to INIT on mlx5_0: Operation not permitted
n1420:rank22.orca_scfgrad_mpi: Failed to modify UD QP to INIT on mlx5_0: Operation not permitted
n1420:rank28.orca_scfgrad_mpi: Failed to modify UD QP to INIT on mlx5_0: Operation not permitted
n1420:rank26.orca_scfgrad_mpi: Failed to modify UD QP to INIT on mlx5_0: Operation not permitted
n1420:rank10.orca_scfgrad_mpi: Failed to modify UD QP to INIT on mlx5_0: Operation not permitted
n1420:rank7.orca_scfgrad_mpi: Failed to modify UD QP to INIT on mlx5_0: Operation not permitted
n1420:rank11.orca_scfgrad_mpi: Failed to modify UD QP to INIT on mlx5_0: Operation not permitted
n1420:rank2.orca_scfgrad_mpi: Failed to modify UD QP to INIT on mlx5_0: Operation not permitted
n1420:rank6.orca_scfgrad_mpi: Failed to modify UD QP to INIT on mlx5_0: Operation not permitted
n1420:rank27.orca_scfgrad_mpi: Failed to modify UD QP to INIT on mlx5_0: Operation not permitted
n1420:rank21.orca_scfgrad_mpi: Failed to modify UD QP to INIT on mlx5_0: Operation not permitted
n1420:rank31.orca_scfgrad_mpi: Failed to modify UD QP to INIT on mlx5_0: Operation not permitted
n1420:rank28.orca_scfgrad_mpi: Failed to modify UD QP to INIT on mlx5_0: Operation not permitted
n1420:rank26.orca_scfgrad_mpi: Failed to modify UD QP to INIT on mlx5_0: Operation not permitted
n1420:rank10.orca_scfgrad_mpi: Failed to modify UD QP to INIT on mlx5_0: Operation not permitted
n1420:rank7.orca_scfgrad_mpi: Failed to modify UD QP to INIT on mlx5_0: Operation not permitted
n1420:rank23.orca_scfgrad_mpi: Failed to modify UD QP to INIT on mlx5_0: Operation not permitted
n1420:rank2.orca_scfgrad_mpi: Failed to modify UD QP to INIT on mlx5_0: Operation not permitted
n1420:rank27.orca_scfgrad_mpi: Failed to modify UD QP to INIT on mlx5_0: Operation not permitted
n1420:rank6.orca_scfgrad_mpi: Failed to modify UD QP to INIT on mlx5_0: Operation not permitted
n1420:rank31.orca_scfgrad_mpi: Failed to modify UD QP to INIT on mlx5_0: Operation not permitted
n1420:rank24.orca_scfgrad_mpi: Failed to modify UD QP to INIT on mlx5_0: Operation not permitted
n1420:rank23.orca_scfgrad_mpi: Failed to modify UD QP to INIT on mlx5_0: Operation not permitted
n1420:rank3.orca_scfgrad_mpi: Failed to modify UD QP to INIT on mlx5_0: Operation not permitted
n1420:rank1.orca_scfgrad_mpi: Failed to modify UD QP to INIT on mlx5_0: Operation not permitted
n1420:rank4.orca_scfgrad_mpi: Failed to modify UD QP to INIT on mlx5_0: Operation not permitted
n1420:rank22.orca_scfgrad_mpi: Failed to modify UD QP to INIT on mlx5_0: Operation not permitted
n1420:rank11.orca_scfgrad_mpi: Failed to modify UD QP to INIT on mlx5_0: Operation not permitted
n1420:rank15.orca_scfgrad_mpi: Failed to modify UD QP to INIT on mlx5_0: Operation not permitted
n1420:rank21.orca_scfgrad_mpi: Failed to modify UD QP to INIT on mlx5_0: Operation not permitted
n1420:rank14.orca_scfgrad_mpi: Failed to modify UD QP to INIT on mlx5_0: Operation not permitted
n1420:rank9.orca_scfgrad_mpi: Failed to modify UD QP to INIT on mlx5_0: Operation not permitted
n1420:rank28.orca_scfgrad_mpi: Failed to modify UD QP to INIT on mlx5_0: Operation not permitted
n1420:rank2.orca_scfgrad_mpi: Failed to modify UD QP to INIT on mlx5_0: Operation not permitted
n1420:rank26.orca_scfgrad_mpi: Failed to modify UD QP to INIT on mlx5_0: Operation not permitted
n1420:rank10.orca_scfgrad_mpi: Failed to modify UD QP to INIT on mlx5_0: Operation not permitted
n1420:rank7.orca_scfgrad_mpi: Failed to modify UD QP to INIT on mlx5_0: Operation not permitted
n1420:rank27.orca_scfgrad_mpi: Failed to modify UD QP to INIT on mlx5_0: Operation not permitted
n1420:rank31.orca_scfgrad_mpi: Failed to modify UD QP to INIT on mlx5_0: Operation not permitted
n1420:rank6.orca_scfgrad_mpi: Failed to modify UD QP to INIT on mlx5_0: Operation not permitted
n1420:rank23.orca_scfgrad_mpi: Failed to modify UD QP to INIT on mlx5_0: Operation not permitted


           ************************************************************
           *        Program running with 36 parallel MPI-processes    *
           *              working on a shared directory               *
           ************************************************************
------------------------------------------------------------------------------
                         ORCA SCF GRADIENT CALCULATION
------------------------------------------------------------------------------

 ... reading COSX grid (gridx3)
Gradient of the Kohn-Sham DFT energy:
Kohn-Sham wavefunction type      ... UKS
Hartree-Fock exchange scaling    ...    0.190
Number of operators              ...    2
Number of atoms                  ...   84
Basis set dimensions             ... 1903
Integral neglect threshold       ... 2.5e-11
Integral primitive cutoff        ... 2.5e-12
SHARK Integral package           ... ON

Nuc. rep. gradient       (SHARK) ... done (  0.0 sec)
HCore & Overlap gradient (SHARK) ... done (  0.9 sec)
RI-J gradient            (SHARK) ... done (  4.3 sec)
COSX-gradient                    ... done ( 65.1 sec)
Exchange-correlation gradient    ... done
Point charge gradient            ... done
Dispersion correction            ... Starting D4
Starting D4
Starting D4
Starting D4
Starting D4
Starting D4
Starting D4
Starting D4
Starting D4
Starting D4
Starting D4
Starting D4
Starting D4
Starting D4
Starting D4
Starting D4
Starting D4
Starting D4
Starting D4
Starting D4
Starting D4
Starting D4
Starting D4
Starting D4
Starting D4
Starting D4
Starting D4
Starting D4
Starting D4
Starting D4
Starting D4
Starting D4
Starting D4
Starting D4
Starting D4
Starting D4


------------------- 
Dispersion Gradient 
------------------- 
   1  :   -0.000073277   -0.000280570   -0.000050192
   2  :   -0.000064951   -0.000264748   -0.000034808
   3  :   -0.000158568    0.000003256    0.000005311
   4  :   -0.000074398    0.000274602    0.000046844
   5  :   -0.000071038    0.000291900    0.000063493
   6  :   -0.000189858   -0.000000273    0.000003976
   7  :   -0.000175931    0.000008892    0.000003423
   8  :   -0.000068221    0.000113574    0.000010328
   9  :    0.000066052    0.000138686    0.000004914
  10  :    0.000150056    0.000007735    0.000007198
  11  :    0.000054546   -0.000099070    0.000009296
  12  :   -0.000076078   -0.000110644    0.000008316
  13  :    0.000032979   -0.000030137    0.000013906
  14  :   -0.000320403   -0.000127898    0.000075185
  15  :   -0.000434964   -0.000037290    0.000074270
  16  :   -0.000136006    0.000254907    0.000018451
  17  :    0.000275122    0.000362401   -0.000043261
  18  :    0.000281032    0.000216583   -0.000039856
  19  :    0.000063295    0.000089968    0.000014706
  20  :   -0.000246503    0.000092303    0.000026417
  21  :   -0.000394352   -0.000143021    0.000140849
  22  :   -0.000163168   -0.000301864    0.000187076
  23  :    0.000102711   -0.000420258    0.000139232
  24  :    0.000211251   -0.000166231    0.000032400
  25  :   -0.000360537    0.000006747    0.000015649
  26  :   -0.000628570    0.000335744    0.000338817
  27  :   -0.000658555   -0.000366934   -0.000326212
  28  :    0.000012353    0.000017276    0.000203243
  29  :   -0.000197887    0.000335534    0.000036609
  30  :   -0.000135105    0.000363788   -0.000293619
  31  :    0.000163864    0.000298561   -0.001287723
  32  :    0.000378860    0.000083504   -0.000293608
  33  :    0.000390275    0.000013803    0.000036335
  34  :    0.000473729    0.000055047   -0.000267882
  35  :    0.000496604   -0.000000620   -0.000019497
  36  :    0.000526159   -0.000030938    0.000216482
  37  :    0.000516395   -0.000063064    0.000385183
  38  :   -0.000331511    0.000399690    0.000385409
  39  :   -0.000312035    0.000427128    0.000215460
  40  :   -0.000271140    0.000417482   -0.000020488
  41  :   -0.000211571    0.000428725   -0.000269051
  42  :   -0.000001187    0.000016848    0.000001530
  43  :    0.000140330   -0.000157423    0.000320780
  44  :    0.000224806   -0.000330031    0.000253667
  45  :    0.000533892   -0.000959400   -0.000053377
  46  :    0.000148567   -0.000343393   -0.000291832
  47  :    0.000048642   -0.000174828   -0.000335906
  48  :    0.000078470    0.000020552    0.000594140
  49  :    0.000061450    0.000038429    0.000568837
  50  :    0.000118819   -0.000102939    0.000432062
  51  :    0.000194728   -0.000269030    0.000307882
  52  :    0.000104617   -0.000283153   -0.000337325
  53  :   -0.000002834   -0.000123187   -0.000444303
  54  :   -0.000096246    0.000011537   -0.000566610
  55  :   -0.000083858   -0.000012767   -0.000594793
  56  :   -0.000027554   -0.000118820   -0.000021032
  57  :   -0.000058263   -0.000101867   -0.000022373
  58  :   -0.000059119    0.000100807    0.000026653
  59  :   -0.000028897    0.000118832    0.000024115
  60  :   -0.000075454   -0.000093491    0.000026518
  61  :   -0.000197992   -0.000053591    0.000031245
  62  :    0.000148168    0.000140941   -0.000024012
  63  :    0.000122506    0.000019762   -0.000021008
  64  :   -0.000068638    0.000082026   -0.000005801
  65  :   -0.000152587   -0.000028265    0.000034883
  66  :    0.000055988   -0.000146116    0.000033863
  67  :    0.000110573   -0.000016817    0.000000650
  68  :   -0.000051314   -0.000025050   -0.000025922
  69  :    0.000087158    0.000022750   -0.000097429
  70  :    0.000099492   -0.000000804   -0.000014345
  71  :    0.000091061   -0.000013960    0.000058727
  72  :    0.000111955   -0.000007756    0.000162376
  73  :   -0.000066950    0.000089928    0.000162869
  74  :   -0.000062222    0.000069470    0.000058815
  75  :   -0.000055727    0.000082888   -0.000014716
  76  :   -0.000028911    0.000085344   -0.000097868
  77  :    0.000007688    0.000026938    0.000160201
  78  :    0.000001703    0.000024565    0.000112554
  79  :    0.000027447   -0.000027048    0.000092291
  80  :    0.000059291   -0.000095669    0.000046737
  81  :    0.000044958   -0.000097988   -0.000057286
  82  :    0.000001286   -0.000030900   -0.000095130
  83  :   -0.000028839    0.000019298   -0.000110949
  84  :   -0.000034042    0.000018047   -0.000156028

  |G| =    0.038403210

done

------------------
CARTESIAN GRADIENT
------------------

   1   C   :   -0.000180603    0.000074509   -0.000055022
   2   C   :    0.000092886    0.000014987   -0.000218946
   3   C   :   -0.001034478    0.000096527    0.000399581
   4   C   :    0.000019334   -0.000061593    0.000072059
   5   C   :   -0.000126600    0.000012180   -0.000045001
   6   C   :   -0.000494922   -0.000457186    0.000048797
   7   C   :    0.002791420   -0.000101730   -0.001915625
   8   N   :   -0.001586059   -0.000434432    0.000527681
   9   C   :    0.001699727    0.001356798    0.000217947
  10   N   :   -0.000936969   -0.000423238   -0.000163043
  11   C   :    0.001165990   -0.000315872    0.000389478
  12   N   :   -0.001330812    0.000003502    0.000493596
  13   C   :   -0.000577703   -0.000101859    0.000246570
  14   C   :    0.000393703    0.000526753    0.000355937
  15   C   :    0.000108047    0.000273652    0.000009088
  16   C   :   -0.000257564   -0.000634726   -0.000017563
  17   C   :    0.000123199    0.000182226    0.000198130
  18   C   :    0.000252785    0.000210610   -0.000436652
  19   C   :   -0.001156214   -0.000710102    0.000051270
  20   C   :    0.000382607    0.000161190    0.000509319
  21   C   :   -0.000389829   -0.000345476   -0.000167238
  22   C   :    0.000573439    0.001492691    0.000106112
  23   C   :    0.000161405   -0.000905965    0.000308304
  24   C   :    0.000592449    0.000259536   -0.000453481
  25   C   :    0.001515451    0.000922352   -0.000591218
  26   S   :   -0.000549319   -0.000162828    0.000499685
  27   S   :   -0.000151553   -0.000664368    0.000186199
  28   N   :   -0.001151656   -0.001023172   -0.000389029
  29   C   :    0.000139628    0.000045325    0.000453107
  30   C   :    0.000467501    0.000016834   -0.000384433
  31   S   :   -0.000509459    0.000062166   -0.000254145
  32   C   :    0.000210480   -0.000211755    0.000414113
  33   C   :    0.001000718    0.000129097   -0.000331506
  34   C   :   -0.000180587    0.000054367   -0.000173974
  35   C   :    0.000015285    0.000070369   -0.000038789
  36   C   :   -0.000097099    0.000143104    0.000011135
  37   C   :   -0.000141894    0.000354401    0.000092510
  38   C   :   -0.000115015    0.000041213    0.000122353
  39   C   :    0.000025894   -0.000137428   -0.000138348
  40   C   :    0.000122273   -0.000031614   -0.000077723
  41   C   :   -0.000205384   -0.000054012    0.000183828
  42   N   :   -0.000277015   -0.000014584   -0.000310265
  43   C   :    0.000617920    0.000442350    0.000155223
  44   C   :    0.000246009    0.000170055   -0.000266470
  45   S   :    0.000010320   -0.000016581   -0.000029188
  46   C   :    0.000018065    0.000131891    0.000317556
  47   C   :   -0.000040295   -0.000039015   -0.000179753
  48   C   :   -0.000137408   -0.000181961   -0.000036483
  49   C   :    0.000013361   -0.000016339   -0.000016098
  50   C   :    0.000098694   -0.000073566    0.000087960
  51   C   :   -0.000070394   -0.000055193   -0.000014797
  52   C   :   -0.000037831   -0.000080871   -0.000100415
  53   C   :   -0.000020934   -0.000032526   -0.000045158
  54   C   :    0.000013704    0.000028840   -0.000048004
  55   C   :    0.000078736    0.000029077    0.000213554
  56   H   :    0.000057443   -0.000049406    0.000120137
  57   H   :    0.000239133    0.000000036    0.000159839
  58   H   :    0.000106474   -0.000076261    0.000073240
  59   H   :    0.000085919    0.000010193    0.000083690
  60   H   :   -0.000214763   -0.000093564   -0.000170869
  61   H   :    0.000106313   -0.000055031    0.000054815
  62   H   :    0.000029192    0.000048453   -0.000158933
  63   H   :    0.000088453   -0.000190780   -0.000028848
  64   H   :   -0.000105011    0.000017663   -0.000075691
  65   H   :    0.000119044    0.000300247    0.000006417
  66   H   :   -0.000155074   -0.000017386   -0.000100319
  67   H   :    0.000009406    0.000165308   -0.000000480
  68   H   :    0.000065038    0.000114331   -0.000004603
  69   H   :    0.000076941   -0.000050606   -0.000015285
  70   H   :   -0.000010469    0.000021530   -0.000030531
  71   H   :    0.000062361    0.000062392   -0.000055663
  72   H   :    0.000121475    0.000048366   -0.000000834
  73   H   :   -0.000012751   -0.000129222   -0.000021731
  74   H   :   -0.000005719   -0.000032469    0.000005329
  75   H   :    0.000018239    0.000006891   -0.000027923
  76   H   :    0.000080747   -0.000081372   -0.000027035
  77   H   :   -0.000028766   -0.000065056    0.000082892
  78   H   :    0.000069253   -0.000012762    0.000003153
  79   H   :    0.000081982    0.000016626   -0.000029755
  80   H   :    0.000081767    0.000023359    0.000009219
  81   H   :    0.000050858    0.000009892   -0.000019678
  82   H   :    0.000029421   -0.000012845   -0.000005250
  83   H   :    0.000047539    0.000022763   -0.000014103
  84   H   :    0.000061117    0.000076204   -0.000000495

Difference to translation invariance:
           :    0.0023489988    0.0000961044   -0.0004165668

Difference to rotation invariance:
           :   -0.0047262313    0.0110444337    0.0191156640

Norm of the cartesian gradient     ...    0.0067898536
RMS gradient                       ...    0.0004277206
MAX gradient                       ...    0.0027914201

-------
TIMINGS
-------

Total SCF gradient time            ...       97.036 sec

One electron gradient       ....       0.917 sec  (  0.9%)
RI-J Coulomb gradient       ....       4.280 sec  (  4.4%)
COSX gradient               ....      65.077 sec  ( 67.1%)
XC gradient                 ....       8.545 sec  (  8.8%)
Point charge gradient       ....       1.627 sec  (  1.7%)

Maximum memory used throughout the entire SCFGRAD-calculation: 486.0 MB
------------------------------------------------------------------------------
                         ORCA GEOMETRY RELAXATION STEP
------------------------------------------------------------------------------

Reading the OPT-File                    .... done
Getting information on internals        .... done
Copying old internal coords+grads       .... done
Making the new internal coordinates     .... (new redundants).... done
Validating the new internal coordinates .... (new redundants).... done
Calculating the B-matrix                .... done
Calculating the G,G- and P matrices     .... done
Transforming gradient to internals      .... done
Projecting the internal gradient        .... done
Number of atoms                         ....  84
Number of internal coordinates          .... 473
Current Energy                          .... -3636.478065169 Eh
Current gradient norm                   ....     0.006789854 Eh/bohr
Maximum allowed component of the step   ....  0.300
Current trust radius                    ....  0.300
Updating the Hessian (BFGS)             .... done
Forming the augmented Hessian           .... done
Diagonalizing the augmented Hessian     .... done
Last element of RFO vector              ....  0.991883670
Lowest eigenvalues of augmented Hessian:
 -0.000329457  0.004578628  0.010242131  0.011920944  0.012705363
Length of the computed step             ....  0.128189098
The final length of the internal step   ....  0.128189098
Converting the step to cartesian space:
 Initial RMS(Int)=    0.0058941410
Transforming coordinates:
 Iter   0:  RMS(Cart)=    0.0860202143 RMS(Int)=    0.7634166528
 Iter   1:  RMS(Cart)=    0.0016534828 RMS(Int)=    0.0003593350
 Iter   2:  RMS(Cart)=    0.0000435698 RMS(Int)=    0.0000042349
 Iter   3:  RMS(Cart)=    0.0000017165 RMS(Int)=    0.0000004210
 Iter   4:  RMS(Cart)=    0.0000000479 RMS(Int)=    0.0000000077
done
Storing new coordinates                 .... done

                                .--------------------.
          ----------------------|Geometry convergence|-------------------------
          Item                value                   Tolerance       Converged
          ---------------------------------------------------------------------
          Energy change      -0.0003613280            0.0000050000      NO
          RMS gradient        0.0002746193            0.0001000000      NO
          MAX gradient        0.0015560368            0.0003000000      NO
          RMS step            0.0058941410            0.0020000000      NO
          MAX step            0.0513005903            0.0040000000      NO
          ........................................................
          Max(Bonds)      0.0016      Max(Angles)    0.20
          Max(Dihed)        2.94      Max(Improp)    0.00
          ---------------------------------------------------------------------

The optimization has not yet converged - more geometry cycles are needed


    ---------------------------------------------------------------------------
                         Redundant Internal Coordinates
                            (Angstroem and degrees)

        Definition                    Value    dE/dq     Step     New-Value
    ----------------------------------------------------------------------------
     1. B(C   1,C   0)                1.3789 -0.000059 -0.0000    1.3789   
     2. B(C   2,C   1)                1.3887 -0.000216  0.0003    1.3890   
     3. B(C   3,C   2)                1.3910 -0.000125  0.0001    1.3912   
     4. B(C   4,C   3)                1.3766  0.000107 -0.0002    1.3765   
     5. B(C   5,C   4)                1.3924  0.000111 -0.0001    1.3922   
     6. B(C   5,C   0)                1.3924 -0.000145  0.0001    1.3925   
     7. B(C   6,C   2)                1.4731  0.000786 -0.0016    1.4716   
     8. B(N   7,C   6)                1.3227 -0.000614  0.0007    1.3235   
     9. B(C   8,N   7)                1.3315  0.000887 -0.0011    1.3304   
    10. B(N   9,C   8)                1.3397  0.000474 -0.0001    1.3396   
    11. B(C  10,N   9)                1.3190 -0.000013  0.0003    1.3194   
    12. B(N  11,C   6)                1.3348 -0.000960  0.0008    1.3356   
    13. B(N  11,C  10)                1.3210  0.000105 -0.0006    1.3204   
    14. B(C  12,C  10)                1.4863 -0.000518  0.0006    1.4868   
    15. B(C  13,C  12)                1.3885 -0.000375  0.0002    1.3887   
    16. B(C  14,C  13)                1.3810 -0.000077 -0.0001    1.3809   
    17. B(C  15,C  14)                1.3805 -0.000230  0.0001    1.3806   
    18. B(C  16,C  15)                1.3817  0.000301 -0.0001    1.3817   
    19. B(C  17,C  16)                1.3816 -0.000021  0.0002    1.3819   
    20. B(C  17,C  12)                1.3891  0.000228 -0.0001    1.3891   
    21. B(C  18,C   8)                1.4575 -0.000588  0.0011    1.4586   
    22. B(C  19,C  18)                1.3925 -0.000061 -0.0002    1.3924   
    23. B(C  20,C  19)                1.3730 -0.000218  0.0002    1.3732   
    24. B(C  21,C  20)                1.4001  0.000167 -0.0005    1.3996   
    25. B(C  22,C  21)                1.4013  0.000610 -0.0005    1.4009   
    26. B(C  23,C  22)                1.3743 -0.000082  0.0005    1.3747   
    27. B(C  23,C  18)                1.3922  0.000682 -0.0007    1.3915   
    28. B(C  24,C   5)                1.4820 -0.000758  0.0011    1.4831   
    29. B(S  25,C  24)                1.6205  0.000487 -0.0006    1.6198   
    30. B(S  26,C  24)                1.7459  0.000338 -0.0005    1.7454   
    31. B(N  27,C  21)                1.3896 -0.000846  0.0014    1.3910   
    32. B(C  28,N  27)                1.4239 -0.000391  0.0006    1.4244   
    33. B(C  29,C  28)                1.3887  0.000158 -0.0001    1.3887   
    34. B(S  30,C  29)                1.7635 -0.000243  0.0004    1.7639   
    35. B(C  31,S  30)                1.7618  0.000280 -0.0005    1.7614   
    36. B(C  32,C  31)                1.3897 -0.000136  0.0004    1.3901   
    37. B(C  32,N  27)                1.4216  0.000805 -0.0013    1.4203   
    38. B(C  33,C  31)                1.3867 -0.000110  0.0002    1.3869   
    39. B(C  34,C  33)                1.3822 -0.000052  0.0000    1.3823   
    40. B(C  35,C  34)                1.3861 -0.000008 -0.0000    1.3861   
    41. B(C  36,C  35)                1.3825 -0.000043  0.0000    1.3825   
    42. B(C  36,C  32)                1.3845 -0.000072  0.0001    1.3846   
    43. B(C  37,C  28)                1.3843 -0.000035  0.0001    1.3844   
    44. B(C  38,C  37)                1.3824 -0.000093  0.0001    1.3825   
    45. B(C  39,C  38)                1.3860  0.000037 -0.0001    1.3859   
    46. B(C  40,C  39)                1.3821 -0.000136  0.0001    1.3822   
    47. B(C  40,C  29)                1.3863 -0.000192  0.0002    1.3865   
    48. B(N  41,C  15)                1.4459 -0.000226  0.0003    1.4462   
    49. B(C  42,N  41)                1.3815  0.000267 -0.0004    1.3812   
    50. B(C  43,C  42)                1.4070  0.000128 -0.0001    1.4068   
    51. B(S  44,C  43)                1.7148 -0.000013  0.0001    1.7149   
    52. B(C  45,S  44)                1.7144 -0.000146  0.0002    1.7146   
    53. B(C  46,C  45)                1.4070 -0.000206  0.0002    1.4072   
    54. B(C  46,N  41)                1.3816 -0.000161  0.0001    1.3816   
    55. B(C  47,C  42)                1.4061  0.000022  0.0000    1.4061   
    56. B(C  48,C  47)                1.3674  0.000089 -0.0001    1.3673   
    57. B(C  49,C  48)                1.3977  0.000012 -0.0000    1.3977   
    58. B(C  50,C  49)                1.3675 -0.000047  0.0001    1.3675   
    59. B(C  50,C  43)                1.3983  0.000041 -0.0001    1.3982   
    60. B(C  51,C  45)                1.3984  0.000155 -0.0001    1.3982   
    61. B(C  52,C  51)                1.3674  0.000051  0.0000    1.3674   
    62. B(C  53,C  52)                1.3979  0.000043  0.0000    1.3979   
    63. B(C  54,C  46)                1.4062 -0.000124  0.0002    1.4063   
    64. B(C  54,C  53)                1.3673  0.000045 -0.0001    1.3672   
    65. B(H  55,C   0)                1.0807  0.000007 -0.0000    1.0806   
    66. B(H  56,C   1)                1.0793  0.000076 -0.0001    1.0793   
    67. B(H  57,C   3)                1.0794 -0.000009 -0.0000    1.0794   
    68. B(H  58,C   4)                1.0800  0.000001 -0.0000    1.0800   
    69. B(H  59,C  13)                1.0799  0.000226 -0.0002    1.0796   
    70. B(H  60,C  14)                1.0819  0.000021  0.0000    1.0819   
    71. B(H  61,C  16)                1.0819  0.000011  0.0000    1.0820   
    72. B(H  62,C  17)                1.0796 -0.000140  0.0002    1.0798   
    73. B(H  63,C  19)                1.0798  0.000124 -0.0002    1.0797   
    74. B(H  64,C  20)                1.0778  0.000198 -0.0003    1.0775   
    75. B(H  65,C  22)                1.0779 -0.000171  0.0002    1.0781   
    76. B(H  66,C  23)                1.0799 -0.000145  0.0002    1.0801   
    77. B(H  67,S  26)                1.3393 -0.000020  0.0001    1.3394   
    78. B(H  68,C  33)                1.0817 -0.000016  0.0000    1.0817   
    79. B(H  69,C  34)                1.0816 -0.000019  0.0001    1.0817   
    80. B(H  70,C  35)                1.0814  0.000006  0.0001    1.0815   
    81. B(H  71,C  36)                1.0814 -0.000016 -0.0000    1.0814   
    82. B(H  72,C  37)                1.0815  0.000047 -0.0001    1.0814   
    83. B(H  73,C  38)                1.0811  0.000005 -0.0000    1.0810   
    84. B(H  74,C  39)                1.0812  0.000001 -0.0000    1.0811   
    85. B(H  75,C  40)                1.0816 -0.000013  0.0000    1.0816   
    86. B(H  76,C  47)                1.0771 -0.000024  0.0000    1.0771   
    87. B(H  77,C  48)                1.0808 -0.000002 -0.0000    1.0808   
    88. B(H  78,C  49)                1.0805 -0.000012  0.0000    1.0805   
    89. B(H  79,C  50)                1.0820  0.000000 -0.0000    1.0820   
    90. B(H  80,C  51)                1.0820  0.000003 -0.0000    1.0820   
    91. B(H  81,C  52)                1.0805  0.000005  0.0000    1.0805   
    92. B(H  82,C  53)                1.0808  0.000010 -0.0000    1.0808   
    93. B(H  83,C  54)                1.0771  0.000052 -0.0000    1.0770   
    94. A(C   1,C   0,H  55)          119.50  0.000008    0.01    119.50   
    95. A(C   5,C   0,H  55)          119.97  0.000063   -0.01    119.95   
    96. A(C   1,C   0,C   5)          120.51 -0.000072    0.01    120.52   
    97. A(C   0,C   1,C   2)          120.40  0.000014   -0.00    120.40   
    98. A(C   0,C   1,H  56)          120.31  0.000187   -0.04    120.27   
    99. A(C   2,C   1,H  56)          119.28 -0.000201    0.04    119.33   
   100. A(C   3,C   2,C   6)          120.42  0.000544   -0.06    120.36   
   101. A(C   1,C   2,C   3)          119.22  0.000166   -0.02    119.20   
   102. A(C   1,C   2,C   6)          120.36 -0.000710    0.08    120.44   
   103. A(C   2,C   3,H  57)          119.18 -0.000044    0.02    119.20   
   104. A(C   4,C   3,H  57)          120.44  0.000153   -0.03    120.41   
   105. A(C   2,C   3,C   4)          120.38 -0.000109    0.00    120.39   
   106. A(C   3,C   4,H  58)          120.51 -0.000019    0.01    120.52   
   107. A(C   5,C   4,H  58)          118.90  0.000119   -0.03    118.88   
   108. A(C   3,C   4,C   5)          120.59 -0.000100    0.02    120.61   
   109. A(C   0,C   5,C   4)          118.88  0.000103   -0.01    118.87   
   110. A(C   4,C   5,C  24)          119.76  0.000188   -0.04    119.73   
   111. A(C   0,C   5,C  24)          121.35 -0.000291    0.05    121.40   
   112. A(N   7,C   6,N  11)          123.61  0.001028   -0.20    123.41   
   113. A(C   2,C   6,N   7)          118.42  0.000079    0.06    118.47   
   114. A(C   2,C   6,N  11)          117.97 -0.001110    0.14    118.11   
   115. A(C   6,N   7,C   8)          117.16 -0.000314    0.07    117.23   
   116. A(N   7,C   8,N   9)          122.84 -0.000691    0.13    122.97   
   117. A(N   7,C   8,C  18)          118.28 -0.000034   -0.14    118.14   
   118. A(N   9,C   8,C  18)          118.87  0.000722    0.02    118.89   
   119. A(C   8,N   9,C  10)          115.50  0.000427   -0.15    115.35   
   120. A(N  11,C  10,C  12)          116.63 -0.000913   -0.08    116.55   
   121. A(N   9,C  10,N  11)          125.71 -0.000196    0.07    125.78   
   122. A(N   9,C  10,C  12)          117.65  0.001103    0.01    117.66   
   123. A(C   6,N  11,C  10)          115.18 -0.000256    0.09    115.27   
   124. A(C  10,C  12,C  17)          120.49  0.000528    0.06    120.55   
   125. A(C  13,C  12,C  17)          119.70  0.000098   -0.00    119.70   
   126. A(C  10,C  12,C  13)          119.81 -0.000631   -0.06    119.75   
   127. A(C  14,C  13,H  59)          120.81 -0.000135    0.01    120.82   
   128. A(C  12,C  13,H  59)          118.78  0.000050   -0.02    118.76   
   129. A(C  12,C  13,C  14)          120.41  0.000082    0.01    120.42   
   130. A(C  13,C  14,C  15)          118.94  0.000046   -0.01    118.93   
   131. A(C  15,C  14,H  60)          120.24 -0.000100    0.03    120.27   
   132. A(C  13,C  14,H  60)          120.81  0.000053   -0.01    120.80   
   133. A(C  14,C  15,C  16)          121.66 -0.000084    0.02    121.69   
   134. A(C  16,C  15,N  41)          119.25 -0.000174    0.08    119.34   
   135. A(C  14,C  15,N  41)          119.08  0.000256   -0.11    118.97   
   136. A(C  15,C  16,C  17)          118.97  0.000055   -0.02    118.95   
   137. A(C  15,C  16,H  61)          120.22  0.000019   -0.00    120.21   
   138. A(C  17,C  16,H  61)          120.81 -0.000077    0.02    120.83   
   139. A(C  12,C  17,H  62)          118.77  0.000251   -0.04    118.74   
   140. A(C  12,C  17,C  16)          120.31 -0.000199    0.01    120.32   
   141. A(C  16,C  17,H  62)          120.92 -0.000053    0.03    120.95   
   142. A(C   8,C  18,C  19)          120.67 -0.000112   -0.09    120.58   
   143. A(C  19,C  18,C  23)          117.86 -0.000193    0.02    117.88   
   144. A(C   8,C  18,C  23)          121.45  0.000301    0.08    121.53   
   145. A(C  20,C  19,H  63)          119.62 -0.000082    0.01    119.63   
   146. A(C  18,C  19,H  63)          119.00 -0.000025   -0.01    118.98   
   147. A(C  18,C  19,C  20)          121.37  0.000103    0.01    121.38   
   148. A(C  19,C  20,H  64)          119.17  0.000125   -0.03    119.14   
   149. A(C  19,C  20,C  21)          120.78  0.000252   -0.03    120.75   
   150. A(C  21,C  20,H  64)          120.05 -0.000378    0.06    120.10   
   151. A(C  22,C  21,N  27)          121.24  0.001393   -0.10    121.15   
   152. A(C  20,C  21,N  27)          120.85 -0.001209    0.09    120.94   
   153. A(C  20,C  21,C  22)          117.90 -0.000186    0.02    117.92   
   154. A(C  23,C  22,H  65)          119.24  0.000031   -0.01    119.24   
   155. A(C  21,C  22,H  65)          120.05  0.000083   -0.01    120.04   
   156. A(C  21,C  22,C  23)          120.69 -0.000121    0.02    120.71   
   157. A(C  18,C  23,H  66)          119.06 -0.000003    0.00    119.06   
   158. A(C  22,C  23,H  66)          119.56 -0.000144    0.04    119.60   
   159. A(C  18,C  23,C  22)          121.38  0.000146   -0.04    121.34   
   160. A(S  25,C  24,S  26)          123.93 -0.000486    0.09    124.01   
   161. A(C   5,C  24,S  26)          113.04 -0.000248    0.03    113.07   
   162. A(C   5,C  24,S  25)          123.03  0.000731   -0.15    122.88   
   163. A(C  24,S  26,H  67)           95.68 -0.000196    0.05     95.73   
   164. A(C  28,N  27,C  32)          114.19 -0.000240    0.13    114.32   
   165. A(C  21,N  27,C  32)          120.75  0.001556   -0.20    120.55   
   166. A(C  21,N  27,C  28)          120.47 -0.001320    0.13    120.59   
   167. A(N  27,C  28,C  29)          118.58 -0.000105    0.09    118.67   
   168. A(C  29,C  28,C  37)          119.94  0.000157   -0.04    119.90   
   169. A(N  27,C  28,C  37)          121.47 -0.000051   -0.05    121.42   
   170. A(C  28,C  29,S  30)          119.05  0.000238    0.03    119.08   
   171. A(C  28,C  29,C  40)          120.02 -0.000149    0.02    120.04   
   172. A(S  30,C  29,C  40)          120.93 -0.000089   -0.05    120.88   
   173. A(C  29,S  30,C  31)           98.03 -0.000257    0.12     98.15   
   174. A(C  32,C  31,C  33)          119.94  0.000077   -0.03    119.92   
   175. A(S  30,C  31,C  33)          120.98 -0.000155   -0.02    120.96   
   176. A(S  30,C  31,C  32)          119.07  0.000078    0.05    119.12   
   177. A(C  31,C  32,C  36)          119.91  0.000045   -0.01    119.90   
   178. A(N  27,C  32,C  36)          121.47  0.000067   -0.07    121.39   
   179. A(N  27,C  32,C  31)          118.61 -0.000115    0.09    118.70   
   180. A(C  31,C  33,H  68)          119.58  0.000131   -0.03    119.54   
   181. A(C  31,C  33,C  34)          119.85 -0.000077    0.03    119.87   
   182. A(C  34,C  33,H  68)          120.57 -0.000054    0.01    120.58   
   183. A(C  35,C  34,H  69)          120.15 -0.000009    0.00    120.15   
   184. A(C  33,C  34,H  69)          119.64  0.000000    0.00    119.64   
   185. A(C  33,C  34,C  35)          120.19  0.000008   -0.00    120.19   
   186. A(C  36,C  35,H  70)          119.83  0.000032   -0.00    119.82   
   187. A(C  34,C  35,H  70)          120.16 -0.000072    0.02    120.18   
   188. A(C  34,C  35,C  36)          120.00  0.000040   -0.01    119.99   
   189. A(C  35,C  36,H  71)          120.97 -0.000052    0.01    120.98   
   190. A(C  32,C  36,H  71)          119.01  0.000146   -0.04    118.97   
   191. A(C  32,C  36,C  35)          120.01 -0.000093    0.03    120.04   
   192. A(C  28,C  37,H  72)          119.10 -0.000009   -0.00    119.10   
   193. A(C  28,C  37,C  38)          119.94 -0.000144    0.03    119.96   
   194. A(C  38,C  37,H  72)          120.95  0.000151   -0.03    120.92   
   195. A(C  37,C  38,C  39)          120.04  0.000032   -0.01    120.03   
   196. A(C  39,C  38,H  73)          120.14  0.000012   -0.00    120.14   
   197. A(C  37,C  38,H  73)          119.82 -0.000044    0.01    119.83   
   198. A(C  38,C  39,C  40)          120.21  0.000030   -0.01    120.21   
   199. A(C  40,C  39,H  74)          119.68 -0.000040    0.01    119.68   
   200. A(C  38,C  39,H  74)          120.10  0.000011   -0.00    120.10   
   201. A(C  29,C  40,C  39)          119.77  0.000076   -0.00    119.76   
   202. A(C  39,C  40,H  75)          120.53  0.000084   -0.02    120.50   
   203. A(C  29,C  40,H  75)          119.71 -0.000160    0.03    119.73   
   204. A(C  42,N  41,C  46)          125.18  0.000043   -0.00    125.18   
   205. A(C  15,N  41,C  46)          117.34 -0.000874    0.08    117.42   
   206. A(C  15,N  41,C  42)          117.47  0.000831   -0.08    117.39   
   207. A(C  43,C  42,C  47)          117.95 -0.000089    0.02    117.97   
   208. A(N  41,C  42,C  47)          119.84  0.000399   -0.06    119.79   
   209. A(N  41,C  42,C  43)          122.21 -0.000311    0.04    122.25   
   210. A(S  44,C  43,C  50)          116.04 -0.000207    0.04    116.08   
   211. A(C  42,C  43,C  50)          120.43  0.000032   -0.01    120.42   
   212. A(C  42,C  43,S  44)          123.53  0.000175   -0.03    123.50   
   213. A(C  43,S  44,C  45)          103.32 -0.000049    0.01    103.33   
   214. A(C  46,C  45,C  51)          120.44 -0.000071    0.01    120.45   
   215. A(S  44,C  45,C  51)          116.06  0.000059    0.01    116.06   
   216. A(S  44,C  45,C  46)          123.50  0.000012   -0.01    123.49   
   217. A(C  45,C  46,C  54)          117.93  0.000134   -0.01    117.92   
   218. A(N  41,C  46,C  54)          119.82 -0.000265    0.02    119.83   
   219. A(N  41,C  46,C  45)          122.25  0.000131   -0.01    122.25   
   220. A(C  42,C  47,C  48)          120.74  0.000012   -0.01    120.73   
   221. A(C  48,C  47,H  76)          119.70 -0.000084    0.02    119.72   
   222. A(C  42,C  47,H  76)          119.56  0.000072   -0.01    119.55   
   223. A(C  47,C  48,C  49)          120.90  0.000060   -0.01    120.89   
   224. A(C  49,C  48,H  77)          119.90 -0.000057    0.01    119.91   
   225. A(C  47,C  48,H  77)          119.20 -0.000003   -0.00    119.20   
   226. A(C  48,C  49,C  50)          119.55 -0.000064    0.01    119.56   
   227. A(C  50,C  49,H  78)          120.13  0.000021   -0.00    120.13   
   228. A(C  48,C  49,H  78)          120.32  0.000043   -0.01    120.31   
   229. A(C  43,C  50,C  49)          120.44  0.000050   -0.01    120.43   
   230. A(C  49,C  50,H  79)          120.56 -0.000051    0.01    120.57   
   231. A(C  43,C  50,H  79)          119.00  0.000001   -0.00    118.99   
   232. A(C  45,C  51,C  52)          120.43 -0.000001   -0.00    120.43   
   233. A(C  52,C  51,H  80)          120.56 -0.000007    0.00    120.56   
   234. A(C  45,C  51,H  80)          119.00  0.000008    0.00    119.00   
   235. A(C  51,C  52,C  53)          119.55 -0.000021    0.01    119.55   
   236. A(C  53,C  52,H  81)          120.32  0.000024   -0.01    120.31   
   237. A(C  51,C  52,H  81)          120.14 -0.000003    0.00    120.14   
   238. A(C  52,C  53,C  54)          120.90 -0.000038    0.00    120.90   
   239. A(C  54,C  53,H  82)          119.21  0.000015   -0.00    119.21   
   240. A(C  52,C  53,H  82)          119.89  0.000022    0.00    119.89   
   241. A(C  46,C  54,C  53)          120.75 -0.000003    0.00    120.75   
   242. A(C  53,C  54,H  83)          119.71  0.000008    0.00    119.71   
   243. A(C  46,C  54,H  83)          119.55 -0.000005   -0.00    119.54   
   244. D(H  56,C   1,C   0,C   5)    178.91 -0.000049   -0.01    178.90   
   245. D(H  56,C   1,C   0,H  55)      0.67 -0.000016   -0.02      0.64   
   246. D(C   2,C   1,C   0,H  55)   -179.43  0.000068   -0.04   -179.47   
   247. D(C   2,C   1,C   0,C   5)     -1.19  0.000035   -0.03     -1.22   
   248. D(C   3,C   2,C   1,H  56)   -179.36  0.000088   -0.13   -179.49   
   249. D(C   6,C   2,C   1,C   0)   -179.34  0.000017   -0.44   -179.78   
   250. D(C   3,C   2,C   1,C   0)      0.74  0.000004   -0.11      0.62   
   251. D(C   6,C   2,C   1,H  56)      0.56  0.000101   -0.46      0.11   
   252. D(C   4,C   3,C   2,C   1)      0.41 -0.000043    0.15      0.55   
   253. D(C   4,C   3,C   2,C   6)   -179.52 -0.000055    0.47   -179.04   
   254. D(H  57,C   3,C   2,C   1)   -179.96 -0.000041    0.02   -179.94   
   255. D(H  57,C   3,C   2,C   6)      0.12 -0.000053    0.34      0.46   
   256. D(H  58,C   4,C   3,C   2)    178.97 -0.000011   -0.10    178.87   
   257. D(C   5,C   4,C   3,H  57)    179.27  0.000044    0.09    179.36   
   258. D(C   5,C   4,C   3,C   2)     -1.10  0.000045   -0.04     -1.14   
   259. D(H  58,C   4,C   3,H  57)     -0.66 -0.000012    0.03     -0.63   
   260. D(C   4,C   5,C   0,C   1)      0.49 -0.000035    0.14      0.63   
   261. D(C   0,C   5,C   4,H  58)   -179.42  0.000050   -0.04   -179.46   
   262. D(C  24,C   5,C   4,C   3)    179.99 -0.000031   -0.20    179.79   
   263. D(C  24,C   5,C   4,H  58)     -0.08  0.000024   -0.14     -0.21   
   264. D(C  24,C   5,C   0,H  55)     -0.60 -0.000046    0.24     -0.36   
   265. D(C   0,C   5,C   4,C   3)      0.65 -0.000005   -0.10      0.55   
   266. D(C   4,C   5,C   0,H  55)    178.73 -0.000069    0.15    178.87   
   267. D(C  24,C   5,C   0,C   1)   -178.83 -0.000012    0.23   -178.60   
   268. D(N  11,C   6,C   2,C   1)     -8.51 -0.000182    0.47     -8.04   
   269. D(N   7,C   6,C   2,C   3)     -8.06  0.000178   -0.11     -8.17   
   270. D(N  11,C   6,C   2,C   3)    171.41 -0.000169    0.14    171.55   
   271. D(N   7,C   6,C   2,C   1)    172.02  0.000165    0.22    172.24   
   272. D(C   8,N   7,C   6,N  11)      0.67  0.000320   -0.70     -0.04   
   273. D(C   8,N   7,C   6,C   2)   -179.89 -0.000060   -0.44   -180.33   
   274. D(N   9,C   8,N   7,C   6)     -0.63  0.000006   -0.03     -0.65   
   275. D(C  18,C   8,N   7,C   6)    178.82 -0.000438    0.77    179.59   
   276. D(C  10,N   9,C   8,C  18)   -179.23  0.000223   -0.15   -179.39   
   277. D(C  10,N   9,C   8,N   7)      0.21 -0.000228    0.64      0.85   
   278. D(C  12,C  10,N   9,C   8)    179.66 -0.000477    0.36    180.02   
   279. D(N  11,C  10,N   9,C   8)      0.22  0.000166   -0.62     -0.40   
   280. D(C   6,N  11,C  10,C  12)   -179.63  0.000741   -1.02   -180.64   
   281. D(C  10,N  11,C   6,N   7)     -0.28 -0.000372    0.73      0.45   
   282. D(C  10,N  11,C   6,C   2)   -179.73  0.000001    0.47   -179.26   
   283. D(C   6,N  11,C  10,N   9)     -0.19  0.000114   -0.03     -0.21   
   284. D(C  17,C  12,C  10,N  11)    173.04 -0.000762    2.52    175.56   
   285. D(C  13,C  12,C  10,N  11)     -6.21 -0.000407    2.03     -4.18   
   286. D(C  13,C  12,C  10,N   9)    174.30  0.000175    1.12    175.43   
   287. D(C  17,C  12,C  10,N   9)     -6.45 -0.000181    1.62     -4.83   
   288. D(H  59,C  13,C  12,C  17)   -179.84  0.000153   -0.26   -180.10   
   289. D(H  59,C  13,C  12,C  10)     -0.59 -0.000197    0.23     -0.36   
   290. D(C  14,C  13,C  12,C  17)     -0.36 -0.000142    0.04     -0.32   
   291. D(C  14,C  13,C  12,C  10)    178.90 -0.000492    0.53    179.42   
   292. D(C  15,C  14,C  13,H  59)    179.40 -0.000325    0.46    179.86   
   293. D(H  60,C  14,C  13,H  59)     -0.28 -0.000092    0.13     -0.15   
   294. D(C  15,C  14,C  13,C  12)     -0.07 -0.000025    0.16      0.08   
   295. D(H  60,C  14,C  13,C  12)   -179.76  0.000208   -0.17   -179.93   
   296. D(N  41,C  15,C  14,H  60)      0.61  0.000249   -0.30      0.31   
   297. D(N  41,C  15,C  14,C  13)   -179.08  0.000480   -0.63   -179.71   
   298. D(C  16,C  15,C  14,C  13)      0.49  0.000198   -0.22      0.27   
   299. D(C  16,C  15,C  14,H  60)   -179.82 -0.000034    0.11   -179.71   
   300. D(H  61,C  16,C  15,N  41)     -0.31 -0.000177    0.20     -0.11   
   301. D(H  61,C  16,C  15,C  14)   -179.88  0.000105   -0.21   -180.09   
   302. D(C  17,C  16,C  15,N  41)    179.10 -0.000480    0.50    179.60   
   303. D(C  17,C  16,C  15,C  14)     -0.47 -0.000198    0.09     -0.38   
   304. D(C  16,C  17,C  12,C  13)      0.38  0.000140   -0.17      0.21   
   305. D(C  16,C  17,C  12,C  10)   -178.87  0.000501   -0.66   -179.52   
   306. D(H  62,C  17,C  12,C  10)      0.84  0.000273   -0.33      0.51   
   307. D(H  62,C  17,C  16,H  61)     -0.27 -0.000045    0.07     -0.20   
   308. D(H  62,C  17,C  16,C  15)   -179.68  0.000259   -0.23   -179.91   
   309. D(C  12,C  17,C  16,H  61)    179.43 -0.000277    0.41    179.84   
   310. D(C  12,C  17,C  16,C  15)      0.02  0.000027    0.11      0.13   
   311. D(H  62,C  17,C  12,C  13)   -179.91 -0.000087    0.16   -179.75   
   312. D(C  23,C  18,C   8,N   9)     -0.74 -0.000105   -0.58     -1.32   
   313. D(C  23,C  18,C   8,N   7)    179.80  0.000329   -1.35    178.45   
   314. D(C  19,C  18,C   8,N   9)    177.95 -0.000312   -0.22    177.73   
   315. D(C  19,C  18,C   8,N   7)     -1.51  0.000122   -0.99     -2.50   
   316. D(H  63,C  19,C  18,C  23)    178.80 -0.000067    0.09    178.89   
   317. D(H  63,C  19,C  18,C   8)      0.07  0.000127   -0.26     -0.19   
   318. D(C  20,C  19,C  18,C  23)     -0.30  0.000240   -0.32     -0.62   
   319. D(C  20,C  19,C  18,C   8)   -179.04  0.000433   -0.67   -179.71   
   320. D(H  64,C  20,C  19,H  63)     -0.38  0.000067   -0.09     -0.46   
   321. D(H  64,C  20,C  19,C  18)    178.72 -0.000240    0.32    179.04   
   322. D(C  21,C  20,C  19,H  63)   -179.45  0.000129   -0.24   -179.69   
   323. D(C  21,C  20,C  19,C  18)     -0.35 -0.000179    0.17     -0.18   
   324. D(N  27,C  21,C  20,H  64)      1.07 -0.000216    0.40      1.47   
   325. D(C  22,C  21,C  20,H  64)   -178.37 -0.000007    0.00   -178.37   
   326. D(C  22,C  21,C  20,C  19)      0.69 -0.000064    0.16      0.85   
   327. D(N  27,C  21,C  20,C  19)   -179.87 -0.000273    0.55   -179.32   
   328. D(H  65,C  22,C  21,N  27)     -1.19  0.000143   -0.29     -1.48   
   329. D(H  65,C  22,C  21,C  20)    178.25 -0.000082    0.11    178.35   
   330. D(C  23,C  22,C  21,N  27)   -179.83  0.000470   -0.73   -180.56   
   331. D(C  23,C  22,C  21,C  20)     -0.39  0.000244   -0.33     -0.72   
   332. D(H  66,C  23,C  22,H  65)      0.88  0.000079   -0.11      0.77   
   333. D(C  18,C  23,C  22,H  65)   -178.91  0.000140   -0.25   -179.16   
   334. D(C  18,C  23,C  22,C  21)     -0.26 -0.000183    0.18     -0.08   
   335. D(H  66,C  23,C  18,C  19)   -179.18  0.000002    0.00   -179.18   
   336. D(H  66,C  23,C  22,C  21)    179.53 -0.000244    0.32    179.85   
   337. D(H  66,C  23,C  18,C   8)     -0.45 -0.000198    0.35     -0.10   
   338. D(C  22,C  23,C  18,C  19)      0.61 -0.000059    0.14      0.75   
   339. D(C  22,C  23,C  18,C   8)    179.33 -0.000259    0.49    179.82   
   340. D(S  26,C  24,C   5,C   4)    146.53  0.000423   -1.60    144.93   
   341. D(S  26,C  24,C   5,C   0)    -34.15  0.000400   -1.69    -35.84   
   342. D(S  25,C  24,C   5,C   4)    -33.73 -0.000268    1.36    -32.37   
   343. D(S  25,C  24,C   5,C   0)    145.59 -0.000291    1.26    146.85   
   344. D(H  67,S  26,C  24,S  25)     -2.76  0.000513   -2.94     -5.70   
   345. D(H  67,S  26,C  24,C   5)    176.98 -0.000182    0.04    177.02   
   346. D(C  32,N  27,C  21,C  22)     12.29 -0.000342    0.29     12.58   
   347. D(C  32,N  27,C  21,C  20)   -167.13 -0.000116   -0.12   -167.25   
   348. D(C  28,N  27,C  21,C  22)    166.88 -0.000413    0.48    167.35   
   349. D(C  28,N  27,C  21,C  20)    -12.54 -0.000188    0.07    -12.47   
   350. D(C  37,C  28,N  27,C  32)   -128.67  0.000065   -0.06   -128.73   
   351. D(C  37,C  28,N  27,C  21)     75.18 -0.000325   -0.16     75.02   
   352. D(C  29,C  28,N  27,C  32)     50.53  0.000252   -0.18     50.34   
   353. D(C  29,C  28,N  27,C  21)   -105.62 -0.000138   -0.28   -105.91   
   354. D(C  40,C  29,C  28,C  37)     -2.40  0.000036   -0.18     -2.59   
   355. D(C  40,C  29,C  28,N  27)    178.39 -0.000146   -0.06    178.33   
   356. D(S  30,C  29,C  28,C  37)    176.86  0.000121   -0.36    176.50   
   357. D(S  30,C  29,C  28,N  27)     -2.35 -0.000060   -0.24     -2.58   
   358. D(C  31,S  30,C  29,C  40)    143.49 -0.000140    0.26    143.75   
   359. D(C  31,S  30,C  29,C  28)    -35.76 -0.000226    0.43    -35.33   
   360. D(C  33,C  31,S  30,C  29)   -143.16  0.000173   -0.58   -143.73   
   361. D(C  32,C  31,S  30,C  29)     35.96  0.000167   -0.24     35.72   
   362. D(C  36,C  32,C  31,C  33)      2.49  0.000084   -0.23      2.26   
   363. D(C  36,C  32,C  31,S  30)   -176.63  0.000093   -0.56   -177.19   
   364. D(N  27,C  32,C  31,C  33)   -178.88 -0.000070    0.24   -178.64   
   365. D(N  27,C  32,C  31,S  30)      1.99 -0.000062   -0.09      1.90   
   366. D(C  36,C  32,N  27,C  28)    128.28 -0.000371    0.85    129.13   
   367. D(C  36,C  32,N  27,C  21)    -75.65 -0.000734    1.04    -74.61   
   368. D(C  31,C  32,N  27,C  28)    -50.33 -0.000213    0.38    -49.95   
   369. D(C  31,C  32,N  27,C  21)    105.75 -0.000577    0.56    106.31   
   370. D(C  34,C  33,C  31,S  30)    179.27 -0.000108    0.55    179.82   
   371. D(H  68,C  33,C  31,C  32)   -179.07 -0.000046    0.02   -179.05   
   372. D(H  68,C  33,C  31,S  30)      0.04 -0.000052    0.36      0.40   
   373. D(C  34,C  33,C  31,C  32)      0.16 -0.000102    0.21      0.37   
   374. D(H  69,C  34,C  33,H  68)     -1.02  0.000001    0.06     -0.96   
   375. D(H  69,C  34,C  33,C  31)    179.76  0.000056   -0.14    179.62   
   376. D(C  35,C  34,C  33,H  68)    177.27 -0.000016    0.16    177.43   
   377. D(C  35,C  34,C  33,C  31)     -1.94  0.000039   -0.04     -1.98   
   378. D(H  70,C  35,C  34,H  69)      0.19  0.000017   -0.02      0.17   
   379. D(H  70,C  35,C  34,C  33)   -178.09  0.000034   -0.12   -178.21   
   380. D(C  36,C  35,C  34,H  69)    179.36  0.000027   -0.02    179.34   
   381. D(C  36,C  35,C  34,C  33)      1.07  0.000044   -0.12      0.95   
   382. D(H  71,C  36,C  35,H  70)     -0.22  0.000038   -0.06     -0.27   
   383. D(H  71,C  36,C  35,C  34)   -179.38  0.000029   -0.06   -179.44   
   384. D(C  32,C  36,C  35,H  70)   -179.24 -0.000056    0.10   -179.14   
   385. D(C  32,C  36,C  35,C  34)      1.60 -0.000065    0.10      1.70   
   386. D(H  71,C  36,C  32,C  31)    177.58 -0.000089    0.23    177.82   
   387. D(H  71,C  36,C  32,N  27)     -1.00  0.000073   -0.25     -1.25   
   388. D(C  35,C  36,C  32,C  31)     -3.37  0.000002    0.07     -3.30   
   389. D(C  35,C  36,C  32,N  27)    178.04  0.000164   -0.41    177.63   
   390. D(H  72,C  37,C  28,C  29)   -178.14 -0.000114    0.12   -178.02   
   391. D(H  72,C  37,C  28,N  27)      1.04  0.000073   -0.00      1.04   
   392. D(C  38,C  37,C  28,C  29)      3.37 -0.000040    0.19      3.56   
   393. D(C  38,C  37,C  28,N  27)   -177.45  0.000147    0.07   -177.38   
   394. D(H  73,C  38,C  37,H  72)      0.23  0.000061   -0.06      0.17   
   395. D(H  73,C  38,C  37,C  28)    178.69 -0.000017   -0.13    178.56   
   396. D(C  39,C  38,C  37,H  72)    179.86  0.000076    0.04    179.91   
   397. D(C  39,C  38,C  37,C  28)     -1.68 -0.000002   -0.03     -1.70   
   398. D(H  74,C  39,C  38,H  73)     -0.10  0.000020   -0.01     -0.11   
   399. D(H  74,C  39,C  38,C  37)   -179.73  0.000004   -0.11   -179.84   
   400. D(C  40,C  39,C  38,H  73)    178.63  0.000068   -0.04    178.59   
   401. D(C  40,C  39,C  38,C  37)     -1.00  0.000052   -0.14     -1.15   
   402. D(H  75,C  40,C  39,H  74)      1.13 -0.000000    0.04      1.17   
   403. D(H  75,C  40,C  39,C  38)   -177.60 -0.000049    0.07   -177.53   
   404. D(C  29,C  40,C  39,H  74)   -179.29 -0.000004    0.11   -179.18   
   405. D(C  29,C  40,C  39,C  38)      1.97 -0.000052    0.14      2.12   
   406. D(H  75,C  40,C  29,S  30)      0.06 -0.000086    0.27      0.33   
   407. D(H  75,C  40,C  29,C  28)    179.31  0.000004    0.09    179.40   
   408. D(C  39,C  40,C  29,S  30)   -179.52 -0.000083    0.20   -179.32   
   409. D(C  39,C  40,C  29,C  28)     -0.27  0.000006    0.02     -0.25   
   410. D(C  46,N  41,C  15,C  16)    -90.13  0.000209   -0.11    -90.24   
   411. D(C  46,N  41,C  15,C  14)     89.45 -0.000067    0.29     89.73   
   412. D(C  42,N  41,C  15,C  16)     90.58  0.000177    0.25     90.84   
   413. D(C  42,N  41,C  15,C  14)    -89.84 -0.000099    0.65    -89.19   
   414. D(C  47,C  42,N  41,C  46)   -179.03  0.000238   -0.33   -179.36   
   415. D(C  47,C  42,N  41,C  15)      0.20  0.000266   -0.73     -0.54   
   416. D(C  43,C  42,N  41,C  46)      0.39  0.000030   -0.07      0.32   
   417. D(C  43,C  42,N  41,C  15)    179.61  0.000058   -0.47    179.14   
   418. D(C  50,C  43,C  42,C  47)      0.00 -0.000073    0.12      0.13   
   419. D(C  50,C  43,C  42,N  41)   -179.42  0.000129   -0.13   -179.56   
   420. D(S  44,C  43,C  42,C  47)    179.59 -0.000236    0.33    179.92   
   421. D(S  44,C  43,C  42,N  41)      0.17 -0.000034    0.07      0.24   
   422. D(C  45,S  44,C  43,C  50)    179.16 -0.000160    0.28    179.44   
   423. D(C  45,S  44,C  43,C  42)     -0.45 -0.000005    0.09     -0.36   
   424. D(C  51,C  45,S  44,C  43)   -179.41  0.000051   -0.13   -179.54   
   425. D(C  46,C  45,S  44,C  43)      0.31  0.000053   -0.28      0.03   
   426. D(C  54,C  46,C  45,C  51)     -0.07 -0.000076    0.19      0.13   
   427. D(C  54,C  46,C  45,S  44)   -179.77 -0.000079    0.34   -179.42   
   428. D(N  41,C  46,C  45,C  51)    179.83 -0.000064    0.17    180.00   
   429. D(N  41,C  46,C  45,S  44)      0.13 -0.000067    0.32      0.45   
   430. D(C  54,C  46,N  41,C  42)    179.35  0.000035   -0.15    179.20   
   431. D(C  54,C  46,N  41,C  15)      0.13 -0.000006    0.25      0.37   
   432. D(C  45,C  46,N  41,C  42)     -0.54  0.000022   -0.13     -0.67   
   433. D(C  45,C  46,N  41,C  15)   -179.77 -0.000018    0.27   -179.50   
   434. D(H  76,C  47,C  42,C  43)   -179.62  0.000134   -0.15   -179.77   
   435. D(H  76,C  47,C  42,N  41)     -0.18 -0.000066    0.10     -0.08   
   436. D(C  48,C  47,C  42,C  43)     -0.04  0.000078   -0.15     -0.19   
   437. D(C  48,C  47,C  42,N  41)    179.40 -0.000123    0.10    179.50   
   438. D(H  77,C  48,C  47,H  76)     -0.03 -0.000058    0.10      0.06   
   439. D(H  77,C  48,C  47,C  42)   -179.62 -0.000002    0.10   -179.52   
   440. D(C  49,C  48,C  47,H  76)    179.62 -0.000079    0.05    179.67   
   441. D(C  49,C  48,C  47,C  42)      0.04 -0.000023    0.05      0.09   
   442. D(H  78,C  49,C  48,H  77)     -0.04 -0.000013    0.03     -0.01   
   443. D(H  78,C  49,C  48,C  47)   -179.69  0.000008    0.08   -179.61   
   444. D(C  50,C  49,C  48,H  77)    179.65 -0.000061    0.03    179.68   
   445. D(C  50,C  49,C  48,C  47)      0.00 -0.000039    0.08      0.08   
   446. D(H  79,C  50,C  49,H  78)     -0.01  0.000022   -0.03     -0.04   
   447. D(H  79,C  50,C  49,C  48)   -179.71  0.000069   -0.02   -179.73   
   448. D(C  43,C  50,C  49,H  78)    179.65 -0.000003   -0.11    179.55   
   449. D(C  43,C  50,C  49,C  48)     -0.04  0.000044   -0.10     -0.14   
   450. D(H  79,C  50,C  43,S  44)      0.09  0.000137   -0.26     -0.18   
   451. D(H  79,C  50,C  43,C  42)    179.71 -0.000012   -0.08    179.63   
   452. D(C  49,C  50,C  43,S  44)   -179.58  0.000162   -0.19   -179.77   
   453. D(C  49,C  50,C  43,C  42)      0.04  0.000012   -0.00      0.04   
   454. D(H  80,C  51,C  45,C  46)   -179.71  0.000015    0.05   -179.66   
   455. D(H  80,C  51,C  45,S  44)      0.01  0.000018   -0.09     -0.08   
   456. D(C  52,C  51,C  45,C  46)     -0.06  0.000039   -0.10     -0.17   
   457. D(C  52,C  51,C  45,S  44)    179.66  0.000042   -0.25    179.41   
   458. D(H  81,C  52,C  51,H  80)      0.01  0.000009   -0.03     -0.02   
   459. D(H  81,C  52,C  51,C  45)   -179.63 -0.000015    0.13   -179.51   
   460. D(C  53,C  52,C  51,H  80)    179.72  0.000047   -0.20    179.52   
   461. D(C  53,C  52,C  51,C  45)      0.08  0.000023   -0.05      0.04   
   462. D(H  82,C  53,C  52,H  81)     -0.07 -0.000008   -0.00     -0.08   
   463. D(H  82,C  53,C  52,C  51)   -179.79 -0.000046    0.17   -179.62   
   464. D(C  54,C  53,C  52,H  81)    179.74 -0.000009   -0.07    179.68   
   465. D(C  54,C  53,C  52,C  51)      0.03 -0.000047    0.11      0.14   
   466. D(H  83,C  54,C  53,H  82)     -0.10 -0.000001   -0.02     -0.12   
   467. D(H  83,C  54,C  53,C  52)   -179.92  0.000000    0.04   -179.88   
   468. D(C  46,C  54,C  53,H  82)    179.65  0.000007   -0.08    179.58   
   469. D(C  46,C  54,C  53,C  52)     -0.16  0.000009   -0.01     -0.18   
   470. D(H  83,C  54,C  46,C  45)    179.93  0.000061   -0.19    179.75   
   471. D(H  83,C  54,C  46,N  41)      0.03  0.000048   -0.17     -0.13   
   472. D(C  53,C  54,C  46,C  45)      0.18  0.000052   -0.13      0.05   
   473. D(C  53,C  54,C  46,N  41)   -179.72  0.000040   -0.11   -179.83   
    ----------------------------------------------------------------------------

         *************************************************************
         *                GEOMETRY OPTIMIZATION CYCLE   3            *
         *************************************************************
---------------------------------
CARTESIAN COORDINATES (ANGSTROEM)
---------------------------------
  C     -8.271569   -1.184503    0.194815
  C     -6.894391   -1.182750    0.126942
  C     -6.185643    0.004501    0.258968
  C     -6.881356    1.189984    0.473537
  C     -8.254738    1.184435    0.565295
  C     -8.969952   -0.001376    0.421593
  C     -4.716108    0.008072    0.181909
  N     -4.088363    1.172915    0.156080
  C     -2.759704    1.147084    0.093107
  N     -2.053084    0.009317    0.068717
  C     -2.767309   -1.099752    0.093871
  N     -4.084803   -1.168438    0.147400
  C     -2.034742   -2.393329    0.069221
  C     -2.736949   -3.585282    0.190158
  C     -2.071808   -4.795015    0.157044
  C     -0.699794   -4.798798    0.003728
  C      0.020905   -3.625613   -0.111292
  C     -0.653909   -2.420155   -0.079244
  C     -2.047926    2.419650    0.054373
  C     -2.748488    3.622699    0.030586
  C     -2.095322    4.829833   -0.011997
  C     -0.696948    4.886705   -0.029097
  C      0.008893    3.676699   -0.019760
  C     -0.657958    2.475204    0.020313
  C    -10.449087    0.014343    0.528640
  S    -11.249969    1.040094    1.493131
  S    -11.224167   -1.126815   -0.540712
  N     -0.031240    6.107725   -0.057995
  C     -0.738446    7.312610   -0.335714
  C     -0.576438    7.908585   -1.579460
  S      0.546658    7.190165   -2.734449
  C      1.764345    6.637619   -1.588018
  C      1.358562    6.165767   -0.345023
  C      3.113786    6.678611   -1.905470
  C      4.050643    6.242743   -0.987318
  C      3.648181    5.803522    0.264225
  C      2.304800    5.782054    0.590096
  C     -1.559778    7.901871    0.610130
  C     -2.274258    9.041409    0.290393
  C     -2.141436    9.613941   -0.964748
  C     -1.277760    9.062866   -1.892588
  N     -0.002973   -6.065360   -0.037538
  C      0.424268   -6.595011    1.164365
  C      1.095902   -7.828555    1.244631
  S      1.460667   -8.798464   -0.121759
  C      0.815278   -7.897210   -1.429885
  C      0.162366   -6.660557   -1.273399
  C      0.183631   -5.896187    2.360558
  C      0.589167   -6.407367    3.562132
  C      1.253902   -7.634931    3.632054
  C      1.503560   -8.333386    2.483149
  C      0.961793   -8.465599   -2.698958
  C      0.469387   -7.828547   -3.804168
  C     -0.183204   -6.600944   -3.658828
  C     -0.333447   -6.027113   -2.426968
  H     -8.807931   -2.117706    0.098819
  H     -6.356295   -2.104847   -0.031312
  H     -6.330715    2.112751    0.575207
  H     -8.795745    2.100701    0.749984
  H     -3.809588   -3.546725    0.306539
  H     -2.612755   -5.727386    0.249576
  H      1.095978   -3.656334   -0.229187
  H     -0.122995   -1.484039   -0.167843
  H     -3.827870    3.599786    0.038056
  H     -2.673618    5.738402   -0.044989
  H      1.086299    3.679970   -0.059167
  H     -0.095852    1.552905    0.024398
  H    -12.471551   -0.876792   -0.121747
  H      3.423792    7.061375   -2.868522
  H      5.101751    6.270692   -1.241212
  H      4.383427    5.489775    0.992647
  H      1.973737    5.450988    1.564848
  H     -1.651302    7.444041    1.585542
  H     -2.932880    9.486482    1.023052
  H     -2.697705   10.506550   -1.215098
  H     -1.140474    9.528403   -2.859161
  H     -0.331962   -4.950983    2.329010
  H      0.384413   -5.853061    4.467082
  H      1.564625   -8.033130    4.587210
  H      2.013053   -9.287279    2.518686
  H      1.462933   -9.420028   -2.791655
  H      0.578219   -8.275909   -4.781715
  H     -0.579963   -6.095662   -4.528006
  H     -0.841288   -5.081616   -2.336944

----------------------------
CARTESIAN COORDINATES (A.U.)
----------------------------
  NO LB      ZA    FRAG     MASS         X           Y           Z
   0 C     6.0000    0    12.011  -15.631000   -2.238387    0.368147
   1 C     6.0000    0    12.011  -13.028511   -2.235074    0.239886
   2 C     6.0000    0    12.011  -11.689172    0.008506    0.489379
   3 C     6.0000    0    12.011  -13.003879    2.248744    0.894855
   4 C     6.0000    0    12.011  -15.599193    2.238257    1.068252
   5 C     6.0000    0    12.011  -16.950752   -0.002600    0.796696
   6 C     6.0000    0    12.011   -8.912153    0.015254    0.343758
   7 N     7.0000    0    14.007   -7.725887    2.216487    0.294949
   8 C     6.0000    0    12.011   -5.215084    2.167675    0.175946
   9 N     7.0000    0    14.007   -3.879767    0.017606    0.129856
  10 C     6.0000    0    12.011   -5.229457   -2.078229    0.177390
  11 N     7.0000    0    14.007   -7.719159   -2.208029    0.278545
  12 C     6.0000    0    12.011   -3.845105   -4.522735    0.130810
  13 C     6.0000    0    12.011   -5.172085   -6.775202    0.359347
  14 C     6.0000    0    12.011   -3.915149   -9.061265    0.296771
  15 C     6.0000    0    12.011   -1.322419   -9.068414    0.007044
  16 C     6.0000    0    12.011    0.039504   -6.851416   -0.210312
  17 C     6.0000    0    12.011   -1.235709   -4.573431   -0.149750
  18 C     6.0000    0    12.011   -3.870020    4.572477    0.102750
  19 C     6.0000    0    12.011   -5.193890    6.845909    0.057799
  20 C     6.0000    0    12.011   -3.959584    9.127062   -0.022671
  21 C     6.0000    0    12.011   -1.317042    9.234534   -0.054985
  22 C     6.0000    0    12.011    0.016805    6.947953   -0.037342
  23 C     6.0000    0    12.011   -1.243360    4.677457    0.038386
  24 C     6.0000    0    12.011  -19.745913    0.027104    0.998986
  25 S    16.0000    0    32.060  -21.259360    1.965492    2.821609
  26 S    16.0000    0    32.060  -21.210601   -2.129372   -1.021797
  27 N     7.0000    0    14.007   -0.059034   11.541928   -0.109595
  28 C     6.0000    0    12.011   -1.395461   13.818831   -0.634408
  29 C     6.0000    0    12.011   -1.089310   14.945060   -2.984746
  30 S    16.0000    0    32.060    1.033033   13.587443   -5.167359
  31 C     6.0000    0    12.011    3.334130   12.543281   -3.000920
  32 C     6.0000    0    12.011    2.567311   11.651611   -0.652000
  33 C     6.0000    0    12.011    5.884202   12.620746   -3.600817
  34 C     6.0000    0    12.011    7.654606   11.797075   -1.865761
  35 C     6.0000    0    12.011    6.894064   10.967068    0.499313
  36 C     6.0000    0    12.011    4.355441   10.926498    1.115119
  37 C     6.0000    0    12.011   -2.947554   14.932372    1.152978
  38 C     6.0000    0    12.011   -4.297724   17.085786    0.548763
  39 C     6.0000    0    12.011   -4.046728   18.167716   -1.823110
  40 C     6.0000    0    12.011   -2.414616   17.126334   -3.576472
  41 N     7.0000    0    14.007   -0.005619  -11.461869   -0.070936
  42 C     6.0000    0    12.011    0.801751  -12.462764    2.200331
  43 C     6.0000    0    12.011    2.070954  -14.793826    2.352012
  44 S    16.0000    0    32.060    2.760261  -16.626688   -0.230091
  45 C     6.0000    0    12.011    1.540652  -14.923565   -2.702090
  46 C     6.0000    0    12.011    0.306827  -12.586629   -2.406375
  47 C     6.0000    0    12.011    0.347013  -11.142178    4.460807
  48 C     6.0000    0    12.011    1.113364  -12.108169    6.731453
  49 C     6.0000    0    12.011    2.369532  -14.427929    6.863587
  50 C     6.0000    0    12.011    2.841317  -15.747817    4.692471
  51 C     6.0000    0    12.011    1.817525  -15.997663   -5.100292
  52 C     6.0000    0    12.011    0.887012  -14.793810   -7.188835
  53 C     6.0000    0    12.011   -0.346205  -12.473977   -6.914183
  54 C     6.0000    0    12.011   -0.630123  -11.389593   -4.586304
  55 H     1.0000    0     1.008  -16.644578   -4.001884    0.186740
  56 H     1.0000    0     1.008  -12.011658   -3.977584   -0.059172
  57 H     1.0000    0     1.008  -11.963318    3.992521    1.086983
  58 H     1.0000    0     1.008  -16.621549    3.969750    1.417264
  59 H     1.0000    0     1.008   -7.199078   -6.702340    0.579275
  60 H     1.0000    0     1.008   -4.937392  -10.823190    0.471630
  61 H     1.0000    0     1.008    2.071099   -6.909470   -0.433100
  62 H     1.0000    0     1.008   -0.232427   -2.804428   -0.317178
  63 H     1.0000    0     1.008   -7.233626    6.802609    0.071915
  64 H     1.0000    0     1.008   -5.052405   10.844008   -0.085016
  65 H     1.0000    0     1.008    2.052808    6.954136   -0.111808
  66 H     1.0000    0     1.008   -0.181135    2.934566    0.046106
  67 H     1.0000    0     1.008  -23.567815   -1.656898   -0.230068
  68 H     1.0000    0     1.008    6.470030   13.344065   -5.420721
  69 H     1.0000    0     1.008    9.640913   11.849890   -2.345551
  70 H     1.0000    0     1.008    8.283476   10.374171    1.875831
  71 H     1.0000    0     1.008    3.729823   10.300875    2.957133
  72 H     1.0000    0     1.008   -3.120509   14.067199    2.996240
  73 H     1.0000    0     1.008   -5.542341   17.926853    1.933288
  74 H     1.0000    0     1.008   -5.097924   19.854501   -2.296202
  75 H     1.0000    0     1.008   -2.155184   18.006072   -5.403031
  76 H     1.0000    0     1.008   -0.627317   -9.356002    4.401191
  77 H     1.0000    0     1.008    0.726436  -11.060683    8.441561
  78 H     1.0000    0     1.008    2.956713  -15.180415    8.668570
  79 H     1.0000    0     1.008    3.804119  -17.550414    4.759626
  80 H     1.0000    0     1.008    2.764542  -17.801273   -5.275463
  81 H     1.0000    0     1.008    1.092675  -15.639202   -9.036132
  82 H     1.0000    0     1.008   -1.095971  -11.519132   -8.556691
  83 H     1.0000    0     1.008   -1.589804   -9.602863   -4.416185

--------------------------------
INTERNAL COORDINATES (ANGSTROEM)
--------------------------------
 C      0   0   0     0.000000000000     0.00000000     0.00000000
 C      1   0   0     1.378850983635     0.00000000     0.00000000
 C      2   1   0     1.388999880364   120.40082936     0.00000000
 C      3   2   1     1.391195763818   119.19947565     0.62168484
 C      4   3   2     1.376454079093   120.38529271     0.55293369
 C      5   4   3     1.392238599180   120.60534776   358.85872943
 C      3   2   1     1.471558324609   120.44109854   180.21771698
 N      7   3   2     1.323476304092   118.47797182   172.23773489
 C      8   7   3     1.330401640252   117.22782786   179.66744278
 N      9   8   7     1.339560023322   122.96748163   359.34567160
 C     10   9   8     1.319387427476   115.34487298     0.85387858
 N     11  10   9     1.320368617075   125.77853315   359.59545548
 C     11  10   9     1.486810089775   117.66557743   180.02657031
 C     13  11  10     1.388695412072   119.74798413   175.42833421
 C     14  13  11     1.380928241858   120.41585959   179.41940023
 C     15  14  13     1.380558665846   118.93029348     0.08234537
 C     16  15  14     1.381665106572   121.68880580     0.27161857
 C     17  16  15     1.381857097590   118.95103238   359.62152243
 C      9   8   7     1.458612907250   118.14218658   179.58676681
 C     19   9   8     1.392364286850   120.58078455   357.49883099
 C     20  19   9     1.373175986079   121.38315601   180.29542042
 C     21  20  19     1.399633587336   120.75257703   359.82005482
 C     22  21  20     1.400861881769   117.91943038     0.84815273
 C     23  22  21     1.374730943672   120.71011192   359.27855809
 C      6   5   4     1.483086975822   119.72709089   179.79351617
 S     25   6   5     1.619820427630   122.87429444   327.62635827
 S     25   6   5     1.745423873575   113.06219858   144.93429549
 N     22  21  20     1.391004499427   120.93544313   180.68299665
 C     28  22  21     1.424435696625   120.59356799   347.52521798
 C     29  28  22     1.388645003182   118.66766485   254.09199621
 S     30  29  28     1.763936102231   119.07411968   357.41538160
 C     31  30  29     1.761355438274    98.14950121   324.66942526
 C     32  31  30     1.390086596391   119.12272275    35.71804786
 C     32  31  30     1.386883197176   120.95835762   216.26716421
 C     34  32  31     1.382275614843   119.87477068   179.81877388
 C     35  34  32     1.386092212621   120.19078077   358.01924252
 C     36  35  34     1.382507057391   119.99271007     0.95145502
 C     29  28  22     1.384353703095   121.42631575    75.02031564
 C     38  29  28     1.382483008623   119.96425392   182.62122021
 C     39  38  29     1.385934612072   120.02846370   358.29652389
 C     40  39  38     1.382210959536   120.20562445   358.85416115
 N     16  15  14     1.446181088137   118.97457765   180.29451375
 C     42  16  15     1.381172014279   117.39144647   270.81416605
 C     43  42  16     1.406828511412   122.24715750   179.14281332
 S     44  43  42     1.714875429334   123.50490373     0.23545117
 C     45  44  43     1.714636698813   103.32852094   359.64112443
 C     42  16  15     1.381647268454   117.41722576    89.73322524
 C     43  42  16     1.406107209033   119.78649197   359.46512910
 C     48  43  42     1.367312729017   120.73252385   179.50408387
 C     49  48  43     1.397739889403   120.88755811     0.08645631
 C     50  49  48     1.367534627686   119.56109863     0.08236713
 C     46  45  44     1.398241900693   116.06122956   180.46120219
 C     52  46  45     1.367401181684   120.42918711   179.41447499
 C     53  52  46     1.397857947206   119.55238249     0.03587577
 C     54  53  52     1.367236755820   120.90142520     0.13747523
 H      1   2   3     1.080632543111   119.50264302   180.53048049
 H      2   1   3     1.079283725369   120.27122101   180.11374987
 H      4   3   2     1.079370518664   119.20320323   180.05754740
 H      5   4   3     1.079973647869   120.51779575   178.86665733
 H     14  13  11     1.079622647924   118.75878095   359.63637819
 H     15  14  13     1.081897069751   120.80201412   180.06886044
 H     17  16  15     1.081954939991   120.21592304   179.91318881
 H     18  17  16     1.079829707944   120.94701515   180.09273205
 H     20  19   9     1.079650838155   118.98395421   359.80648905
 H     21  20  19     1.077502752489   119.13826327   179.04422335
 H     23  22  21     1.078131847249   120.04357801   178.35358011
 H     24  23  22     1.080098690415   119.60147324   179.84824746
 H     27  25   6     1.339406758663    95.73182984   177.02631325
 H     34  32  31     1.081702782811   119.54463968     0.40019786
 H     35  34  32     1.081698480337   119.63961885   179.62359449
 H     36  35  34     1.081490524258   120.17781054   181.78707952
 H     37  36  35     1.081364259312   120.97832986   180.55968516
 H     38  29  28     1.081394152473   119.09644652     1.03927121
 H     39  38  29     1.081047608853   119.83314075   178.56087000
 H     40  39  38     1.081137808088   120.09691503   180.15815229
 H     41  40  39     1.081589715817   120.50384335   182.46934272
 H     48  43  42     1.077145097883   119.54560253   359.92335532
 H     49  48  43     1.080792745307   119.20132802   180.48169084
 H     50  49  48     1.080478371337   120.30869595   180.39262483
 H     51  50  49     1.082016019903   120.57283533   180.27070059
 H     52  46  45     1.081974588513   119.00429016   359.91824617
 H     53  52  46     1.080544004611   120.13636938   180.49433559
 H     54  53  52     1.080831761867   119.88868504   180.38218105
 H     55  54  53     1.077019274634   119.70754502   180.12288130

---------------------------
INTERNAL COORDINATES (A.U.)
---------------------------
 C      0   0   0     0.000000000000     0.00000000     0.00000000
 C      1   0   0     2.605650738558     0.00000000     0.00000000
 C      2   1   0     2.624829373938   120.40082936     0.00000000
 C      3   2   1     2.628978992287   119.19947565     0.62168484
 C      4   3   2     2.601121245404   120.38529271     0.55293369
 C      5   4   3     2.630949665524   120.60534776   358.85872943
 C      3   2   1     2.780842223603   120.44109854   180.21771698
 N      7   3   2     2.501007759468   118.47797182   172.23773489
 C      8   7   3     2.514094748196   117.22782786   179.66744278
 N      9   8   7     2.531401584027   122.96748163   359.34567160
 C     10   9   8     2.493280902468   115.34487298     0.85387858
 N     11  10   9     2.495135082096   125.77853315   359.59545548
 C     11  10   9     2.809663882826   117.66557743   180.02657031
 C     13  11  10     2.624254012250   119.74798413   175.42833421
 C     14  13  11     2.609576187710   120.41585959   179.41940023
 C     15  14  13     2.608877790262   118.93029348     0.08234537
 C     16  15  14     2.610968660216   121.68880580     0.27161857
 C     17  16  15     2.611331470661   118.95103238   359.62152243
 C      9   8   7     2.756378930106   118.14218658   179.58676681
 C     19   9   8     2.631187180798   120.58078455   357.49883099
 C     20  19   9     2.594926547367   121.38315601   180.29542042
 C     21  20  19     2.644924167902   120.75257703   359.82005482
 C     22  21  20     2.647245307993   117.91943038     0.84815273
 C     23  22  21     2.597864991367   120.71011192   359.27855809
 C      6   5   4     2.802628217088   119.72709089   179.79351617
 S     25   6   5     3.061016994352   122.87429444   327.62635827
 S     25   6   5     3.298373108664   113.06219858   144.93429549
 N     22  21  20     2.628617554970   120.93544313   180.68299665
 C     28  22  21     2.691793362003   120.59356799   347.52521798
 C     29  28  22     2.624158753252   118.66766485   254.09199621
 S     30  29  28     3.333356150952   119.07411968   357.41538160
 C     31  30  29     3.328479402831    98.14950121   324.66942526
 C     32  31  30     2.626882969613   119.12272275    35.71804786
 C     32  31  30     2.620829422399   120.95835762   216.26716421
 C     34  32  31     2.612122353652   119.87477068   179.81877388
 C     35  34  32     2.619334678215   120.19078077   358.01924252
 C     36  35  34     2.612559716683   119.99271007     0.95145502
 C     29  28  22     2.616049371330   121.42631575    75.02031564
 C     38  29  28     2.612514271097   119.96425392   182.62122021
 C     39  38  29     2.619036856338   120.02846370   358.29652389
 C     40  39  38     2.612000172827   120.20562445   358.85416115
 N     16  15  14     2.732886196635   118.97457765   180.29451375
 C     42  16  15     2.610036850823   117.39144647   270.81416605
 C     43  42  16     2.658520603960   122.24715750   179.14281332
 S     44  43  42     3.240644915232   123.50490373     0.23545117
 C     45  44  43     3.240193779928   103.32852094   359.64112443
 C     42  16  15     2.610934951059   117.41722576    89.73322524
 C     43  42  16     2.657157540004   119.78649197   359.46512910
 C     48  43  42     2.583846597266   120.73252385   179.50408387
 C     49  48  43     2.641345597430   120.88755811     0.08645631
 C     50  49  48     2.584265924981   119.56109863     0.08236713
 C     46  45  44     2.642294261283   116.06122956   180.46120219
 C     52  46  45     2.584013748583   120.42918711   179.41447499
 C     53  52  46     2.641568694345   119.55238249     0.03587577
 C     54  53  52     2.583703028731   120.90142520     0.13747523
 H      1   2   3     2.042099557883   119.50264302   180.53048049
 H      2   1   3     2.039550661745   120.27122101   180.11374987
 H      4   3   2     2.039714677303   119.20320323   180.05754740
 H      5   4   3     2.040854426324   120.51779575   178.86665733
 H     14  13  11     2.040191132556   118.75878095   359.63637819
 H     15  14  13     2.044489166921   120.80201412   180.06886044
 H     17  16  15     2.044598525826   120.21592304   179.91318881
 H     18  17  16     2.040582419287   120.94701515   180.09273205
 H     20  19   9     2.040244404372   118.98395421   359.80648905
 H     21  20  19     2.036185110751   119.13826327   179.04422335
 H     23  22  21     2.037373927559   120.04357801   178.35358011
 H     24  23  22     2.041090722492   119.60147324   179.84824746
 H     27  25   6     2.531111955797    95.73182984   177.02631325
 H     34  32  31     2.044122017814   119.54463968     0.40019786
 H     35  34  32     2.044113887316   119.63961885   179.62359449
 H     36  35  34     2.043720907279   120.17781054   181.78707952
 H     37  36  35     2.043482301110   120.97832986   180.55968516
 H     38  29  28     2.043538790997   119.09644652     1.03927121
 H     39  38  29     2.042883918463   119.83314075   178.56087000
 H     40  39  38     2.043054370315   120.09691503   180.15815229
 H     41  40  39     2.043908352160   120.50384335   182.46934272
 H     48  43  42     2.035509241496   119.54560253   359.92335532
 H     49  48  43     2.042402296159   119.20132802   180.48169084
 H     50  49  48     2.041808215452   120.30869595   180.39262483
 H     51  50  49     2.044713950132   120.57283533   180.27070059
 H     52  46  45     2.044635656151   119.00429016   359.91824617
 H     53  52  46     2.041932244365   120.13636938   180.49433559
 H     54  53  52     2.042476026772   119.88868504   180.38218105
 H     55  54  53     2.035271470012   119.70754502   180.12288130

n1420:rank9.orca_gtoint_mpi: Failed to modify UD QP to INIT on mlx5_0: Operation not permitted
n1628:rank33.orca_gtoint_mpi: Failed to modify UD QP to INIT on mlx5_0: Operation not permitted
n1628:rank32.orca_gtoint_mpi: Failed to modify UD QP to INIT on mlx5_0: Operation not permitted
n1628:rank34.orca_gtoint_mpi: Failed to modify UD QP to INIT on mlx5_0: Operation not permitted
n1420:rank9.orca_gtoint_mpi: Failed to modify UD QP to INIT on mlx5_0: Operation not permitted
n1628:rank35.orca_gtoint_mpi: Failed to modify UD QP to INIT on mlx5_0: Operation not permitted
n1628:rank33.orca_gtoint_mpi: Failed to modify UD QP to INIT on mlx5_0: Operation not permitted
n1420:rank4.orca_gtoint_mpi: Failed to modify UD QP to INIT on mlx5_0: Operation not permitted
n1420:rank0.orca_gtoint_mpi: Failed to modify UD QP to INIT on mlx5_0: Operation not permitted
n1420:rank29.orca_gtoint_mpi: Failed to modify UD QP to INIT on mlx5_0: Operation not permitted
n1420:rank21.orca_gtoint_mpi: Failed to modify UD QP to INIT on mlx5_0: Operation not permitted
n1420:rank9.orca_gtoint_mpi: Failed to modify UD QP to INIT on mlx5_0: Operation not permitted
n1628:rank34.orca_gtoint_mpi: Failed to modify UD QP to INIT on mlx5_0: Operation not permitted
n1628:rank33.orca_gtoint_mpi: Failed to modify UD QP to INIT on mlx5_0: Operation not permitted
n1420:rank4.orca_gtoint_mpi: Failed to modify UD QP to INIT on mlx5_0: Operation not permitted
n1628:rank32.orca_gtoint_mpi: Failed to modify UD QP to INIT on mlx5_0: Operation not permitted
n1420:rank0.orca_gtoint_mpi: Failed to modify UD QP to INIT on mlx5_0: Operation not permitted
n1628:rank34.orca_gtoint_mpi: Failed to modify UD QP to INIT on mlx5_0: Operation not permitted
n1420:rank29.orca_gtoint_mpi: Failed to modify UD QP to INIT on mlx5_0: Operation not permitted
n1420:rank21.orca_gtoint_mpi: Failed to modify UD QP to INIT on mlx5_0: Operation not permitted
n1628:rank35.orca_gtoint_mpi: Failed to modify UD QP to INIT on mlx5_0: Operation not permitted
n1420:rank4.orca_gtoint_mpi: Failed to modify UD QP to INIT on mlx5_0: Operation not permitted
n1420:rank0.orca_gtoint_mpi: Failed to modify UD QP to INIT on mlx5_0: Operation not permitted
n1420:rank29.orca_gtoint_mpi: Failed to modify UD QP to INIT on mlx5_0: Operation not permitted
n1420:rank21.orca_gtoint_mpi: Failed to modify UD QP to INIT on mlx5_0: Operation not permitted
n1628:rank35.orca_gtoint_mpi: Failed to modify UD QP to INIT on mlx5_0: Operation not permitted
n1628:rank32.orca_gtoint_mpi: Failed to modify UD QP to INIT on mlx5_0: Operation not permitted
n1420:rank20.orca_gtoint_mpi: Failed to modify UD QP to INIT on mlx5_0: Operation not permitted
n1420:rank27.orca_gtoint_mpi: Failed to modify UD QP to INIT on mlx5_0: Operation not permitted
n1628:rank34.orca_gtoint_mpi: Failed to modify UD QP to INIT on mlx5_0: Operation not permitted
n1420:rank20.orca_gtoint_mpi: Failed to modify UD QP to INIT on mlx5_0: Operation not permitted
n1628:rank33.orca_gtoint_mpi: Failed to modify UD QP to INIT on mlx5_0: Operation not permitted
n1420:rank27.orca_gtoint_mpi: Failed to modify UD QP to INIT on mlx5_0: Operation not permitted
n1628:rank32.orca_gtoint_mpi: Failed to modify UD QP to INIT on mlx5_0: Operation not permitted
n1420:rank20.orca_gtoint_mpi: Failed to modify UD QP to INIT on mlx5_0: Operation not permitted
n1420:rank27.orca_gtoint_mpi: Failed to modify UD QP to INIT on mlx5_0: Operation not permitted
n1420:rank9.orca_gtoint_mpi: Failed to modify UD QP to INIT on mlx5_0: Operation not permitted
n1628:rank35.orca_gtoint_mpi: Failed to modify UD QP to INIT on mlx5_0: Operation not permitted
n1420:rank0.orca_gtoint_mpi: Failed to modify UD QP to INIT on mlx5_0: Operation not permitted
n1420:rank4.orca_gtoint_mpi: Failed to modify UD QP to INIT on mlx5_0: Operation not permitted
n1420:rank21.orca_gtoint_mpi: Failed to modify UD QP to INIT on mlx5_0: Operation not permitted
n1420:rank29.orca_gtoint_mpi: Failed to modify UD QP to INIT on mlx5_0: Operation not permitted
n1420:rank20.orca_gtoint_mpi: Failed to modify UD QP to INIT on mlx5_0: Operation not permitted
n1420:rank27.orca_gtoint_mpi: Failed to modify UD QP to INIT on mlx5_0: Operation not permitted
n1420:rank8.orca_gtoint_mpi: Failed to modify UD QP to INIT on mlx5_0: Operation not permitted
n1420:rank8.orca_gtoint_mpi: Failed to modify UD QP to INIT on mlx5_0: Operation not permitted
n1420:rank8.orca_gtoint_mpi: Failed to modify UD QP to INIT on mlx5_0: Operation not permitted
n1420:rank1.orca_gtoint_mpi: Failed to modify UD QP to INIT on mlx5_0: Operation not permitted
n1420:rank8.orca_gtoint_mpi: Failed to modify UD QP to INIT on mlx5_0: Operation not permitted
n1420:rank1.orca_gtoint_mpi: Failed to modify UD QP to INIT on mlx5_0: Operation not permitted
n1420:rank1.orca_gtoint_mpi: Failed to modify UD QP to INIT on mlx5_0: Operation not permitted
n1420:rank1.orca_gtoint_mpi: Failed to modify UD QP to INIT on mlx5_0: Operation not permitted
n1420:rank12.orca_gtoint_mpi: Failed to modify UD QP to INIT on mlx5_0: Operation not permitted
n1420:rank11.orca_gtoint_mpi: Failed to modify UD QP to INIT on mlx5_0: Operation not permitted
n1420:rank16.orca_gtoint_mpi: Failed to modify UD QP to INIT on mlx5_0: Operation not permitted
n1420:rank12.orca_gtoint_mpi: Failed to modify UD QP to INIT on mlx5_0: Operation not permitted
n1420:rank26.orca_gtoint_mpi: Failed to modify UD QP to INIT on mlx5_0: Operation not permitted
n1420:rank11.orca_gtoint_mpi: Failed to modify UD QP to INIT on mlx5_0: Operation not permitted
n1420:rank12.orca_gtoint_mpi: Failed to modify UD QP to INIT on mlx5_0: Operation not permitted
n1420:rank16.orca_gtoint_mpi: Failed to modify UD QP to INIT on mlx5_0: Operation not permitted
n1420:rank11.orca_gtoint_mpi: Failed to modify UD QP to INIT on mlx5_0: Operation not permitted
n1420:rank26.orca_gtoint_mpi: Failed to modify UD QP to INIT on mlx5_0: Operation not permitted
n1420:rank16.orca_gtoint_mpi: Failed to modify UD QP to INIT on mlx5_0: Operation not permitted
n1420:rank26.orca_gtoint_mpi: Failed to modify UD QP to INIT on mlx5_0: Operation not permitted
n1420:rank5.orca_gtoint_mpi: Failed to modify UD QP to INIT on mlx5_0: Operation not permitted
n1420:rank12.orca_gtoint_mpi: Failed to modify UD QP to INIT on mlx5_0: Operation not permitted
n1420:rank11.orca_gtoint_mpi: Failed to modify UD QP to INIT on mlx5_0: Operation not permitted
n1420:rank5.orca_gtoint_mpi: Failed to modify UD QP to INIT on mlx5_0: Operation not permitted
n1420:rank26.orca_gtoint_mpi: Failed to modify UD QP to INIT on mlx5_0: Operation not permitted
n1420:rank16.orca_gtoint_mpi: Failed to modify UD QP to INIT on mlx5_0: Operation not permitted
n1420:rank6.orca_gtoint_mpi: Failed to modify UD QP to INIT on mlx5_0: Operation not permitted
n1420:rank5.orca_gtoint_mpi: Failed to modify UD QP to INIT on mlx5_0: Operation not permitted
n1420:rank10.orca_gtoint_mpi: Failed to modify UD QP to INIT on mlx5_0: Operation not permitted
n1420:rank25.orca_gtoint_mpi: Failed to modify UD QP to INIT on mlx5_0: Operation not permitted
n1420:rank19.orca_gtoint_mpi: Failed to modify UD QP to INIT on mlx5_0: Operation not permitted
n1420:rank14.orca_gtoint_mpi: Failed to modify UD QP to INIT on mlx5_0: Operation not permitted
n1420:rank7.orca_gtoint_mpi: Failed to modify UD QP to INIT on mlx5_0: Operation not permitted
n1420:rank3.orca_gtoint_mpi: Failed to modify UD QP to INIT on mlx5_0: Operation not permitted
n1420:rank31.orca_gtoint_mpi: Failed to modify UD QP to INIT on mlx5_0: Operation not permitted
n1420:rank17.orca_gtoint_mpi: Failed to modify UD QP to INIT on mlx5_0: Operation not permitted
n1420:rank2.orca_gtoint_mpi: Failed to modify UD QP to INIT on mlx5_0: Operation not permitted
n1420:rank15.orca_gtoint_mpi: Failed to modify UD QP to INIT on mlx5_0: Operation not permitted
n1420:rank13.orca_gtoint_mpi: Failed to modify UD QP to INIT on mlx5_0: Operation not permitted
n1420:rank30.orca_gtoint_mpi: Failed to modify UD QP to INIT on mlx5_0: Operation not permitted
n1420:rank24.orca_gtoint_mpi: Failed to modify UD QP to INIT on mlx5_0: Operation not permitted
n1420:rank6.orca_gtoint_mpi: Failed to modify UD QP to INIT on mlx5_0: Operation not permitted
n1420:rank18.orca_gtoint_mpi: Failed to modify UD QP to INIT on mlx5_0: Operation not permitted
n1420:rank22.orca_gtoint_mpi: Failed to modify UD QP to INIT on mlx5_0: Operation not permitted
n1420:rank14.orca_gtoint_mpi: Failed to modify UD QP to INIT on mlx5_0: Operation not permitted
n1420:rank10.orca_gtoint_mpi: Failed to modify UD QP to INIT on mlx5_0: Operation not permitted
n1420:rank25.orca_gtoint_mpi: Failed to modify UD QP to INIT on mlx5_0: Operation not permitted
n1420:rank28.orca_gtoint_mpi: Failed to modify UD QP to INIT on mlx5_0: Operation not permitted
n1420:rank19.orca_gtoint_mpi: Failed to modify UD QP to INIT on mlx5_0: Operation not permitted
n1420:rank23.orca_gtoint_mpi: Failed to modify UD QP to INIT on mlx5_0: Operation not permitted
n1420:rank7.orca_gtoint_mpi: Failed to modify UD QP to INIT on mlx5_0: Operation not permitted
n1420:rank3.orca_gtoint_mpi: Failed to modify UD QP to INIT on mlx5_0: Operation not permitted
n1420:rank31.orca_gtoint_mpi: Failed to modify UD QP to INIT on mlx5_0: Operation not permitted
n1420:rank6.orca_gtoint_mpi: Failed to modify UD QP to INIT on mlx5_0: Operation not permitted
n1420:rank14.orca_gtoint_mpi: Failed to modify UD QP to INIT on mlx5_0: Operation not permitted
n1420:rank2.orca_gtoint_mpi: Failed to modify UD QP to INIT on mlx5_0: Operation not permitted
n1420:rank10.orca_gtoint_mpi: Failed to modify UD QP to INIT on mlx5_0: Operation not permitted
n1420:rank25.orca_gtoint_mpi: Failed to modify UD QP to INIT on mlx5_0: Operation not permitted
n1420:rank19.orca_gtoint_mpi: Failed to modify UD QP to INIT on mlx5_0: Operation not permitted
n1420:rank13.orca_gtoint_mpi: Failed to modify UD QP to INIT on mlx5_0: Operation not permitted
n1420:rank15.orca_gtoint_mpi: Failed to modify UD QP to INIT on mlx5_0: Operation not permitted
n1420:rank7.orca_gtoint_mpi: Failed to modify UD QP to INIT on mlx5_0: Operation not permitted
n1420:rank30.orca_gtoint_mpi: Failed to modify UD QP to INIT on mlx5_0: Operation not permitted
n1420:rank24.orca_gtoint_mpi: Failed to modify UD QP to INIT on mlx5_0: Operation not permitted
n1420:rank3.orca_gtoint_mpi: Failed to modify UD QP to INIT on mlx5_0: Operation not permitted
n1420:rank18.orca_gtoint_mpi: Failed to modify UD QP to INIT on mlx5_0: Operation not permitted
n1420:rank31.orca_gtoint_mpi: Failed to modify UD QP to INIT on mlx5_0: Operation not permitted
n1420:rank22.orca_gtoint_mpi: Failed to modify UD QP to INIT on mlx5_0: Operation not permitted
n1420:rank17.orca_gtoint_mpi: Failed to modify UD QP to INIT on mlx5_0: Operation not permitted
n1420:rank28.orca_gtoint_mpi: Failed to modify UD QP to INIT on mlx5_0: Operation not permitted
n1420:rank23.orca_gtoint_mpi: Failed to modify UD QP to INIT on mlx5_0: Operation not permitted
n1420:rank2.orca_gtoint_mpi: Failed to modify UD QP to INIT on mlx5_0: Operation not permitted
n1420:rank30.orca_gtoint_mpi: Failed to modify UD QP to INIT on mlx5_0: Operation not permitted
n1420:rank24.orca_gtoint_mpi: Failed to modify UD QP to INIT on mlx5_0: Operation not permitted
n1420:rank18.orca_gtoint_mpi: Failed to modify UD QP to INIT on mlx5_0: Operation not permitted
n1420:rank22.orca_gtoint_mpi: Failed to modify UD QP to INIT on mlx5_0: Operation not permitted
n1420:rank28.orca_gtoint_mpi: Failed to modify UD QP to INIT on mlx5_0: Operation not permitted
n1420:rank17.orca_gtoint_mpi: Failed to modify UD QP to INIT on mlx5_0: Operation not permitted
n1420:rank5.orca_gtoint_mpi: Failed to modify UD QP to INIT on mlx5_0: Operation not permitted
n1420:rank23.orca_gtoint_mpi: Failed to modify UD QP to INIT on mlx5_0: Operation not permitted
n1420:rank15.orca_gtoint_mpi: Failed to modify UD QP to INIT on mlx5_0: Operation not permitted
n1420:rank13.orca_gtoint_mpi: Failed to modify UD QP to INIT on mlx5_0: Operation not permitted
n1420:rank6.orca_gtoint_mpi: Failed to modify UD QP to INIT on mlx5_0: Operation not permitted
n1420:rank14.orca_gtoint_mpi: Failed to modify UD QP to INIT on mlx5_0: Operation not permitted
n1420:rank25.orca_gtoint_mpi: Failed to modify UD QP to INIT on mlx5_0: Operation not permitted
n1420:rank19.orca_gtoint_mpi: Failed to modify UD QP to INIT on mlx5_0: Operation not permitted
n1420:rank3.orca_gtoint_mpi: Failed to modify UD QP to INIT on mlx5_0: Operation not permitted
n1420:rank31.orca_gtoint_mpi: Failed to modify UD QP to INIT on mlx5_0: Operation not permitted
n1420:rank7.orca_gtoint_mpi: Failed to modify UD QP to INIT on mlx5_0: Operation not permitted
n1420:rank10.orca_gtoint_mpi: Failed to modify UD QP to INIT on mlx5_0: Operation not permitted
n1420:rank24.orca_gtoint_mpi: Failed to modify UD QP to INIT on mlx5_0: Operation not permitted
n1420:rank30.orca_gtoint_mpi: Failed to modify UD QP to INIT on mlx5_0: Operation not permitted
n1420:rank2.orca_gtoint_mpi: Failed to modify UD QP to INIT on mlx5_0: Operation not permitted
n1420:rank22.orca_gtoint_mpi: Failed to modify UD QP to INIT on mlx5_0: Operation not permitted
n1420:rank18.orca_gtoint_mpi: Failed to modify UD QP to INIT on mlx5_0: Operation not permitted
n1420:rank17.orca_gtoint_mpi: Failed to modify UD QP to INIT on mlx5_0: Operation not permitted
n1420:rank13.orca_gtoint_mpi: Failed to modify UD QP to INIT on mlx5_0: Operation not permitted
n1420:rank15.orca_gtoint_mpi: Failed to modify UD QP to INIT on mlx5_0: Operation not permitted
n1420:rank23.orca_gtoint_mpi: Failed to modify UD QP to INIT on mlx5_0: Operation not permitted
n1420:rank28.orca_gtoint_mpi: Failed to modify UD QP to INIT on mlx5_0: Operation not permitted


           ************************************************************
           *        Program running with 36 parallel MPI-processes    *
           *              working on a shared directory               *
           ************************************************************
------------------------------------------------------------------------------
                   ___                                                        
                  /   \      - P O W E R E D   B Y -                         
                 /     \                                                     
                 |  |  |   _    _      __       _____    __    __             
                 |  |  |  | |  | |    /  \     |  _  \  |  |  /  |          
                  \  \/   | |  | |   /    \    | | | |  |  | /  /          
                 / \  \   | |__| |  /  /\  \   | |_| |  |  |/  /          
                |  |  |   |  __  | /  /__\  \  |    /   |      \           
                |  |  |   | |  | | |   __   |  |    \   |  |\   \          
                \     /   | |  | | |  |  |  |  | |\  \  |  | \   \       
                 \___/    |_|  |_| |__|  |__|  |_| \__\ |__|  \__/        
                                                                              
                      - O R C A' S   B I G   F R I E N D -                    
                                      &                                       
                       - I N T E G R A L  F E E D E R -                       
                                                                              
 v1 FN, 2020, v2 2021                                                         
------------------------------------------------------------------------------


Reading SHARK input file Combo62_Cf10tc_0.21702_-0.21702_ck-1.SHARKINP.tmp ... ok
----------------------
SHARK INTEGRAL PACKAGE
----------------------

Number of atoms                             ...     84
Number of basis functions                   ...   1903
Number of shells                            ...    729
Maximum angular momentum                    ...      3
Integral batch strategy                     ... SHARK/LIBINT Hybrid
RI-J (if used) integral strategy            ... SPLIT-RIJ (Revised 2003 algorithm where possible)
Printlevel                                  ...      1
Contraction scheme used                     ... SEGMENTED contraction
Coulomb Range Separation                    ... NOT USED
Exchange Range Separation                   ... Long Range
   Mu parameter                             ...  0.330000
   Scaling (regular/separated)              ...  0.190000  0.460000
Finite Nucleus Model                        ... NOT USED
Auxiliary Coulomb fitting basis             ... AVAILABLE
   # of basis functions in Aux-J            ...   3022
   # of shells in Aux-J                     ...    978
   Maximum angular momentum in Aux-J        ...      4
Auxiliary J/K fitting basis                 ... NOT available
Auxiliary Correlation fitting basis         ... NOT available
Auxiliary 'external' fitting basis          ... NOT available
Integral threshold                          ...     2.500000e-11
Primitive cut-off                           ...     2.500000e-12
Primitive pair pre-selection threshold      ...     2.500000e-12

Calculating pre-screening integrals         ... done (  0.1 sec) Dimension = 729
Organizing shell pair data                  ... done (  0.9 sec)
Shell pair information
Total number of shell pairs                 ...    266085
Shell pairs after pre-screening             ...     97909
Total number of primitive shell pairs       ...    849606
Primitive shell pairs kept                  ...    193023
          la=0 lb=0:  23137 shell pairs
          la=1 lb=0:  28776 shell pairs
          la=1 lb=1:   8930 shell pairs
          la=2 lb=0:  13784 shell pairs
          la=2 lb=1:   8574 shell pairs
          la=2 lb=2:   2071 shell pairs
          la=3 lb=0:   6264 shell pairs
          la=3 lb=1:   4028 shell pairs
          la=3 lb=2:   1884 shell pairs
          la=3 lb=3:    461 shell pairs

Reading point charge file                   ... ok (4 point charges)
Calculating one electron integrals          ... done (  0.2 sec)
Calculating RI/J V-Matrix + Cholesky decomp.... done (  0.6 sec)
Calculating Nuclear repulsion               ... (+Point charges) done (  0.0 sec) ENN=   7036.524251668447 Eh

SHARK setup successfully completed in   2.6 seconds

Maximum memory used throughout the entire GTOINT-calculation: 184.9 MB
ENUC WAS=  0.000000000
ENUC IS =  0.000000000
n1628:rank32.orca_scf_mpi: Failed to modify UD QP to INIT on mlx5_0: Operation not permitted
n1628:rank35.orca_scf_mpi: Failed to modify UD QP to INIT on mlx5_0: Operation not permitted
n1628:rank32.orca_scf_mpi: Failed to modify UD QP to INIT on mlx5_0: Operation not permitted
n1628:rank33.orca_scf_mpi: Failed to modify UD QP to INIT on mlx5_0: Operation not permitted
n1628:rank34.orca_scf_mpi: Failed to modify UD QP to INIT on mlx5_0: Operation not permitted
n1628:rank32.orca_scf_mpi: Failed to modify UD QP to INIT on mlx5_0: Operation not permitted
n1628:rank35.orca_scf_mpi: Failed to modify UD QP to INIT on mlx5_0: Operation not permitted
n1628:rank35.orca_scf_mpi: Failed to modify UD QP to INIT on mlx5_0: Operation not permitted
n1628:rank34.orca_scf_mpi: Failed to modify UD QP to INIT on mlx5_0: Operation not permitted
n1628:rank33.orca_scf_mpi: Failed to modify UD QP to INIT on mlx5_0: Operation not permitted
n1628:rank34.orca_scf_mpi: Failed to modify UD QP to INIT on mlx5_0: Operation not permitted
n1628:rank33.orca_scf_mpi: Failed to modify UD QP to INIT on mlx5_0: Operation not permitted
n1628:rank32.orca_scf_mpi: Failed to modify UD QP to INIT on mlx5_0: Operation not permitted
n1420:rank10.orca_scf_mpi: Failed to modify UD QP to INIT on mlx5_0: Operation not permitted
n1420:rank12.orca_scf_mpi: Failed to modify UD QP to INIT on mlx5_0: Operation not permitted
n1628:rank35.orca_scf_mpi: Failed to modify UD QP to INIT on mlx5_0: Operation not permitted
n1420:rank10.orca_scf_mpi: Failed to modify UD QP to INIT on mlx5_0: Operation not permitted
n1628:rank34.orca_scf_mpi: Failed to modify UD QP to INIT on mlx5_0: Operation not permitted
n1628:rank33.orca_scf_mpi: Failed to modify UD QP to INIT on mlx5_0: Operation not permitted
n1420:rank12.orca_scf_mpi: Failed to modify UD QP to INIT on mlx5_0: Operation not permitted
n1420:rank10.orca_scf_mpi: Failed to modify UD QP to INIT on mlx5_0: Operation not permitted
n1420:rank12.orca_scf_mpi: Failed to modify UD QP to INIT on mlx5_0: Operation not permitted
n1420:rank10.orca_scf_mpi: Failed to modify UD QP to INIT on mlx5_0: Operation not permitted
n1420:rank12.orca_scf_mpi: Failed to modify UD QP to INIT on mlx5_0: Operation not permitted
n1420:rank24.orca_scf_mpi: Failed to modify UD QP to INIT on mlx5_0: Operation not permitted
n1420:rank24.orca_scf_mpi: Failed to modify UD QP to INIT on mlx5_0: Operation not permitted
n1420:rank24.orca_scf_mpi: Failed to modify UD QP to INIT on mlx5_0: Operation not permitted
n1420:rank24.orca_scf_mpi: Failed to modify UD QP to INIT on mlx5_0: Operation not permitted
n1420:rank11.orca_scf_mpi: Failed to modify UD QP to INIT on mlx5_0: Operation not permitted
n1420:rank11.orca_scf_mpi: Failed to modify UD QP to INIT on mlx5_0: Operation not permitted
n1420:rank27.orca_scf_mpi: Failed to modify UD QP to INIT on mlx5_0: Operation not permitted
n1420:rank11.orca_scf_mpi: Failed to modify UD QP to INIT on mlx5_0: Operation not permitted
n1420:rank27.orca_scf_mpi: Failed to modify UD QP to INIT on mlx5_0: Operation not permitted
n1420:rank21.orca_scf_mpi: Failed to modify UD QP to INIT on mlx5_0: Operation not permitted
n1420:rank27.orca_scf_mpi: Failed to modify UD QP to INIT on mlx5_0: Operation not permitted
n1420:rank15.orca_scf_mpi: Failed to modify UD QP to INIT on mlx5_0: Operation not permitted
n1420:rank21.orca_scf_mpi: Failed to modify UD QP to INIT on mlx5_0: Operation not permitted
n1420:rank21.orca_scf_mpi: Failed to modify UD QP to INIT on mlx5_0: Operation not permitted
n1420:rank15.orca_scf_mpi: Failed to modify UD QP to INIT on mlx5_0: Operation not permitted
n1420:rank3.orca_scf_mpi: Failed to modify UD QP to INIT on mlx5_0: Operation not permitted
n1420:rank15.orca_scf_mpi: Failed to modify UD QP to INIT on mlx5_0: Operation not permitted
n1420:rank11.orca_scf_mpi: Failed to modify UD QP to INIT on mlx5_0: Operation not permitted
n1420:rank3.orca_scf_mpi: Failed to modify UD QP to INIT on mlx5_0: Operation not permitted
n1420:rank28.orca_scf_mpi: Failed to modify UD QP to INIT on mlx5_0: Operation not permitted
n1420:rank21.orca_scf_mpi: Failed to modify UD QP to INIT on mlx5_0: Operation not permitted
n1420:rank27.orca_scf_mpi: Failed to modify UD QP to INIT on mlx5_0: Operation not permitted
n1420:rank3.orca_scf_mpi: Failed to modify UD QP to INIT on mlx5_0: Operation not permitted
n1420:rank4.orca_scf_mpi: Failed to modify UD QP to INIT on mlx5_0: Operation not permitted
n1420:rank6.orca_scf_mpi: Failed to modify UD QP to INIT on mlx5_0: Operation not permitted
n1420:rank28.orca_scf_mpi: Failed to modify UD QP to INIT on mlx5_0: Operation not permitted
n1420:rank4.orca_scf_mpi: Failed to modify UD QP to INIT on mlx5_0: Operation not permitted
n1420:rank6.orca_scf_mpi: Failed to modify UD QP to INIT on mlx5_0: Operation not permitted
n1420:rank28.orca_scf_mpi: Failed to modify UD QP to INIT on mlx5_0: Operation not permitted
n1420:rank4.orca_scf_mpi: Failed to modify UD QP to INIT on mlx5_0: Operation not permitted
n1420:rank6.orca_scf_mpi: Failed to modify UD QP to INIT on mlx5_0: Operation not permitted
n1420:rank15.orca_scf_mpi: Failed to modify UD QP to INIT on mlx5_0: Operation not permitted
n1420:rank3.orca_scf_mpi: Failed to modify UD QP to INIT on mlx5_0: Operation not permitted
n1420:rank28.orca_scf_mpi: Failed to modify UD QP to INIT on mlx5_0: Operation not permitted
n1420:rank4.orca_scf_mpi: Failed to modify UD QP to INIT on mlx5_0: Operation not permitted
n1420:rank6.orca_scf_mpi: Failed to modify UD QP to INIT on mlx5_0: Operation not permitted
n1420:rank8.orca_scf_mpi: Failed to modify UD QP to INIT on mlx5_0: Operation not permitted
n1420:rank13.orca_scf_mpi: Failed to modify UD QP to INIT on mlx5_0: Operation not permitted
n1420:rank30.orca_scf_mpi: Failed to modify UD QP to INIT on mlx5_0: Operation not permitted
n1420:rank7.orca_scf_mpi: Failed to modify UD QP to INIT on mlx5_0: Operation not permitted
n1420:rank13.orca_scf_mpi: Failed to modify UD QP to INIT on mlx5_0: Operation not permitted
n1420:rank8.orca_scf_mpi: Failed to modify UD QP to INIT on mlx5_0: Operation not permitted
n1420:rank30.orca_scf_mpi: Failed to modify UD QP to INIT on mlx5_0: Operation not permitted
n1420:rank7.orca_scf_mpi: Failed to modify UD QP to INIT on mlx5_0: Operation not permitted
n1420:rank13.orca_scf_mpi: Failed to modify UD QP to INIT on mlx5_0: Operation not permitted
n1420:rank8.orca_scf_mpi: Failed to modify UD QP to INIT on mlx5_0: Operation not permitted
n1420:rank9.orca_scf_mpi: Failed to modify UD QP to INIT on mlx5_0: Operation not permitted
n1420:rank30.orca_scf_mpi: Failed to modify UD QP to INIT on mlx5_0: Operation not permitted
n1420:rank20.orca_scf_mpi: Failed to modify UD QP to INIT on mlx5_0: Operation not permitted
n1420:rank17.orca_scf_mpi: Failed to modify UD QP to INIT on mlx5_0: Operation not permitted
n1420:rank7.orca_scf_mpi: Failed to modify UD QP to INIT on mlx5_0: Operation not permitted
n1420:rank9.orca_scf_mpi: Failed to modify UD QP to INIT on mlx5_0: Operation not permitted
n1420:rank20.orca_scf_mpi: Failed to modify UD QP to INIT on mlx5_0: Operation not permitted
n1420:rank5.orca_scf_mpi: Failed to modify UD QP to INIT on mlx5_0: Operation not permitted
n1420:rank17.orca_scf_mpi: Failed to modify UD QP to INIT on mlx5_0: Operation not permitted
n1420:rank25.orca_scf_mpi: Failed to modify UD QP to INIT on mlx5_0: Operation not permitted
n1420:rank1.orca_scf_mpi: Failed to modify UD QP to INIT on mlx5_0: Operation not permitted
n1420:rank29.orca_scf_mpi: Failed to modify UD QP to INIT on mlx5_0: Operation not permitted
n1420:rank9.orca_scf_mpi: Failed to modify UD QP to INIT on mlx5_0: Operation not permitted
n1420:rank2.orca_scf_mpi: Failed to modify UD QP to INIT on mlx5_0: Operation not permitted
n1420:rank19.orca_scf_mpi: Failed to modify UD QP to INIT on mlx5_0: Operation not permitted
n1420:rank22.orca_scf_mpi: Failed to modify UD QP to INIT on mlx5_0: Operation not permitted
n1420:rank23.orca_scf_mpi: Failed to modify UD QP to INIT on mlx5_0: Operation not permitted
n1420:rank14.orca_scf_mpi: Failed to modify UD QP to INIT on mlx5_0: Operation not permitted
n1420:rank31.orca_scf_mpi: Failed to modify UD QP to INIT on mlx5_0: Operation not permitted
n1420:rank17.orca_scf_mpi: Failed to modify UD QP to INIT on mlx5_0: Operation not permitted
n1420:rank18.orca_scf_mpi: Failed to modify UD QP to INIT on mlx5_0: Operation not permitted
n1420:rank20.orca_scf_mpi: Failed to modify UD QP to INIT on mlx5_0: Operation not permitted
n1420:rank0.orca_scf_mpi: Failed to modify UD QP to INIT on mlx5_0: Operation not permitted
n1420:rank26.orca_scf_mpi: Failed to modify UD QP to INIT on mlx5_0: Operation not permitted
n1420:rank16.orca_scf_mpi: Failed to modify UD QP to INIT on mlx5_0: Operation not permitted
n1420:rank25.orca_scf_mpi: Failed to modify UD QP to INIT on mlx5_0: Operation not permitted
n1420:rank5.orca_scf_mpi: Failed to modify UD QP to INIT on mlx5_0: Operation not permitted
n1420:rank29.orca_scf_mpi: Failed to modify UD QP to INIT on mlx5_0: Operation not permitted
n1420:rank1.orca_scf_mpi: Failed to modify UD QP to INIT on mlx5_0: Operation not permitted
n1420:rank2.orca_scf_mpi: Failed to modify UD QP to INIT on mlx5_0: Operation not permitted
n1420:rank19.orca_scf_mpi: Failed to modify UD QP to INIT on mlx5_0: Operation not permitted
n1420:rank22.orca_scf_mpi: Failed to modify UD QP to INIT on mlx5_0: Operation not permitted
n1420:rank23.orca_scf_mpi: Failed to modify UD QP to INIT on mlx5_0: Operation not permitted
n1420:rank14.orca_scf_mpi: Failed to modify UD QP to INIT on mlx5_0: Operation not permitted
n1420:rank31.orca_scf_mpi: Failed to modify UD QP to INIT on mlx5_0: Operation not permitted
n1420:rank18.orca_scf_mpi: Failed to modify UD QP to INIT on mlx5_0: Operation not permitted
n1420:rank0.orca_scf_mpi: Failed to modify UD QP to INIT on mlx5_0: Operation not permitted
n1420:rank26.orca_scf_mpi: Failed to modify UD QP to INIT on mlx5_0: Operation not permitted
n1420:rank5.orca_scf_mpi: Failed to modify UD QP to INIT on mlx5_0: Operation not permitted
n1420:rank8.orca_scf_mpi: Failed to modify UD QP to INIT on mlx5_0: Operation not permitted
n1420:rank25.orca_scf_mpi: Failed to modify UD QP to INIT on mlx5_0: Operation not permitted
n1420:rank16.orca_scf_mpi: Failed to modify UD QP to INIT on mlx5_0: Operation not permitted
n1420:rank29.orca_scf_mpi: Failed to modify UD QP to INIT on mlx5_0: Operation not permitted
n1420:rank13.orca_scf_mpi: Failed to modify UD QP to INIT on mlx5_0: Operation not permitted
n1420:rank1.orca_scf_mpi: Failed to modify UD QP to INIT on mlx5_0: Operation not permitted
n1420:rank2.orca_scf_mpi: Failed to modify UD QP to INIT on mlx5_0: Operation not permitted
n1420:rank19.orca_scf_mpi: Failed to modify UD QP to INIT on mlx5_0: Operation not permitted
n1420:rank30.orca_scf_mpi: Failed to modify UD QP to INIT on mlx5_0: Operation not permitted
n1420:rank14.orca_scf_mpi: Failed to modify UD QP to INIT on mlx5_0: Operation not permitted
n1420:rank31.orca_scf_mpi: Failed to modify UD QP to INIT on mlx5_0: Operation not permitted
n1420:rank18.orca_scf_mpi: Failed to modify UD QP to INIT on mlx5_0: Operation not permitted
n1420:rank0.orca_scf_mpi: Failed to modify UD QP to INIT on mlx5_0: Operation not permitted
n1420:rank23.orca_scf_mpi: Failed to modify UD QP to INIT on mlx5_0: Operation not permitted
n1420:rank7.orca_scf_mpi: Failed to modify UD QP to INIT on mlx5_0: Operation not permitted
n1420:rank22.orca_scf_mpi: Failed to modify UD QP to INIT on mlx5_0: Operation not permitted
n1420:rank26.orca_scf_mpi: Failed to modify UD QP to INIT on mlx5_0: Operation not permitted
n1420:rank16.orca_scf_mpi: Failed to modify UD QP to INIT on mlx5_0: Operation not permitted
n1420:rank20.orca_scf_mpi: Failed to modify UD QP to INIT on mlx5_0: Operation not permitted
n1420:rank17.orca_scf_mpi: Failed to modify UD QP to INIT on mlx5_0: Operation not permitted
n1420:rank9.orca_scf_mpi: Failed to modify UD QP to INIT on mlx5_0: Operation not permitted
n1420:rank29.orca_scf_mpi: Failed to modify UD QP to INIT on mlx5_0: Operation not permitted
n1420:rank1.orca_scf_mpi: Failed to modify UD QP to INIT on mlx5_0: Operation not permitted
n1420:rank19.orca_scf_mpi: Failed to modify UD QP to INIT on mlx5_0: Operation not permitted
n1420:rank5.orca_scf_mpi: Failed to modify UD QP to INIT on mlx5_0: Operation not permitted
n1420:rank26.orca_scf_mpi: Failed to modify UD QP to INIT on mlx5_0: Operation not permitted
n1420:rank18.orca_scf_mpi: Failed to modify UD QP to INIT on mlx5_0: Operation not permitted
n1420:rank0.orca_scf_mpi: Failed to modify UD QP to INIT on mlx5_0: Operation not permitted
n1420:rank2.orca_scf_mpi: Failed to modify UD QP to INIT on mlx5_0: Operation not permitted
n1420:rank14.orca_scf_mpi: Failed to modify UD QP to INIT on mlx5_0: Operation not permitted
n1420:rank23.orca_scf_mpi: Failed to modify UD QP to INIT on mlx5_0: Operation not permitted
n1420:rank31.orca_scf_mpi: Failed to modify UD QP to INIT on mlx5_0: Operation not permitted
n1420:rank25.orca_scf_mpi: Failed to modify UD QP to INIT on mlx5_0: Operation not permitted
n1420:rank16.orca_scf_mpi: Failed to modify UD QP to INIT on mlx5_0: Operation not permitted
n1420:rank22.orca_scf_mpi: Failed to modify UD QP to INIT on mlx5_0: Operation not permitted


           ************************************************************
           *        Program running with 36 parallel MPI-processes    *
           *              working on a shared directory               *
           ************************************************************

Diagonalization of the overlap matrix:
Smallest eigenvalue                        ... 3.996e-06
Time for diagonalization                   ...    0.469 sec
Threshold for overlap eigenvalues          ... 1.000e-08
Number of eigenvalues below threshold      ... 0
Time for construction of square roots      ...    0.337 sec
Total time needed                          ...    0.818 sec

-------------------
DFT GRID GENERATION
-------------------

General Integration Accuracy     IntAcc      ... 4.388
Radial Grid Type                 RadialGrid  ... OptM3 with GC (2021)
Angular Grid (max. ang.)         AngularGrid ... 4 (Lebedev-302)
Angular grid pruning method      GridPruning ... 4 (adaptive)
Weight generation scheme         WeightScheme... Becke
Basis function cutoff            BFCut       ... 1.0000e-11
Integration weight cutoff        WCut        ... 1.0000e-14
Angular grids for H and He will be reduced by one unit
Partially contracted basis set               ... off
Rotationally invariant grid construction     ... off

Total number of grid points                  ...   424269
Total number of batches                      ...     6671
Average number of points per batch           ...       63
Average number of grid points per atom       ...     5051
Time for grid setup =    2.110 sec

--------------------
COSX GRID GENERATION
--------------------

GRIDX 1
-------
General Integration Accuracy     IntAcc      ... 3.816
Radial Grid Type                 RadialGrid  ... OptM3 with GC (2021)
Angular Grid (max. ang.)         AngularGrid ... 1 (Lebedev-50)
Angular grid pruning method      GridPruning ... 4 (adaptive)
Weight generation scheme         WeightScheme... Becke
Basis function cutoff            BFCut       ... 1.0000e-11
Integration weight cutoff        WCut        ... 1.0000e-14
Angular grids for H and He will be reduced by one unit
Partially contracted basis set               ... on
Rotationally invariant grid construction     ... off

Total number of grid points                  ...    53500
Total number of batches                      ...      864
Average number of points per batch           ...       61
Average number of grid points per atom       ...      637
UseSFitting                                  ... on

GRIDX 2
-------
General Integration Accuracy     IntAcc      ... 4.020
Radial Grid Type                 RadialGrid  ... OptM3 with GC (2021)
Angular Grid (max. ang.)         AngularGrid ... 2 (Lebedev-110)
Angular grid pruning method      GridPruning ... 4 (adaptive)
Weight generation scheme         WeightScheme... Becke
Basis function cutoff            BFCut       ... 1.0000e-11
Integration weight cutoff        WCut        ... 1.0000e-14
Angular grids for H and He will be reduced by one unit
Partially contracted basis set               ... on
Rotationally invariant grid construction     ... off

Total number of grid points                  ...   117197
Total number of batches                      ...     1874
Average number of points per batch           ...       62
Average number of grid points per atom       ...     1395
UseSFitting                                  ... on

GRIDX 3
-------
General Integration Accuracy     IntAcc      ... 4.338
Radial Grid Type                 RadialGrid  ... OptM3 with GC (2021)
Angular Grid (max. ang.)         AngularGrid ... 3 (Lebedev-194)
Angular grid pruning method      GridPruning ... 4 (adaptive)
Weight generation scheme         WeightScheme... Becke
Basis function cutoff            BFCut       ... 1.0000e-11
Integration weight cutoff        WCut        ... 1.0000e-14
Angular grids for H and He will be reduced by one unit
Partially contracted basis set               ... on
Rotationally invariant grid construction     ... off

Total number of grid points                  ...   258610
Total number of batches                      ...     4085
Average number of points per batch           ...       63
Average number of grid points per atom       ...     3079
UseSFitting                                  ... on

Time for X-Grid setup             =    6.240 sec

--------------
SCF ITERATIONS
--------------
ITER       Energy         Delta-E        Max-DP      RMS-DP      [F,P]     Damp
               ***  Starting incremental Fock matrix formation  ***
  0  -3636.3276857267   0.000000000000 0.00236919  0.00002922  0.0121250 0.7000
  1  -3636.3311054986  -0.003419771903 0.00201575  0.00002483  0.0085062 0.7000
                               ***Turning on DIIS***
  2  -3636.3338804432  -0.002774944535 0.00493666  0.00006150  0.0062871 0.0000
  3  -3636.3415364893  -0.007656046171 0.00059814  0.00000739  0.0014098 0.0000
  4  -3636.3418813479  -0.000344858549 0.00111158  0.00000809  0.0005151 0.0000
               *** Restarting incremental Fock matrix formation ***
                                   *** Resetting DIIS ***
  5  -3636.3419609190  -0.000079571154 0.00111314  0.00000441  0.0001723 0.0000
  6  -3636.3419612300  -0.000000310926 0.00018859  0.00000113  0.0001888 0.0000
  7  -3636.3419657557  -0.000004525776 0.00008100  0.00000057  0.0000494 0.0000
  8  -3636.3419659280  -0.000000172248 0.00005576  0.00000046  0.0000494 0.0000
  9  -3636.3419660806  -0.000000152658 0.00007530  0.00000052  0.0000122 0.0000
 10  -3636.3419660491   0.000000031586 0.00004463  0.00000048  0.0000077 0.0000
 11  -3636.3419660468   0.000000002256 0.00005560  0.00000038  0.0000042 0.0000
 12  -3636.3419660263   0.000000020545 0.00007524  0.00000057  0.0000022 0.0000
                            ***DIIS convergence achieved***

               *****************************************************
               *                     SUCCESS                       *
               *           SCF CONVERGED AFTER  13 CYCLES          *
               *****************************************************

Old exchange energy                            =   -104.237674823 Eh
New exchange energy                            =   -104.237622295 Eh
Exchange energy change after final integration =      0.000052528 Eh
Total energy after final integration           =  -3636.341913496 Eh
Final COS-X integration done in                =    48.051 sec
Total Energy       :        -3636.34191350 Eh          -98949.89398 eV
  Last Energy change         ...    2.0914e-09  Tolerance :   1.0000e-08
  Last MAX-Density change    ...    0.0000e+00  Tolerance :   1.0000e-07
             **** THE GBW FILE WAS UPDATED (Combo62_Cf10tc_0.21702_-0.21702_ck-1.gbw) ****
             **** DENSITY Combo62_Cf10tc_0.21702_-0.21702_ck-1.scfp WAS UPDATED ****
             **** ENERGY FILE WAS UPDATED (Combo62_Cf10tc_0.21702_-0.21702_ck-1.en.tmp) ****
----------------------
UHF SPIN CONTAMINATION
----------------------

Warning: in a DFT calculation there is little theoretical justification to 
         calculate <S**2> as in Hartree-Fock theory. We will do it anyways
         but you should keep in mind that the values have only limited relevance

Expectation value of <S**2>     :     0.768082
Ideal value S*(S+1) for S=0.5   :     0.750000
Deviation                       :     0.018082

             **** THE GBW FILE WAS UPDATED (Combo62_Cf10tc_0.21702_-0.21702_ck-1.gbw) ****
             **** DENSITY Combo62_Cf10tc_0.21702_-0.21702_ck-1.scfp WAS UPDATED ****
Total SCF time: 0 days 0 hours 6 min 15 sec 

Maximum memory used throughout the entire SCF-calculation: 753.4 MB


-------------------------------------------------------------------------------
                          DFT DISPERSION CORRECTION                            
                                                                               
                                 DFTD4 V2.5                                    
-------------------------------------------------------------------------------
Starting D4
-------------------------   ----------------
Dispersion correction           -0.136166817
-------------------------   ----------------


-------------------------   --------------------
FINAL SINGLE POINT ENERGY     -3636.478080312851
-------------------------   --------------------



           ************************************************************
           *        Program running with 36 parallel MPI-processes    *
           *              working on a shared directory               *
           ************************************************************

ORCA finished by error termination in SCF gradient
Calling Command: mpirun -np 36  /software/rapids/r23.04/ORCA/5.0.3-gompi-2021b/bin/orca_scfgrad_mpi Combo62_Cf10tc_0.21702_-0.21702_ck-1.scfgrad.inp Combo62_Cf10tc_0.21702_-0.21702_ck-1 
[file orca_tools/qcmsg.cpp, line 465]: 
  .... aborting the run

