73
Coordinates from ORCA-job Combo10_Cf2Opt
  C   -0.04275608100285      3.87771306037277      0.59748341562651
  C   0.54305397650318      4.74206781654207     -0.31109968977618
  C   0.55026249300230      6.09910655062386     -0.06192525325295
  C   -0.03157665630697      6.60617252476752      1.09564007566541
  C   -0.61921876334228      5.72568277957699      2.00061376670908
  C   -0.62229583862519      4.36900199613867      1.75568225184275
  S   -0.06360689136896      8.31541946807158      1.48513793678775
  N   -0.03893785206835      2.47887984064306      0.34548133385429
  C   1.10640253860783      1.68511989164380      0.25597123900446
  C   0.72336496070899      0.35926832878049      0.02205004810783
  C   -0.72523750622674      0.35532919071955     -0.01993849750198
  C   -1.13394553523950      1.69944862698609      0.18394320561227
  C   1.67689831348244     -0.63242712698761     -0.06577986900961
  C   3.01747014222939     -0.28300526713164      0.06964710754565
  C   3.37917231936270      1.04935103849037      0.29520269360279
  C   2.43265051055589      2.04685161690930      0.40149911913727
  C   -2.48539984356786      2.06088435454720      0.17266250572273
  C   -3.41005909791323      1.07869591780177     -0.03873856696239
  C   -3.02073355215594     -0.26640386702975     -0.22920403904936
  C   -1.66005117625257     -0.62058702079013     -0.21752421773015
  N   4.00350613162717     -1.26846947274165     -0.00521713912518
  C   5.03882839804293     -1.45775196812309      0.91313019917184
  C   5.80387272917753     -2.56042988668570      0.51097949992927
  C   5.21260635084801     -3.06178594283453     -0.70857060256227
  C   4.10914996946353     -2.24650234472373     -0.99449466903329
  N   -3.97482971974006     -1.23720884563987     -0.43061612076692
  C   -5.13158979698106     -1.11346020274411     -1.22211627102043
  C   -5.82661687968046     -2.32815197077975     -1.19146440408396
  C   -5.07345388931461     -3.23330162769277     -0.34365377490003
  C   -3.94641356774586     -2.53602483776448      0.10574992296988
  C   3.34913728404963     -2.43002316661267     -2.13910107996454
  C   3.69781799202635     -3.46802005652052     -2.98242139278215
  C   4.77895385943818     -4.29973133284146     -2.70016422495891
  C   5.54445149563292     -4.09681155624500     -1.56867057950375
  C   6.88386489505757     -2.96612596630330      1.28053621113525
  C   7.17963256955346     -2.27308725109806      2.43747613348674
  C   6.39721862953915     -1.19117689031931      2.83480620450123
  C   5.31645576725183     -0.77004037054786      2.08404493476793
  C   -6.98370963268737     -2.47991872046002     -1.92765772270160
  C   -7.42701000343982     -1.41650552295922     -2.69819492755794
  C   -6.70849934132038     -0.22823684240446     -2.75023004177008
  C   -5.54398400482257     -0.06000244527557     -2.02144913892692
  C   -3.06246705985664     -3.09054762238655      1.01724164670583
  C   -3.29552732005756     -4.39323989036617      1.42214377840189
  C   -4.38979983444572     -5.10898081807351      0.95198556204865
  C   -5.29449511703854     -4.52916815648645      0.07570544396005
  H   0.98624716757335      4.35338693588038     -1.21788182995403
  H   1.00687104574767      6.76625174139159     -0.77968118989542
  H   -1.06666346460855      6.10547753807251      2.90926750362035
  H   -1.06080329079385      3.68784655039785      2.47253152663874
  H   0.58402796001204      8.74353330295675      0.39552923521993
  H   1.40450614322765     -1.66847318515330     -0.20764259157824
  H   4.42741569225924      1.29675994005796      0.37416921871760
  H   2.72497575410462      3.07077288866450      0.58288682430800
  H   -2.79091476164058      3.08242711611814      0.34473372782591
  H   -4.46144877317477      1.31760618089805     -0.00330274617265
  H   -1.36895719082995     -1.63936892107741     -0.42427564287109
  H   2.52517644855305     -1.77634442166824     -2.38567221622054
  H   3.12269527304697     -3.63064265165380     -3.88382159329710
  H   5.02581565377704     -5.10220249431700     -3.38106564809032
  H   6.39546651260570     -4.73143930798351     -1.36070786756396
  H   7.48305937273594     -3.81599795425250      0.98227665805054
  H   8.02008904524477     -2.57505678489968      3.04651144126677
  H   6.63667686044019     -0.66966550009616      3.75141256331801
  H   4.71106429245043      0.06033489516136      2.41596111284400
  H   -7.52889228786603     -3.41360479063486     -1.91426498986470
  H   -8.33266707668738     -1.51676650489988     -3.27963196727786
  H   -7.05790078159972      0.57925523344432     -3.37814471471569
  H   -4.98032583771172      0.85595475630405     -2.10387828018765
  H   -2.23360631815581     -2.53470413098111      1.42703024989086
  H   -2.61913525853494     -4.85473583256874      2.12767362759862
  H   -4.54681602544490     -6.12361481973247      1.28998093201978
  H   -6.16206648489036     -5.07938915277493     -0.26179006688661
