64
-105.73268451
C          4.0752042745       -0.1984916593        0.2382093589
C          4.7205806608        0.0743960179        1.4417684041
C          6.0962441460        0.0067333869        1.5217120304
C          6.8500984430       -0.3405755867        0.4001787744
C          6.2000906016       -0.6157369467       -0.8033974039
C          4.8247899981       -0.5424857026       -0.8840189420
C          8.2611963447       -0.4129684665        0.4823345293
C          9.4585534047       -0.4744534936        0.5497228397
N          2.6749774093       -0.1279288158        0.1565024879
C          1.8874338583        0.7499802181        0.8411213058
C          0.5819282280        0.5161941843        0.4997509457
C          0.5824442741       -0.5646172759       -0.4300464482
C          1.8891924247       -0.9279001807       -0.6195026691
N         -0.5881154837        1.1714763621        0.9412240851
C         -1.2013822606        2.0770598536        0.0693648540
C         -2.5874771499        2.2604445907        0.1073619867
O         -3.3996507335        1.5681599973        0.9811095499
C         -2.7797510501        0.7211098564        1.8757454073
C         -1.3971979897        0.5093604814        1.8704526015
N         -0.5870412935       -1.1057514281       -1.0067165709
C         -1.2152774205       -0.3764810210       -2.0212924658
C         -2.6001617426       -0.4655959825       -2.1963773101
O         -3.3964900520       -1.2526853839       -1.3910796722
C         -2.7619214035       -2.0050924499       -0.4249265227
C         -1.3799016340       -1.9453159520       -0.2177518694
C         -3.5839795764        0.0687790537        2.7910187526
C         -3.0247875798       -0.7961918470        3.7202378658
C         -1.6596494359       -0.9984634513        3.7323294742
C         -0.8510173930       -0.3511889480        2.8127921367
C         -0.4547539846        2.8220640198       -0.8330422379
C         -1.0707436209        3.7204498343       -1.6885846712
C         -2.4407890649        3.8836818100       -1.6553994977
C         -3.1990125530        3.1533798655       -0.7520811218
C         -3.5509728026       -2.8314027334        0.3525414430
C         -2.9768728159       -3.6174202111        1.3409256103
C         -1.6119885227       -3.5766929723        1.5410435490
C         -0.8184684416       -2.7452374140        0.7680215030
C         -0.4852293056        0.4307917232       -2.8828372663
C         -1.1159974847        1.1445135259       -3.8884232664
C         -2.4847515445        1.0627051047       -4.0445202542
C         -3.2265423998        0.2524867156       -3.1973439549
H          4.1428745022        0.3235049991        2.3179339979
H          6.5967813684        0.2154702539        2.4547939017
H          6.7816638300       -0.8798748243       -1.6733110851
H          4.3303034157       -0.7367564765       -1.8227411198
H         10.5044070407       -0.5277537713        0.6118789428
H          2.2972369367        1.4963005446        1.4904356403
H          2.2956068843       -1.7148938555       -1.2211600007
H         -4.6476534302        0.2439514485        2.7535850862
H         -3.6625532447       -1.3035183244        4.4260514044
H         -1.2143584869       -1.6651505555        4.4535212718
H          0.2150876071       -0.5135855582        2.8139383885
H          0.6148049679        2.6865693645       -0.8614285116
H         -0.4715946767        4.2869024825       -2.3836088849
H         -2.9292371183        4.5736815164       -2.3244496390
H         -4.2717811977        3.2555209367       -0.7051285395
H         -4.6148184670       -2.8382479236        0.1746486761
H         -3.6029689013       -4.2543552239        1.9447613395
H         -1.1549103191       -4.1872752515        2.3033821282
H          0.2474799991       -2.7056731341        0.9269428116
H          0.5831580479        0.4990250908       -2.7531554085
H         -0.5294642488        1.7681174364       -4.5441394342
H         -2.9848159585        1.6221064329       -4.8186686953
H         -4.2980007794        0.1710997999       -3.2913483035
