77
-129.34090065
C          3.3387681677        0.5555246160       -0.1760672621
C          3.8743464359        1.5737545883       -0.9723410167
C          5.2280143495        1.8030660636       -0.9891811742
C          6.1017982397        1.0285748694       -0.2111551696
C          5.5559200611        0.0119866646        0.5855559154
C          4.2019298123       -0.2216574954        0.6036317864
C          7.5181786112        1.2864062592       -0.2417447209
S          8.2094395416        2.5369175979       -1.0681712790
S          8.5368643899        0.1780425541        0.6652346890
N          1.9707872821        0.3275082562       -0.1569896156
C          0.9873259223        1.3071662461       -0.0981444857
C         -0.2836219866        0.6987464390       -0.0971089401
C         -0.0576682670       -0.7195974247       -0.1654380222
C          1.3442400150       -0.9059415225       -0.1987658842
C         -1.4412233752        1.4540972954       -0.0211439744
C         -1.3454421621        2.8439876375        0.0434534945
C         -0.0675859473        3.4254635404        0.1289606423
C          1.0910197725        2.6798293534        0.0632315439
C          1.8870529420       -2.1758254057       -0.3405340774
C          1.0222479958       -3.2511858292       -0.3937298205
C         -0.3633976910       -3.0755399500       -0.3322581910
C         -0.9140824820       -1.8070038655       -0.2323844991
N         -2.4891187783        3.6402425232        0.0802111511
C         -2.4417881331        5.0185034357        0.3882915413
C         -3.2094105369        5.4805460152        1.4609537439
O         -4.0498601050        4.6264787760        2.1423485595
C         -4.5206287749        3.5813252508        1.3769406409
C         -3.7749701339        3.0949558137        0.2993844037
N         -1.2105606649       -4.2113865770       -0.3894103627
C         -1.3037612806       -4.9628242927       -1.5584937868
C         -2.1189352167       -6.1025232527       -1.5836407162
O         -2.8510324423       -6.5095279333       -0.4886446669
C         -2.7624345946       -5.7391041194        0.6513566907
C         -1.9504847901       -4.5990267668        0.7254279177
C         -5.7647513205        3.0483396988        1.6723842386
C         -6.2867741530        2.0453656133        0.8732886945
C         -5.5918572726        1.6173389795       -0.2446270036
C         -4.3468082312        2.1468503555       -0.5396345169
C         -1.7178848248        5.9348958885       -0.3643320691
C         -1.6807925298        7.2674574488        0.0096413393
C         -2.3817446630        7.7013300829        1.1216325690
C         -3.1683766414        6.8135315472        1.8358593423
C         -3.5075947430       -6.1466437763        1.7408420545
C         -3.4538603494       -5.4345563863        2.9313876462
C         -2.6421911064       -4.3222926087        3.0217914145
C         -1.8937137774       -3.9087190804        1.9301045346
C         -0.6359920521       -4.6048830068       -2.7234166432
C         -0.7489472003       -5.3742596890       -3.8715560202
C         -1.5363730162       -6.5074696706       -3.8783307446
C         -2.2282730291       -6.8663795746       -2.7294242275
H          3.2208523426        2.1588506001       -1.5996179038
H          5.6394050982        2.5778243901       -1.6179911459
H          6.2058075473       -0.5840781937        1.2085859265
H          3.7966022175       -0.9843716463        1.2491871459
H          9.6873595058        0.7785122345        0.3738832043
H         -2.3929836703        0.9532271018        0.0242719674
H          0.0231517343        4.4866734927        0.2895601556
H          2.0473241556        3.1685362860        0.1614706115
H          2.9507936800       -2.3310505006       -0.4205783758
H          1.4147079396       -4.2517601521       -0.4928621492
H         -1.9847442169       -1.6752325615       -0.2110250928
H         -6.3024270848        3.4279283392        2.5264573809
H         -7.2483597959        1.6199638947        1.1124339011
H         -6.0175211101        0.8672897827       -0.8925044982
H         -3.8139823609        1.8302684934       -1.4223612465
H         -1.1861125641        5.5974069962       -1.2399829826
H         -1.1004811718        7.9666554785       -0.5715060838
H         -2.3392335311        8.7360114246        1.4222800723
H         -3.7528034012        7.1323841428        2.6840325961
H         -4.1212706655       -7.0277466424        1.6395686481
H         -4.0401039232       -5.7600804798        3.7756816500
H         -2.5809243890       -3.7655992729        3.9438857650
H         -1.2547502638       -3.0441941940        2.0148373877
H         -0.0267679469       -3.7150958819       -2.7311410620
H         -0.2158364491       -5.0756242618       -4.7606662876
H         -1.6258744512       -7.1119033576       -4.7666612827
H         -2.8626275982       -7.7382460502       -2.7041688828
