77
-129.34945973
C          3.3065915362        0.5420079400       -0.0153761461
C          3.8705972430        1.4729617036        0.8598289905
C          5.2274123855        1.6993799145        0.8520656703
C          6.0663277164        1.0043067295       -0.0286850455
C          5.4897709382        0.0730503841       -0.9031964606
C          4.1339829322       -0.1553235549       -0.8986368698
C          7.4932263586        1.2276943490       -0.0483529105
S          8.5456661934        0.3512641535       -0.9660354783
S          8.0953937696        2.5179223965        0.9773436259
N          1.9321473035        0.3122534333       -0.0052677918
C          0.9493785450        1.2860031508        0.0072389260
C         -0.3212522243        0.6671394887        0.0224681709
C         -0.0862637128       -0.7499658828        0.0264255124
C          1.3165693604       -0.9262401376       -0.0005570191
C         -1.4774344404        1.4332881741        0.0096141638
C         -1.3518488392        2.8125213115       -0.0460463386
C         -0.0905093423        3.4164988961       -0.0932408889
C          1.0682878775        2.6674212035       -0.0666254242
C          1.8771863939       -2.1956984110        0.0436700042
C          1.0228749353       -3.2796632058        0.0739033090
C         -0.3651982121       -3.1124040378        0.0713744421
C         -0.9322148159       -1.8488396068        0.0567382694
N         -2.5112836489        3.6266187295       -0.0810955023
C         -2.7994771383        4.4889651364        0.9748385391
C         -3.9214199384        5.3248422004        0.8974224654
O         -4.7710498831        5.3198974887       -0.1880860245
C         -4.4698553576        4.4585035835       -1.2212249929
C         -3.3504039138        3.6155936078       -1.1942596736
N         -1.2008415817       -4.2607311814        0.1002237250
C         -1.8140846417       -4.6569133192        1.2846272098
C         -2.6039325425       -5.8145838058        1.2973279397
O         -2.7972990630       -6.5877818938        0.1713734634
C         -2.1707217093       -6.1821179102       -0.9885862571
C         -1.3741506877       -5.0305578211       -1.0453577055
C         -5.3210919717        4.4669461783       -2.3093979989
C         -5.0723158006        3.6442382606       -3.3994027544
C         -3.9604097842        2.8271379048       -3.3934848704
C         -3.1038885824        2.8149418870       -2.3030079789
C         -2.0271104297        4.5287495061        2.1293522863
C         -2.3396658779        5.3982502456        3.1633009131
C         -3.4323487010        6.2353967383        3.0655141703
C         -4.2284499133        6.1908108444        1.9291291470
C         -2.3636585124       -6.9593261488       -2.1137937979
C         -1.7728510845       -6.6036053793       -3.3193361254
C         -0.9962779786       -5.4651023172       -3.3881623396
C         -0.7990827620       -4.6817628956       -2.2608183761
C         -1.6559258929       -3.9499070185        2.4698479704
C         -2.2776176395       -4.3729701409        3.6351900154
C         -3.0612839000       -5.5086553951        3.6352440508
C         -3.2207504870       -6.2319334619        2.4604261151
H          3.2410145423        1.9941691304        1.5632898779
H          5.6511396891        2.4095165710        1.5459275866
H          6.1264178161       -0.4558751208       -1.5956737819
H          3.7026938993       -0.8537127330       -1.5980916105
H          9.3783634101        2.3590560182        0.6635544057
H         -2.4522588806        0.9717833965        0.0286530958
H         -0.0339318623        4.4923121088       -0.1577766216
H          2.0307546187        3.1489538465       -0.1279864884
H          2.9449105066       -2.3413802514        0.0718388390
H          1.4234062663       -4.2813783119        0.1036577409
H         -2.0040846077       -1.7294290447        0.0764092332
H         -6.1724412038        5.1286740406       -2.2868546279
H         -5.7440560256        3.6563423581       -4.2426813291
H         -3.7462843463        2.1917482211       -4.2386399874
H         -2.2316797992        2.1811961795       -2.3160748421
H         -1.1782882126        3.8701339099        2.2203693474
H         -1.7206534738        5.4116058750        4.0466887357
H         -3.6789683245        6.9166419534        3.8639898435
H         -5.0978329449        6.8207037222        1.8261626136
H         -2.9817729050       -7.8390809270       -2.0289772713
H         -1.9298191585       -7.2174419377       -4.1917780000
H         -0.5380585998       -5.1737885205       -4.3203988295
H         -0.1970666838       -3.7889947390       -2.3220654498
H         -1.0388175155       -3.0654214991        2.4783226336
H         -2.1400902300       -3.8057377559        4.5424846145
H         -3.5474043464       -5.8431119440        4.5376831836
H         -3.8206275994       -7.1276967230        2.4289812500
