77
-129.34929519
C          3.2937778850        0.5448324741       -0.2785106103
C          4.0591099606       -0.1978705599       -1.1804089203
C          5.4121384846        0.0228710331       -1.2855052802
C          6.0470830633        0.9914370167       -0.4961926830
C          5.2697907542        1.7325857144        0.4031541514
C          3.9157874521        1.5140291914        0.5114380410
C          7.4706443511        1.2048269066       -0.6195549692
S          8.4571433133        0.2809237278       -1.5632775977
S          8.1433816022        2.5355637806        0.3051286423
N          1.9226181059        0.3205401576       -0.1663520456
C          0.9413147344        1.2953152360       -0.1405786588
C         -0.3249509495        0.6796153059       -0.0135785182
C         -0.0876892971       -0.7357752846        0.0480926769
C          1.3110938087       -0.9148906969       -0.0572579525
C         -1.4808960847        1.4458292539        0.0020910139
C         -1.3594519508        2.8218116583       -0.1102228432
C         -0.1045634667        3.4220939329       -0.2589562669
C          1.0535307099        2.6715095227       -0.2857815350
C          1.8774908966       -2.1801054455        0.0209045118
C          1.0295388421       -3.2604137146        0.1615098610
C         -0.3559621818       -3.0915933130        0.2364109941
C         -0.9269851024       -1.8310994710        0.1914022483
N         -2.5189147244        3.6373901355       -0.0872331075
C         -3.2573757433        3.7840509387        1.0851636635
C         -4.3868376049        4.6137642411        1.0886017699
O         -4.7972039826        5.3068545151       -0.0304211054
C         -4.0565541073        5.1424641831       -1.1814732356
C         -2.9265059214        4.3154042202       -1.2338849352
N         -1.1858520037       -4.2384842014        0.3722439850
C         -1.5809635898       -4.6770242626        1.6308949635
C         -2.3531816590       -5.8411524044        1.7434801515
O         -2.7389266363       -6.5788459245        0.6429187466
C         -2.3212810232       -6.1331931342       -0.5942948634
C         -1.5482416177       -4.9746846819       -0.7498502234
C         -4.4822261206        5.8264443712       -2.3036791838
C         -3.7982635494        5.6949297038       -3.5046683727
C         -2.6972993774        4.8658387523       -3.5729085408
C         -2.2661937354        4.1777850166       -2.4487464891
C         -2.8977687497        3.1561426251        2.2713680068
C         -3.6527108166        3.3260595247        3.4221220645
C         -4.7739645128        4.1302198931        3.4093581887
C         -5.1366401481        4.7793452298        2.2369887733
C         -2.6986335326       -6.8777031462       -1.6943705301
C         -2.3171796186       -6.4827851837       -2.9704032567
C         -1.5603075907       -5.3407356405       -3.1337381000
C         -1.1779266691       -4.5899469319       -2.0320148627
C         -1.2297181483       -3.9978467930        2.7903429705
C         -1.6395318835       -4.4600714399        4.0321915563
C         -2.4019387878       -5.6056735565        4.1330571926
C         -2.7576891883       -6.2977004649        2.9823507040
H          3.5807988202       -0.9269187460       -1.8150590226
H          6.0004547359       -0.5419869750       -1.9921823614
H          5.7399044672        2.4730278857        1.0324531369
H          3.3350493151        2.0717177368        1.2288377304
H          9.4024568775        2.3542588874       -0.0843498394
H         -2.4530090934        0.9875443149        0.0949094693
H         -0.0527943304        4.4952027195       -0.3610303471
H          2.0099379116        3.1485314345       -0.4260950590
H          2.9453473061       -2.3241018137       -0.0108632499
H          1.4331180372       -4.2596359102        0.2195127157
H         -1.9958360192       -1.7110005047        0.2721608429
H         -5.3540680125        6.4556622806       -2.2189973977
H         -4.1371642089        6.2348962296       -4.3742066172
H         -2.1638479118        4.7437813645       -4.5026225228
H         -1.4115619751        3.5235615284       -2.5151807803
H         -2.0175421063        2.5338217100        2.2951238038
H         -3.3523439953        2.8241442849        4.3285670963
H         -5.3666295705        4.2650981534        4.2998997436
H         -5.9998637232        5.4245596630        2.1952119614
H         -3.2921685302       -7.7639759308       -1.5347591068
H         -2.6176902842       -7.0712206449       -3.8224927784
H         -1.2608986539       -5.0219438530       -4.1199676300
H         -0.5889987102       -3.6959351529       -2.1638514384
H         -0.6307712304       -3.1038514362        2.7158483153
H         -1.3548735316       -3.9153043040        4.9187803178
H         -2.7231631572       -5.9710154625        5.0953227216
H         -3.3499993661       -7.1978547755        3.0286717776
