77
-129.34888881
C          3.2743089450        0.5621416954       -0.3947540360
C          3.9853211076       -0.1084435690       -1.3919165570
C          5.3312284056        0.1235274718       -1.5591027262
C          6.0102995891        1.0324847115       -0.7377960265
C          5.2868597663        1.6997562553        0.2597814239
C          3.9418774614        1.4696481638        0.4304297724
C          7.4228537121        1.2905219475       -0.9019318491
S          8.2475525982        2.4411204047       -0.0578050249
S          8.2657879311        0.2967400969       -2.0762941870
N          1.9099675894        0.3280618415       -0.2255826214
C          0.9345350429        1.2971465210       -0.0796850146
C         -0.3261748608        0.6726263772        0.0628368876
C         -0.0900200234       -0.7430922584        0.0087655310
C          1.3015242972       -0.9128227845       -0.1765441450
C         -1.4764346672        1.4364314096        0.1987564867
C         -1.3523295318        2.8151274391        0.1801043815
C         -0.1069569634        3.4268277787        0.0110271815
C          1.0462259585        2.6803124028       -0.1261452410
C          1.8683340173       -2.1796789457       -0.2168397600
C          1.0259595910       -3.2683348236       -0.1107192125
C         -0.3537296468       -3.1066993552        0.0442167494
C         -0.9237301531       -1.8469825142        0.1147949194
N         -2.5100664964        3.6296668028        0.3201483847
C         -2.9080818547        4.0704600474        1.5767852041
C         -4.0242485220        4.9101846917        1.6909877515
O         -4.7507709805        5.3226259084        0.5927457839
C         -4.3269259472        4.8856095924       -0.6456575490
C         -3.2158379073        4.0459808382       -0.8026815175
N         -1.1791965276       -4.2604630939        0.1458936268
C         -1.6533343145       -4.8860115098       -1.0012704661
C         -2.4464296828       -6.0351994674       -0.8817413115
O         -2.7773177776       -6.5773380802        0.3433599814
C         -2.2808179811       -5.9491680921        1.4671329208
C         -1.4853947440       -4.7977616135        1.3907423577
C         -5.0459755871        5.3104637491       -1.7453104924
C         -4.6745347072        4.9078236964       -3.0219012967
C         -3.5822417664        4.0809342066       -3.1860934499
C         -2.8561014830        3.6519137548       -2.0849524487
C         -2.2334327931        3.7000774744        2.7328794537
C         -2.6558459457        4.1533582909        3.9737957663
C         -3.7549356212        4.9811708018        4.0764287759
C         -4.4400563015        5.3595297311        2.9286977731
C         -2.5976695244       -6.5027655920        2.6918386500
C         -2.1297312650       -5.9222108262        3.8639090898
C         -1.3447826088       -4.7893705693        3.7983575456
C         -1.0229608334       -4.2296962132        2.5707436722
C         -1.3711435533       -4.4019831637       -2.2720888266
C         -1.8619119025       -5.0453028420       -3.3986212424
C         -2.6401267518       -6.1775560895       -3.2713266416
C         -2.9324436014       -6.6720311987       -2.0064779754
H          3.4694575895       -0.7890999145       -2.0503009509
H          5.8647284930       -0.3899251194       -2.3445732037
H          5.8050865786        2.3908798567        0.9065843980
H          3.4050226482        1.9699718656        1.2207267247
H          9.4587321774        0.8606500845       -1.9067212370
H         -2.4452042736        0.9754128806        0.3094574181
H         -0.0591489274        4.5045868016       -0.0164650427
H          1.9966743733        3.1653603164       -0.2792827352
H          2.9329839916       -2.3192816557       -0.3111605325
H          1.4294989081       -4.2686603966       -0.1416736216
H         -1.9871275782       -1.7342460801        0.2556403385
H         -5.8944270571        5.9567180312       -1.5848589758
H         -5.2432550034        5.2452158371       -3.8735756932
H         -3.2841826733        3.7614084388       -4.1724618058
H         -2.0025269469        3.0057530390       -2.2171013765
H         -1.3741089128        3.0526191027        2.6560956628
H         -2.1163335742        3.8519709035        4.8580920279
H         -4.0883721241        5.3376578350        5.0378682569
H         -5.3025448744        6.0053277562        2.9767459865
H         -3.2118165422       -7.3891848856        2.7105358812
H         -2.3833298699       -6.3626457259        4.8148806497
H         -0.9743400210       -4.3301185243        4.7015561052
H         -0.4075024427       -3.3450740372        2.5235955524
H         -0.7653316109       -3.5155070773       -2.3749624444
H         -1.6297354251       -4.6509496983       -4.3755624181
H         -3.0251747789       -6.6824556814       -4.1427999163
H         -3.5393301849       -7.5538341139       -1.8746539721
