77
-129.34477628
C          3.2874624520        0.5509097507       -0.3177569764
C          3.7722552268        1.3908162571       -1.3218804022
C          5.1239319869        1.6196645987       -1.4399722404
C          6.0348830865        1.0000775821       -0.5769535144
C          5.5413147659        0.1626770182        0.4294847795
C          4.1871048613       -0.0516749915        0.5624569705
C          7.4496168910        1.2829355279       -0.7260121059
S          8.0075162911        2.7327255701       -1.2717324133
S          8.6275492848        0.0586659549       -0.3071103763
N          1.9173492868        0.3222325549       -0.1901113464
C          0.9295580497        1.2897560716       -0.2135249219
C         -0.3326677467        0.6724552163       -0.0580950254
C         -0.0866450865       -0.7376763251        0.0600250304
C          1.3146537709       -0.9104528102       -0.0223132673
C         -1.4905447796        1.4360008706       -0.0326465098
C         -1.3724677332        2.8128964941       -0.1360388459
C         -0.1165262550        3.4189389288       -0.2515317110
C          1.0427771512        2.6714208151       -0.2919815333
C          1.8814441380       -2.1776702555        0.0050162832
C          1.0384347227       -3.2599297951        0.1595283069
C         -0.3444420297       -3.0925430013        0.2741877163
C         -0.9210504880       -1.8352903536        0.2150767054
N         -2.5328181951        3.6265630978       -0.1063101097
C         -3.2866090407        3.7446049673        1.0600055301
C         -4.4103467509        4.5820774637        1.0719741585
O         -4.7970439415        5.3152042023       -0.0297402779
C         -4.0328738823        5.1908859499       -1.1703098213
C         -2.9103713892        4.3544051430       -1.2327545348
N         -1.1684683366       -4.2399599275        0.4422524143
C         -1.4218473320       -4.7390217005        1.7144773510
C         -2.2024901235       -5.8938886929        1.8589986527
O         -2.7347835150       -6.5631401185        0.7758449720
C         -2.4561825961       -6.0582388277       -0.4778408266
C         -1.6798448607       -4.9064478688       -0.6648931347
C         -4.4274932107        5.9251771512       -2.2719169861
C         -3.7203374288        5.8346385859       -3.4631522468
C         -2.6281025959        4.9951053165       -3.5431260146
C         -2.2279059569        4.2573116839       -2.4393472389
C         -2.9496112550        3.0795599150        2.2326535138
C         -3.7229145772        3.2175580747        3.3754227217
C         -4.8401957759        4.0272694752        3.3692402337
C         -5.1785495203        4.7159317381        2.2123816031
C         -2.9757824585       -6.7375209520       -1.5619362263
C         -2.7339936028       -6.2842381764       -2.8526420648
C         -1.9707284066       -5.1512413400       -3.0464392984
C         -1.4457547004       -4.4656591105       -1.9610022972
C         -0.9268362359       -4.1238635244        2.8570993748
C         -1.1983943536       -4.6437047531        4.1139866701
C         -1.9661823693       -5.7824670565        4.2464202081
C         -2.4692308629       -6.4078906601        3.1125581346
H          3.0861803089        1.8429728827       -2.0201706657
H          5.5022856326        2.2629288777       -2.2194784676
H          6.2156700207       -0.2753435469        1.1497076386
H          3.8159819992       -0.6643995817        1.3685094457
H          7.7808517284       -0.9609874786       -0.1447721786
H         -2.4601756846        0.9755800108        0.0747364947
H         -0.0645162277        4.4955805924       -0.3065590233
H          2.0029470758        3.1569613567       -0.3598195928
H          2.9435870769       -2.3235468071       -0.1052466142
H          1.4425458602       -4.2600618198        0.1901769031
H         -1.9912938232       -1.7198954986        0.2838721765
H         -5.2939191767        6.5607019384       -2.1790841816
H         -4.0348621626        6.4138743392       -4.3164204524
H         -2.0776458555        4.9038400332       -4.4664303575
H         -1.3800736102        3.5954720733       -2.5153873387
H         -2.0719107151        2.4536266866        2.2531972103
H         -3.4398479033        2.6861634607        4.2705677394
H         -5.4476010829        4.1367365680        4.2533024728
H         -6.0366843472        5.3682586737        2.1766288744
H         -3.5677964454       -7.6202125397       -1.3784108865
H         -3.1447457663       -6.8222249451       -3.6920014869
H         -1.7758940904       -4.7896901206       -4.0440615526
H         -0.8490550174       -3.5805596231       -2.1163752678
H         -0.3275763575       -3.2326234886        2.7570892276
H         -0.8036265026       -4.1484848521        4.9873664418
H         -2.1809621936       -6.1922128838        5.2204067118
H         -3.0730308882       -7.2987661959        3.1837676740
