77
-129.34045268
C          3.3236714986        0.5469037898       -0.2840019596
C          4.1625609971       -0.2965288963       -1.0202145240
C          5.5157484723       -0.0659920645       -1.0619580744
C          6.0862340489        1.0133862277       -0.3708956144
C          5.2375808163        1.8541006264        0.3631203393
C          3.8828861170        1.6272369448        0.4060387242
C          7.5085638630        1.2350100548       -0.4239762901
S          8.5726213323        0.2143720768       -1.1655526505
S          8.1043731473        2.6912658831        0.3584191283
N          1.9560044424        0.3149306615       -0.2387243057
C          0.9592019102        1.2738711777       -0.3694646718
C         -0.3032006944        0.6557878020       -0.2679649630
C         -0.0574992404       -0.7438856578       -0.0495880686
C          1.3467061034       -0.9122437773       -0.0452488096
C         -1.4734832898        1.3843263044       -0.3968008385
C         -1.4006733574        2.7512820465       -0.6618020086
C         -0.1322077782        3.3516755684       -0.7517177376
C          1.0390644718        2.6346415567       -0.6193542825
C          1.9115709498       -2.1543359360        0.2109765267
C          1.0633800924       -3.2247575974        0.4133250041
C         -0.3259246267       -3.0733016437        0.3659218456
C         -0.8970603226       -1.8298950724        0.1421866880
N         -2.5583965457        3.5154216242       -0.8119411911
C         -3.8294730125        3.0249426751       -0.4320585281
C         -4.5540159368        3.7433701642        0.5232183980
O         -4.0819142971        4.9447740283        1.0060376946
C         -3.2738897013        5.6224894970        0.1184399325
C         -2.5282184082        4.9285612900       -0.8383539891
N         -1.1536181492       -4.2067758746        0.5676166225
C         -1.9309590735       -4.3227572515        1.7180858189
C         -2.7121147864       -5.4708249847        1.9088875901
O         -2.7319067441       -6.5097044991        1.0026411096
C         -1.9537142971       -6.3761439673       -0.1273581972
C         -1.1682807797       -5.2403825557       -0.3660662901
C         -3.2444659859        7.0067168881        0.1684791047
C         -2.4920755413        7.7088739621       -0.7576780866
C         -1.8151345046        7.0323180234       -1.7578447175
C         -1.8408312411        5.6488693962       -1.8072500828
C         -4.4077686113        1.9005671955       -1.0073894147
C         -5.6345270122        1.4416847377       -0.5577331770
C         -6.3057759407        2.1130244820        0.4495380999
C         -5.7800780806        3.2816081339        0.9738149957
C         -1.9854102691       -7.4158076950       -1.0364411444
C         -1.2444131441       -7.3435343223       -2.2082390140
C         -0.4862393385       -6.2194222717       -2.4647732465
C         -0.4509168820       -5.1740392142       -1.5544358268
C         -1.9428810571       -3.3473736482        2.7078260742
C         -2.7300107414       -3.4935069319        3.8401102666
C         -3.5117774384       -4.6182157189        4.0072592829
C         -3.4953614984       -5.6119821943        3.0380588610
H          3.7381027204       -1.1120106549       -1.5840367424
H          6.1579042859       -0.7087264869       -1.6446303806
H          5.6553903427        2.6805849478        0.9181867725
H          3.2490317840        2.2634514710        1.0028280728
H          9.3886763240        2.4800622366        0.0839747768
H         -2.4178414277        0.8845517006       -0.2676517765
H         -0.0570412138        4.4150996808       -0.9040330840
H          1.9863093614        3.1394850906       -0.7205513429
H          2.9794938095       -2.2876862022        0.2756418900
H          1.4718557704       -4.2032506681        0.6154501605
H         -1.9696825557       -1.7140670329        0.1293317294
H         -3.8109278015        7.5105547916        0.9352550702
H         -2.4580538433        8.7856035483       -0.7097404183
H         -1.2626110677        7.5807198114       -2.5043724968
H         -1.3286703748        5.1196693830       -2.5954365359
H         -3.8947433957        1.3916684342       -1.8081867696
H         -6.0644950151        0.5556089610       -0.9976936364
H         -7.2526737264        1.7453117450        0.8115489641
H         -6.3010821283        3.8460864924        1.7305169243
H         -2.5989627937       -8.2736521256       -0.8110040657
H         -1.2735430678       -8.1614121426       -2.9101682886
H          0.0840075367       -6.1433156387       -3.3774269445
H          0.1358296903       -4.2950651854       -1.7687277902
H         -1.3266357988       -2.4698642526        2.5936825222
H         -2.7222783522       -2.7183140507        4.5903839472
H         -4.1278646690       -4.7368677104        4.8840818720
H         -4.0828215992       -6.5102985148        3.1433503751
