77
-129.34953743
C          3.3134363321        0.5291901389        0.0497058098
C          4.1384662420       -0.0923918391       -0.8906881235
C          5.4950432715        0.1303924933       -0.8757344066
C          6.0751432644        0.9802977924        0.0760100207
C          5.2387050100        1.5992164682        1.0141413983
C          3.8810520439        1.3782264219        1.0026128568
C          7.5026394045        1.1998118684        0.0749441285
S          8.5505343233        0.4136073056       -0.9260191916
S          8.1117323792        2.3818175116        1.2202527041
N          1.9383080339        0.3056372075        0.0388208641
C          0.9597283451        1.2787332669        0.1359211240
C         -0.3138427616        0.6665177065        0.0902393051
C         -0.0848073758       -0.7458835522       -0.0376360644
C          1.3170437193       -0.9255721372       -0.0721917533
C         -1.4662420628        1.4366449759        0.1402816958
C         -1.3330615910        2.8129357380        0.2287693788
C         -0.0702824356        3.4138627752        0.2435606758
C          1.0851156503        2.6604110947        0.1895592158
C          1.8700738122       -2.1972092271       -0.1401508759
C          1.0108110437       -3.2738838178       -0.2279262896
C         -0.3776607120       -3.1017194639       -0.2238971835
C         -0.9361615503       -1.8380680260       -0.1112596378
N         -2.4901262212        3.6319170767        0.2916277002
C         -2.8522361180        4.4226829293       -0.7954020466
C         -3.9764425792        5.2538455908       -0.6997895487
O         -4.7513271829        5.3173339507        0.4390887855
C         -4.3796453063        4.5197073539        1.5009510780
C         -3.2599638617        3.6782902410        1.4508987275
N         -1.2178340723       -4.2375946645       -0.3345801144
C         -1.2508091562       -5.1944631854        0.6777527240
C         -2.0425995880       -6.3397874018        0.5199046146
O         -2.8103869936       -6.5562198368       -0.6042612662
C         -2.7749193564       -5.5912585835       -1.5880668569
C         -1.9869547504       -4.4372589700       -1.4800345503
C         -5.1585413455        4.5882575939        2.6396264762
C         -4.8361123488        3.8265513830        3.7549154052
C         -3.7272958190        3.0059559491        3.7211284393
C         -2.9427083381        2.9333500051        2.5798803596
C         -2.1493335726        4.3970508873       -1.9935760838
C         -2.5374307130        5.1935793171       -3.0603900639
C         -3.6356284188        6.0217399375       -2.9498884232
C         -4.3589489836        6.0458632310       -1.7648302583
C         -3.5491468586       -5.8148585718       -2.7102684327
C         -3.5491888828       -4.9002593027       -3.7545007209
C         -2.7603700473       -3.7714002264       -3.6683762117
C         -1.9826602504       -3.5425562595       -2.5433232063
C         -0.5469141580       -5.0391322493        1.8658031733
C         -0.5999934284       -6.0097612860        2.8547001134
C         -1.3629127984       -7.1459978238        2.6778788801
C         -2.0917784501       -7.3049287652        1.5071367745
H          3.7045150757       -0.7257921082       -1.6480083056
H          6.1297147970       -0.3391167164       -1.6115146287
H          5.6649312940        2.2451555954        1.7667391623
H          3.2535508882        1.8384391886        1.7491947894
H          9.3933706257        2.2498080736        0.8890572262
H         -2.4439885554        0.9821752452        0.1070884931
H         -0.0097261555        4.4902982737        0.2915197002
H          2.0499189170        3.1409982923        0.1777875067
H          2.9367992559       -2.3515452328       -0.1208297927
H          1.4087662069       -4.2746637957       -0.2981269442
H         -2.0072831928       -1.7132424912       -0.0833952198
H         -6.0124847784        5.2470394056        2.6364391205
H         -5.4509765091        3.8870411725        4.6385641091
H         -3.4599423016        2.4154353842        4.5834815309
H         -2.0729957362        2.2959533378        2.5652761412
H         -1.2954213948        3.7456303671       -2.0912003394
H         -1.9728092536        5.1568789690       -3.9789343994
H         -3.9417596233        6.6448750876       -3.7748343158
H         -5.2281031081        6.6739266831       -1.6494218230
H         -4.1426757118       -6.7144601937       -2.7504177466
H         -4.1583361523       -5.0829950873       -4.6251488734
H         -2.7399815922       -3.0575591606       -4.4769933735
H         -1.3616679031       -2.6625795312       -2.4932363356
H          0.0431412114       -4.1495751283        2.0185250603
H         -0.0397346398       -5.8659182780        3.7653074124
H         -1.4054308672       -7.9065015027        3.4409653483
H         -2.7093200863       -8.1736554609        1.3424028416
