77
-129.34099235
C          3.2853829236        0.5719216041       -0.5390044943
C          3.9728617499       -0.0311611732       -1.5978137085
C          5.3178571800        0.1878777840       -1.7667052163
C          6.0320856284        1.0133878109       -0.8851910693
C          5.3350824824        1.6119852949        0.1741818354
C          3.9887049116        1.3975756904        0.3445837147
C          7.4430997811        1.2267945495       -1.0773594079
S          8.3398785634        0.4712445061       -2.2389823802
S          8.2185916821        2.3697578582        0.0098308529
N          1.9278076847        0.3480075691       -0.3642409289
C          0.9755548453        1.3025693546       -0.0516581763
C         -0.2910856393        0.6825840880        0.0543036302
C         -0.0884880348       -0.7161889205       -0.2091289570
C          1.2867051286       -0.8800607088       -0.4692317796
C         -1.4220579859        1.4341568560        0.3310560106
C         -1.2839896966        2.8067182068        0.4714880893
C         -0.0348505468        3.4183580394        0.3269474582
C          1.1024155864        2.6801958549        0.0654522521
C          1.7992307586       -2.1518834580       -0.6720023921
C          0.9241663754       -3.2176123235       -0.7040704285
C         -0.4633095073       -3.0618840172       -0.5316986327
C         -0.9578409669       -1.7933536149       -0.2309441237
N         -2.4236697499        3.6067890150        0.7371112447
C         -3.4248608468        3.7514374582       -0.2216000156
C         -4.5336759225        4.5622509396        0.0568661796
O         -4.6695247321        5.2441021977        1.2473801003
C         -3.6618509657        5.0980536428        2.1765796410
C         -2.5431924154        4.2854945695        1.9476782943
N         -1.3108316697       -4.1663201707       -0.6069377958
C         -0.8177905239       -5.4839116176       -0.7351380991
C         -1.2005492306       -6.4286160151        0.2205130946
O         -2.0925095979       -6.0959516652        1.2174482742
C         -2.9770052292       -5.0999193017        0.8632962159
C         -2.6286176373       -4.1429890273       -0.0948087724
C         -3.8037193003        5.7844519751        3.3669902231
C         -2.8410664827        5.6685824002        4.3605393814
C         -1.7479842175        4.8515494178        4.1557513878
C         -1.6011420564        4.1618409758        2.9617959739
C         -3.3540563068        3.1405851218       -1.4679041249
C         -4.3691476320        3.3039130344       -2.3983965562
C         -5.4676392607        4.0855490251       -2.1042695409
C         -5.5433764161        4.7213444093       -0.8725906839
C         -4.2335877344       -5.0910517968        1.4462659393
C         -5.1645930522       -4.1451414270        1.0518148872
C         -4.8583751021       -3.2523970298        0.0396230163
C         -3.6016144336       -3.2582119430       -0.5423672342
C         -0.0224205627       -5.8876211942       -1.8004435156
C          0.4566050156       -7.1851266685       -1.8580419026
C          0.1306883301       -8.0951561211       -0.8669474672
C         -0.7177686851       -7.7259059396        0.1630411576
H          3.4341877221       -0.6449219596       -2.3020731446
H          5.8415340772       -0.2646618067       -2.5949102215
H          5.8665021513        2.2358161620        0.8771540794
H          3.4759628365        1.8387148378        1.1844150034
H          9.4396311873        2.2397114691       -0.5014173535
H         -2.3912167099        0.9689502679        0.4225004080
H          0.0306502599        4.4919459939        0.4171536934
H          2.0509233096        3.1743449320       -0.0699966574
H          2.8578565223       -2.3263782839       -0.7808536262
H          1.3349509082       -4.2055572890       -0.8307059460
H         -1.9923742270       -1.6367451146        0.0204810819
H         -4.6774382082        6.4026844162        3.4996740451
H         -2.9595167652        6.2105117834        5.2850722024
H         -0.9991294502        4.7404890583        4.9243539583
H         -0.7496872577        3.5164650425        2.8159843145
H         -2.4945162384        2.5377689662       -1.7138161781
H         -4.2889305874        2.8149405480       -3.3566895866
H         -6.2618271900        4.2142939664       -2.8220231085
H         -6.3799692974        5.3514846917       -0.6152207691
H         -4.4598844866       -5.8262901394        2.2018407808
H         -6.1369916954       -4.1280889412        1.5176322393
H         -5.5985153304       -2.5458709137       -0.3017838117
H         -3.3731947729       -2.5812979372       -1.3501968704
H          0.2194634966       -5.1786761710       -2.5766678662
H          1.0873157621       -7.4830787124       -2.6807123985
H          0.5165469850       -9.1014016306       -0.9041008005
H         -1.0131298745       -8.4242895730        0.9296330614
