77
-129.34917220
C          3.2668461331        0.5555171086       -0.4572070788
C          3.7049492561        1.4344362915       -1.4502130188
C          5.0493971724        1.6583521610       -1.6319707517
C          6.0015396090        1.0129078664       -0.8313960376
C          5.5514812588        0.1328744776        0.1611279664
C          4.2070092773       -0.0924845091        0.3467602070
C          7.4095334997        1.2626236839       -1.0386121414
S          7.9954034580        2.3781512802       -2.1013255598
S          8.5216850728        0.2974547572       -0.0847080205
N          1.9045618609        0.3266807883       -0.2690638574
C          0.9220064544        1.2975281768       -0.1970846559
C         -0.3319964111        0.6780175062        0.0094056842
C         -0.0882056640       -0.7369762589        0.0480650131
C          1.3049638535       -0.9107235243       -0.1208577410
C         -1.4810289145        1.4437231704        0.1425296344
C         -1.3613735706        2.8223978682        0.0809204754
C         -0.1142103923        3.4296755516       -0.0968955934
C          1.0372227217        2.6807605010       -0.2331553170
C          1.8639875247       -2.1798869189       -0.1882668321
C          1.0222834633       -3.2653789502       -0.0492248438
C         -0.3521210269       -3.0989050970        0.1426274726
C         -0.9214334557       -1.8376522234        0.1861138125
N         -2.5151257472        3.6376970667        0.2191603610
C         -3.1062988696        3.8171889508        1.4667829443
C         -4.2190621341        4.6607241039        1.5864836615
O         -4.7552607342        5.3322958503        0.5077231754
C         -4.1426783911        5.1541260517       -0.7149376786
C         -3.0311805806        4.3169213014       -0.8804440277
N         -1.1774772794       -4.2500758443        0.2724077177
C         -1.7591267296       -4.8246565235       -0.8518251024
C         -2.5372112749       -5.9816335939       -0.7096748048
O         -2.7494644063       -6.5805858544        0.5151325015
C         -2.1480265622       -6.0019232619        1.6141387639
C         -1.3630214385       -4.8452939505        1.5145712349
C         -4.6771027799        5.8348268094       -1.7913842429
C         -4.1215538944        5.6906973198       -3.0559056247
C         -3.0365883767        4.8565310612       -3.2322503176
C         -2.4959376811        4.1718460878       -2.1542250579
C         -2.6166557145        3.2022788013        2.6122546766
C         -3.2265950329        3.4043606708        3.8412615240
C         -4.3296112905        4.2267290070        3.9462482447
C         -4.8230254008        4.8591132066        2.8127544001
C         -2.3493893709       -6.6096656078        2.8375913486
C         -1.7756558413       -6.0776830858        3.9854720931
C         -1.0034696250       -4.9375661685        3.8974236448
C         -0.7973997694       -4.3237548909        2.6708199584
C         -1.5932183633       -4.2870976222       -2.1216937568
C         -2.1873957089       -4.8823524356       -3.2246043598
C         -2.9525823702       -6.0206963131       -3.0748756546
C         -3.1259552923       -6.5707467598       -1.8111002508
H          2.9863113798        1.9166030975       -2.0937013396
H          5.3875817986        2.3272392458       -2.4083572950
H          6.2659704032       -0.3630168955        0.8005473633
H          3.8742805651       -0.7500984661        1.1339795109
H          9.6332980781        0.8439689749       -0.5699698504
H         -2.4440257018        0.9840836234        0.3002518240
H         -0.0622996137        4.5073802360       -0.1219310707
H          1.9937334146        3.1654956316       -0.3433977706
H          2.9179262706       -2.3243996889       -0.3620591528
H          1.4208532981       -4.2671560260       -0.0949700930
H         -1.9860884590       -1.7215456278        0.3141010779
H         -5.5308359198        6.4716837417       -1.6217881356
H         -4.5460297544        6.2269968217       -3.8894323102
H         -2.6015787197        4.7281735465       -4.2111117528
H         -1.6535306108        3.5146146699       -2.3006773229
H         -1.7496425593        2.5650158022        2.5403747033
H         -2.8276804467        2.9134344270        4.7151369930
H         -4.8088726171        4.3878377220        4.8985561821
H         -5.6776233847        5.5151896988        2.8621088614
H         -2.9587805357       -7.4987991087        2.8744501525
H         -1.9397294421       -6.5601311742        4.9357122767
H         -0.5543971984       -4.5142832843        4.7822968652
H         -0.1947382511       -3.4315625412        2.6052626795
H         -0.9946471521       -3.3980163675       -2.2433036762
H         -2.0446058338       -4.4462327893       -4.2009964898
H         -3.4169873905       -6.4886416353       -3.9281011587
H         -3.7170464904       -7.4605186220       -1.6622021074
