64
-104.07021972
C          4.2069516714        0.2002287948       -0.1855454107
C          4.9563598798       -0.9500743520       -0.4191138759
C          6.3325466823       -0.8792281732       -0.4856856443
C          6.9832772643        0.3429860648       -0.3139570134
C          6.2294224163        1.4927697561       -0.0762226920
C          4.8529329549        1.4221789685       -0.0155323978
C          8.3951156389        0.4156840108       -0.3811097302
C          9.5929679808        0.4768807443       -0.4392073768
N          2.8054116852        0.1287699520       -0.1234259486
C          2.0112497451        0.8929875508        0.6803667303
C          0.7068602039        0.5365025506        0.4603429504
C          0.7151684236       -0.4852674156       -0.5314641011
C          2.0257198356       -0.7128147279       -0.8608098102
N         -0.4824588815        1.0295368786        1.0519173104
C         -1.0489727397        0.2191603405        2.0381874920
C         -2.3890376805        0.2869642632        2.4236234971
S         -3.5278641211        1.4719427599        1.7618504403
C         -2.5630182887        2.2149123598        0.4748098865
C         -1.2056183119        1.9477487247        0.2874809102
N         -0.4724699591       -1.0821484573       -1.0100237511
C         -1.1876120320       -0.3793161350       -1.9792025183
C         -2.5807511152       -0.3681146780       -2.0428738585
S         -3.5872040446       -1.2009852880       -0.8412953361
C         -2.4016864766       -2.2921314443       -0.0967130114
C         -1.0272327093       -2.1013666853       -0.2366612387
C         -3.2332533458        3.1080131179       -0.3449926529
C         -2.5713477832        3.7772603072       -1.3580111003
C         -1.2198071187        3.5518414093       -1.5347961942
C         -0.5523967342        2.6519913982       -0.7258616742
C         -0.2454677624       -0.7177444856        2.6910333686
C         -0.7543060594       -1.5696194786        3.6527831834
C         -2.0918603115       -1.5142936948        3.9943132313
C         -2.9003199092       -0.5764138241        3.3786441969
C         -2.8982218035       -3.3237784794        0.6822932355
C         -2.0389520308       -4.1809877158        1.3459811676
C         -0.6736287731       -4.0066707851        1.2132159785
C         -0.1766008961       -2.9847170366        0.4272652737
C         -0.4858734429        0.3443520807       -2.9429342874
C         -1.1447553820        1.0650528771       -3.9205304915
C         -2.5267285377        1.0707462371       -3.9682850957
C         -3.2392737646        0.3457753846       -3.0300012714
H          4.4617237516       -1.9018568416       -0.5328483692
H          6.9140754579       -1.7705591104       -0.6647175908
H          6.7305807284        2.4398231038        0.0527661105
H          4.2754311050        2.3184781920        0.1478758231
H         10.6394422781        0.5302601329       -0.4896035834
H          2.4159575124        1.6045844697        1.3705778096
H          2.4415589946       -1.3836446641       -1.5849380426
H         -4.2872101403        3.2683799897       -0.1727462231
H         -3.1075492680        4.4662493594       -1.9906386528
H         -0.6759500965        4.0710815196       -2.3082270893
H          0.5010087964        2.4852603045       -0.8814823665
H          0.8000150063       -0.7768263204        2.4354640675
H         -0.0977276133       -2.2806241555        4.1291652241
H         -2.5052430042       -2.1824885117        4.7325980039
H         -3.9475391092       -0.4983642085        3.6305301791
H         -3.9685976045       -3.4303642209        0.7763942623
H         -2.4380465556       -4.9718686260        1.9607421174
H          0.0112390521       -4.6668844159        1.7220631406
H          0.8887181646       -2.8506737352        0.3263615664
H          0.5921626559        0.3417519643       -2.9086828238
H         -0.5727576064        1.6225994586       -4.6456575032
H         -3.0513567219        1.6337241383       -4.7236216240
H         -4.3190123433        0.3404010429       -3.0378105021
