80
-129.12443789
C          0.0275149304        4.5102483160       -0.6153560713
C          1.2354396580        5.2060637550       -0.6878074139
C          1.2438850739        6.5646817976       -0.9113048242
C          0.0420011273        7.2517341887       -1.0662893540
C         -1.1677265368        6.5672390289       -0.9947609979
C         -1.1708907002        5.2075670724       -0.7708537642
S          0.1090535860        8.9885734972       -1.3508680195
C          0.0175066937        3.0705045322       -0.3791298058
N          1.1884618039        2.4501163162       -0.2410616297
C          1.1324904142        1.1400416099       -0.0065874321
N         -0.0027404456        0.4506749631        0.0958705922
C         -1.1262495374        1.1434990421       -0.0834717151
N         -1.1621389852        2.4536356032       -0.3216091976
C         -2.3932321559        0.4205794476       -0.0276980365
C         -2.4152043068       -0.9411739032        0.2751822882
C         -3.6078206850       -1.6303870722        0.3064236238
C         -4.8060167933       -0.9694985695        0.0330638081
C         -4.7883146399        0.3942793518       -0.2621676064
C         -3.5938285276        1.0803243689       -0.2916044147
C          2.3905213131        0.4131106883        0.1343588210
C          3.6084000479        1.0703517371       -0.0421269653
C          4.7960134914        0.3804748883        0.0673242415
C          4.7893276343       -0.9847299669        0.3564211845
C          3.5731456761       -1.6431263768        0.5425398061
C          2.3875603096       -0.9500440358        0.4317082240
N         -6.0146643906       -1.6688138053        0.0481715668
C         -6.9799410964       -1.6342007965       -0.9423369566
C         -8.0509090406       -2.4824096673       -0.5803908914
C         -7.7124706658       -3.0469872247        0.6968117418
C         -6.4461707581       -2.5248238366        1.0453567874
N          5.9919594058       -1.6879539952        0.4520971895
C          6.3504492079       -2.5502673764        1.4725451843
C          7.6366078570       -3.0744877244        1.2106168840
C          8.0650813515       -2.5043710542       -0.0367458570
C          7.0243355553       -1.6510626540       -0.4681983225
C         -9.1368726098       -2.6347500646       -1.4324327236
C         -9.1368045482       -1.9516570965       -2.6324621259
C         -8.0644279182       -1.1388771559       -2.9930840059
C         -6.9731356032       -0.9717078677       -2.1614450760
C         -5.8528140296       -2.8388274375        2.2596343758
C         -6.5231961949       -3.7077408429        3.0999615167
C         -7.7593897450       -4.2480514000        2.7526821654
C         -8.3672127194       -3.9181126924        1.5575279445
C          8.2272368387       -3.9520154453        2.1103299819
C          7.5364731591       -4.2862246838        3.2583058130
C          6.2805105004       -3.7438875063        3.5212167996
C          5.6728489543       -2.8686417385        2.6407194248
C          7.1046646965       -0.9823084530       -1.6812438005
C          8.2511059337       -1.1484095890       -2.4352870357
C          9.2934461518       -1.9662563244       -2.0048338406
C          9.2076511876       -2.6555599752       -0.8114436551
H          2.1585539864        4.6628370127       -0.5655477161
H          2.1759577077        7.1061436057       -0.9679580587
H         -2.1009663219        7.0967324713       -1.1136690050
H         -2.1001189256        4.6639698201       -0.7122344451
H         -1.2053818301        9.1775547834       -1.4278542011
H         -1.4823167709       -1.4444310798        0.4722528400
H         -3.6204452209       -2.6885549073        0.5174174127
H         -5.7178082518        0.9095200931       -0.4490847050
H         -3.5688277598        2.1348511732       -0.5147402236
H          3.6021264545        2.1260316753       -0.2614219555
H          5.7376076494        0.8939079065       -0.0517918197
H          3.5681057816       -2.7022990359        0.7487205432
H          1.4418041260       -1.4512869626        0.5608616420
H         -9.9584279138       -3.2798561767       -1.1605715124
H         -9.9720631149       -2.0546139925       -3.3087553697
H         -8.0835491794       -0.6313730658       -3.9459959200
H         -6.1389314849       -0.3562973436       -2.4612187587
H         -4.9052849354       -2.4108102652        2.5485606980
H         -6.0802363736       -3.9701560438        4.0491099163
H         -8.2501083492       -4.9254640523        3.4352853569
H         -9.3334287632       -4.3217039524        1.2956464399
H          9.2083161677       -4.3571535477        1.9144403368
H          7.9764627923       -4.9686015441        3.9699210683
H          5.7716055514       -4.0097197830        4.4357049170
H          4.7086829091       -2.4390646720        2.8650434732
H          6.2952296114       -0.3626817358       -2.0353666236
H          8.3382523714       -0.6358891418       -3.3817042821
H         10.1737743531       -2.0680999016       -2.6214925713
H         10.0064676450       -3.3044789497       -0.4861621656
