80
-129.12445335
C          0.0019620306        4.5570546467       -0.0057778571
C         -1.1998892397        5.2631616676       -0.0651698754
C         -1.2068922916        6.6406920882       -0.0293178027
C         -0.0041325206        7.3343878138        0.0668429109
C          1.2012096356        6.6384940575        0.1255215146
C          1.2029501480        5.2620803885        0.0893595064
S          0.0497513122        9.0941219354        0.1175546819
C          0.0030412658        3.0984982429       -0.0433075162
N          1.1773741069        2.4716760976        0.0126322356
C          1.1340758135        1.1415205058       -0.0443207160
N          0.0080649497        0.4382045775       -0.1530351817
C         -1.1221656595        1.1429118769       -0.1752735335
N         -1.1707910703        2.4731747238       -0.1249943023
C         -2.3828284977        0.4108782293       -0.2464375513
C         -2.3851805565       -0.9712824544       -0.4364365200
C         -3.5731339577       -1.6670625985       -0.4861811913
C         -4.7868211065       -0.9948141013       -0.3338376445
C         -4.7875867551        0.3882844672       -0.1466849056
C         -3.5979642375        1.0823736255       -0.1094533314
C          2.3946060572        0.4090812751        0.0300034285
C          2.4079759814       -0.9824080030       -0.0711467108
C          3.5937679958       -1.6777932237        0.0207765140
C          4.7938967466       -0.9933272440        0.2171568013
C          4.7848691898        0.3989864245        0.3109007238
C          3.5970357216        1.0910204550        0.2181918133
N         -5.9896050086       -1.7025966227       -0.3623169850
C         -7.1188588182       -1.3591676611       -1.0846211927
C         -8.1315043932       -2.3170881210       -0.8512755726
C         -7.5827596271       -3.2790599473        0.0640755641
C         -6.2592271279       -2.8658877567        0.3375273449
N          5.9950177094       -1.6971991712        0.3254340264
C          6.4310788359       -2.6954986817       -0.5271324006
C          7.6847562027       -3.1739294622       -0.0833752095
C          8.0106679770       -2.4302996871        1.1020854332
C          6.9452811496       -1.5267062562        1.3164868396
C         -9.3613719989       -2.2000138085       -1.4852772192
C         -9.5623423823       -1.1406746223       -2.3478525271
C         -8.5488684343       -0.2174348475       -2.5946797661
C         -7.3166978135       -0.3140622230       -1.9756674149
C         -5.4671957310       -3.5599717368        1.2410537169
C         -5.9998015962       -4.6905284127        1.8316853982
C         -7.2929478109       -5.1216153299        1.5447735671
C         -8.0967158219       -4.4180665700        0.6698065271
C          8.3411965250       -4.1699801806       -0.7942664580
C          7.7478671108       -4.6665072696       -1.9379935210
C          6.5249098550       -4.1696512035       -2.3831842920
C          5.8531106479       -3.1787232715       -1.6923046067
C          6.9284494763       -0.6914234779        2.4242748135
C          8.0048069311       -0.7451479093        3.2897871703
C          9.0720627327       -1.6133912477        3.0713202742
C          9.0815069825       -2.4663933418        1.9855199398
H         -2.1234650705        4.7120229899       -0.1407305061
H         -2.1426516359        7.1770053561       -0.0758855721
H          2.1278911449        7.1871150893        0.1991821935
H          2.1288367977        4.7116610282        0.1335209670
H         -1.2642670530        9.2854638697        0.0394598430
H         -1.4424103142       -1.4810909340       -0.5536766734
H         -3.5734466439       -2.7318371217       -0.6607237378
H         -5.7240869932        0.9055314706       -0.0066901891
H         -3.5870627373        2.1495379511        0.0442893173
H          1.4734915503       -1.5019079708       -0.2098916938
H          3.5991726207       -2.7554734062       -0.0334571952
H          5.7159898806        0.9292835678        0.4380979597
H          3.5791223930        2.1670087230        0.2854578675
H        -10.1388116628       -2.9274582499       -1.3079739924
H        -10.5123400154       -1.0287475634       -2.8484348855
H         -8.7280289331        0.5901885014       -3.2886296032
H         -6.5330199270        0.3951835636       -2.1926615119
H         -4.4720898849       -3.2248076082        1.4894514259
H         -5.4005688282       -5.2495154427        2.5348245456
H         -7.6714935278       -6.0118619978        2.0241222097
H         -9.1059704793       -4.7393020913        0.4619311818
H          9.2976178418       -4.5409666631       -0.4586353127
H          8.2399907914       -5.4429685401       -2.5041558536
H          6.0935776417       -4.5643853685       -3.2909713212
H          4.9164174852       -2.7874002336       -2.0582852939
H          6.0978636020       -0.0296919985        2.6159293198
H          8.0159915820       -0.1024101344        4.1573934471
H          9.8956582353       -1.6237701773        3.7693178708
H          9.8987599727       -3.1531112277        1.8257442008
