80
-129.12432390
C          0.0035094786        4.5152164362        0.2370324570
C          1.2075788093        5.2161156717        0.3117202510
C          1.2149640780        6.5921469701        0.3846084151
C          0.0104430084        7.2894861565        0.3829551288
C         -1.1969860879        6.5986919177        0.3083782251
C         -1.1992366272        5.2236719115        0.2364841460
S         -0.0429377532        9.0475995350        0.4735077559
C          0.0022601350        3.0583813564        0.1599876637
N          1.1776484585        2.4328205478        0.1110976015
C          1.1307416420        1.1029639089        0.0528572252
N          0.0003977194        0.3989976514        0.0163257337
C         -1.1288367480        1.1043956359        0.0573414214
N         -1.1739149279        2.4328035300        0.1426773900
C         -2.3945835555        0.3787436372        0.0031332881
C         -3.6001414169        1.0499876762        0.2085259879
C         -4.7966609402        0.3693396374        0.1494148108
C         -4.8109571963       -0.9992515308       -0.1220935683
C         -3.6067864706       -1.6737847093       -0.3266848945
C         -2.4116733771       -0.9907472611       -0.2620810231
C          2.3953542696        0.3737967062        0.0307306286
C          2.4095262889       -1.0171899062        0.1363975776
C          3.6035867889       -1.7050683847        0.1299413125
C          4.8098584253       -1.0134456033        0.0135587100
C          4.7985077982        0.3773687146       -0.0985540670
C          3.6029755320        1.0621458254       -0.0877579336
N         -6.0238726549       -1.6885558914       -0.1914916024
C         -7.0438656544       -1.6302390972        0.7407954963
C         -8.1098578496       -2.4569369083        0.3190590198
C         -7.7110529520       -3.0304892267       -0.9365291115
C         -6.4160523875       -2.5358273034       -1.2120988254
N          6.0217052278       -1.7079503627        0.0127017922
C          7.0506161310       -1.5420759381       -0.8966714719
C          8.1123964402       -2.4138538057       -0.5646599767
C          7.7013660297       -3.1304533395        0.6109396992
C          6.4039374676       -2.6697730914        0.9304670401
C         -9.2461048524       -2.5836077674        1.1073423318
C         -9.3007410658       -1.8965296521        2.3038535550
C         -8.2344092863       -1.1044393375        2.7237959315
C         -7.0936441548       -0.9629584976        1.9562735500
C         -5.7611440824       -2.8629563758       -2.3907222508
C         -6.4016879899       -3.7161651952       -3.2694811017
C         -7.6674319256       -4.2288530489       -2.9941444871
C         -8.3346536789       -3.8866332453       -1.8346691024
C          9.2563721986       -2.4484451371       -1.3511712393
C          9.3228621905       -1.6256703898       -2.4581125779
C          8.2605922159       -0.7887443804       -2.7926827237
C          7.1122855947       -0.7370727975       -2.0250916464
C          5.7379922048       -3.1320458863        2.0564881833
C          6.3698236941       -4.0837181062        2.8346935614
C          7.6378122238       -4.5625502604        2.5127190260
C          8.3161321510       -4.0872190096        1.4079038996
H          2.1324857375        4.6620306688        0.3137780407
H          2.1523590172        7.1244116312        0.4430654079
H         -2.1248835572        7.1501804527        0.3071780986
H         -2.1265799048        4.6771567287        0.1763829373
H          1.2731723582        9.2338704787        0.5240261180
H         -3.5777150532        2.1094365203        0.4078513860
H         -5.7295639953        0.8931916610        0.2898741177
H         -3.6182709514       -2.7360341674       -0.5163110021
H         -1.4747156369       -1.5026301354       -0.4130315639
H          1.4711217846       -1.5415430935        0.2208992671
H          3.6126516627       -2.7821433716        0.1954065805
H          5.7328507519        0.9123663471       -0.1705495232
H          3.5826563738        2.1374489381       -0.1639862405
H        -10.0642819763       -3.2118987788        0.7897305095
H        -10.1756576505       -1.9796123437        2.9309544043
H         -8.2983546936       -0.5927014594        3.6724862005
H         -6.2657386857       -0.3626496186        2.3009768067
H         -4.7893536696       -2.4559351351       -2.6242026941
H         -5.9114151087       -3.9875441933       -4.1924967501
H         -8.1336787225       -4.8941320041       -3.7052380200
H         -9.3229665477       -4.2687492474       -1.6290861001
H         10.0713327249       -3.1106808084       -1.1015102367
H         10.2039802803       -1.6355170264       -3.0819547681
H          8.3338030265       -0.1694517126       -3.6742068088
H          6.2876676606       -0.0999211135       -2.3054544312
H          4.7643084031       -2.7538149778        2.3274483830
H          5.8707217314       -4.4609848567        3.7147801435
H          8.0969492178       -5.3077246363        3.1448218371
H          9.3061955681       -4.4439944666        1.1680455873
