80
-129.12419703
C         -0.0125684619        4.5859591226        0.4045346999
C         -1.2156037398        5.2920034381        0.3748586193
C         -1.2225281369        6.6689903365        0.4273442534
C         -0.0185431308        7.3621778782        0.5110552912
C          1.1877800318        6.6662328125        0.5431885089
C          1.1895283638        5.2903262562        0.4904133585
S          0.0355703100        9.1212921339        0.5798294521
C         -0.0117836840        3.1280725715        0.3469932526
N          1.1638580741        2.5010016838        0.3735251854
C          1.1164654503        1.1701918231        0.3464443807
N         -0.0137152592        0.4669449199        0.3016032675
C         -1.1408947153        1.1736140053        0.2388505718
N         -1.1866302221        2.5045905954        0.2611458867
C         -2.3957890865        0.4388438182        0.1149490395
C         -3.5851243128        1.1093889758       -0.1704857858
C         -4.7594208540        0.4077609776       -0.3374935819
C         -4.7703759430       -0.9818695238       -0.2080495011
C         -3.5861754964       -1.6525251948        0.1022273669
C         -2.4115949053       -0.9493574949        0.2534884841
C          2.3752215961        0.4315915484        0.3418138697
C          2.3733966210       -0.9569351882        0.4780599710
C          3.5548381968       -1.6636972362        0.4380830050
C          4.7653443308       -0.9963243598        0.2439620107
C          4.7711557411        0.3936082965        0.1174563418
C          3.5884621721        1.0988137800        0.1730690582
N         -5.9515531979       -1.7007020484       -0.3983621993
C         -7.1881917385       -1.3988991361        0.1440901342
C         -8.1333350457       -2.3574638076       -0.2866383936
C         -7.4277605167       -3.2758659502       -1.1369771952
C         -6.0849602600       -2.8373899817       -1.1771652840
N          5.9569807072       -1.7187673245        0.1654593878
C          6.1605556651       -2.8537838606       -0.6005243393
C          7.4921261335       -3.2966878138       -0.4340298000
C          8.1162815531       -2.3828218846        0.4823039434
C          7.1372990753       -1.4223034502        0.8239029712
C         -9.4513983833       -2.2790892998        0.1431141955
C         -9.8073866733       -1.2573409571        1.0009726155
C         -8.8630477299       -0.3341226628        1.4440255287
C         -7.5453965975       -0.3927336112        1.0302855085
C         -5.1462651183       -3.4851901323       -1.9675923165
C         -5.5569780090       -4.5970802764       -2.6786666720
C         -6.8714473577       -5.0542872739       -2.6200649286
C         -7.8175848567       -4.3953860347       -1.8603037391
C          7.9457324286       -4.4154833670       -1.1203511569
C          7.0742484109       -5.0693076019       -1.9686387132
C          5.7726601687       -4.6077540220       -2.1506491899
C          5.2994180767       -3.4964633094       -1.4785699823
C          7.4115465476       -0.4195719667        1.7429313311
C          8.6840111767       -0.3663090327        2.2803554848
C          9.6634509127       -1.2914678510        1.9265460136
C          9.3876821832       -2.3098324995        1.0357626474
H         -2.1402136983        4.7410590091        0.3112529817
H         -2.1591726258        7.2052575017        0.4036003473
H          2.1152456628        7.2144720899        0.6095011008
H          2.1160197627        4.7396501740        0.5156761404
H         -1.2794518056        9.3130078020        0.5219856540
H         -3.5634145222        2.1818523388       -0.2805383880
H         -5.6701242878        0.9252799788       -0.5961920089
H         -3.6010629077       -2.7229439318        0.2368671454
H         -1.4906768131       -1.4584200138        0.4883757512
H          1.4326498236       -1.4633981163        0.6225980411
H          3.5535242582       -2.7344368143        0.5709624668
H          5.7039671714        0.9088106522       -0.0516596661
H          3.5809111913        2.1716499812        0.0641330031
H        -10.1773347202       -3.0070560112       -0.1856820150
H        -10.8277243999       -1.1755795835        1.3442288574
H         -9.1659757231        0.4430741140        2.1296666238
H         -6.8193848843        0.3154062007        1.3986141781
H         -4.1304171274       -3.1288304854       -2.0403562881
H         -4.8427723141       -5.1202736336       -3.2968340357
H         -7.1522038254       -5.9290067014       -3.1872011162
H         -8.8413204566       -4.7360288479       -1.8302705476
H          8.9609748212       -4.7594258447       -0.9940762516
H          7.4051602587       -5.9433407700       -2.5091470347
H          5.1189866247       -5.1269784790       -2.8355250395
H          4.2961953197       -3.1365570310       -1.6466098608
H          6.6559954264        0.2901768454        2.0423914625
H          8.9225874912        0.4082428175        2.9938493177
H         10.6467229028       -1.2138352113        2.3655635221
H         10.1394787481       -3.0392362925        0.7754125779
