80
-129.12436583
C         -0.0019950382        4.5036408339        0.3510061598
C         -1.2046769578        5.2107825541        0.3543992199
C         -1.2104997642        6.5844471552        0.4634514906
C         -0.0057544028        7.2729441309        0.5714818885
C          1.2003388676        6.5758435235        0.5689373579
C          1.2010131741        5.2032988892        0.4594946929
S          0.0496207402        9.0275462762        0.7143325950
C         -0.0020204033        3.0491825027        0.2370369101
N          1.1737802655        2.4240380159        0.1976916411
C          1.1272274333        1.0957446897        0.1102812596
N         -0.0020947076        0.3930779501        0.0368447470
C         -1.1316862999        1.0987091206        0.0671237662
N         -1.1778402269        2.4251526979        0.1798341865
C         -2.3963262642        0.3762777209       -0.0336835596
C         -2.4074200559       -0.9925342991       -0.3029146248
C         -3.6012262244       -1.6718836309       -0.4139974884
C         -4.8105138248       -0.9941138088       -0.2549061357
C         -4.8023859620        0.3737285119        0.0208781116
C         -3.6069984820        1.0502783586        0.1283834806
C          2.3921114888        0.3677238612        0.0976194887
C          2.4108574469       -1.0184893809        0.2525793519
C          3.6064855082       -1.7033711211        0.2634481688
C          4.8104378108       -1.0157657764        0.1024642890
C          4.7929066802        0.3696510455       -0.0671853614
C          3.5967994684        1.0530602228       -0.0607018106
N         -6.0219669248       -1.6787947488       -0.3748335423
C         -6.3743210750       -2.5245597910       -1.4112522383
C         -7.6824924792       -3.0124323945       -1.1914751097
C         -8.1322283731       -2.4357982497        0.0453362216
C         -7.0810240352       -1.6146857651        0.5125947604
N          6.0236690418       -1.7057283495        0.1144737825
C          6.3062341173       -2.8664561926       -0.5844466510
C          7.6376464700       -3.2590193624       -0.3185889929
C          8.1779385136       -2.2869924610        0.5910928997
C          7.1522078422       -1.3446905931        0.8301376997
C         -8.2713069608       -3.8662282832       -2.1149531745
C         -7.5566761297       -4.2128894370       -3.2444624364
C         -6.2779139894       -3.7063901001       -3.4656768214
C         -5.6714456996       -2.8555255442       -2.5608363332
C         -7.1799978230       -0.9467115872        1.7247008173
C         -8.3540837499       -1.0810573486        2.4416109558
C         -9.4057156758       -1.8670477498        1.9756993573
C         -9.3025962045       -2.5554638340        0.7831652270
C          8.1647131669       -4.3924194283       -0.9234292350
C          7.3657202798       -5.1114650487       -1.7901125100
C          6.0645162876       -4.7006095973       -2.0700615319
C          5.5190109398       -3.5756326676       -1.4804148951
C          7.3396462793       -0.2969986442        1.7204989219
C          8.5743973425       -0.1805599494        2.3308720375
C          9.6008638236       -1.0872651959        2.0767808261
C          9.4102871247       -2.1502333151        1.2163577604
H         -2.1297656191        4.6637219639        0.2684548392
H         -2.1468622363        7.1217165385        0.4646063392
H          2.1284134803        7.1204765627        0.6537589163
H          2.1271713108        4.6514567041        0.4586558922
H         -1.2656844698        9.2216574734        0.6736994983
H         -1.4667920784       -1.5066278177       -0.4197649923
H         -3.6083798514       -2.7338072036       -0.6055986011
H         -5.7383902861        0.9002790352        0.1259137197
H         -3.5889016730        2.1090206768        0.3313819364
H          1.4757922987       -1.5394748099        0.3834757479
H          3.6202817446       -2.7708340633        0.4198668887
H          5.7205853275        0.8982709955       -0.2224334331
H          3.5726217917        2.1230076130       -0.1928627010
H         -9.2694423104       -4.2432076839       -1.9516947146
H         -7.9951861556       -4.8766834400       -3.9743434617
H         -5.7498768220       -3.9808189188       -4.3667017331
H         -4.6887463724       -2.4532588186       -2.7531971470
H         -6.3644148379       -0.3514340430        2.1055116377
H         -8.4564504781       -0.5684409074        3.3864416089
H        -10.3078109748       -1.9444717833        2.5638050809
H        -10.1096308283       -3.1793524651        0.4303124636
H          9.1799740407       -4.6976592057       -0.7207530210
H          7.7542456544       -5.9981176818       -2.2681181353
H          5.4690136747       -5.2714763240       -2.7667628171
H          4.5175226897       -3.2563007385       -1.7237152134
H          6.5464751753        0.3994939660        1.9441664515
H          8.7451322448        0.6299630425        3.0235857264
H         10.5525810995       -0.9597088582        2.5702942747
H         10.1977207493       -2.8655874879        1.0341367039
