80
-129.12403667
C          0.0111551546        4.6104035735        0.3521120513
C          1.2171493061        5.3062699175        0.4418391902
C          1.2272256455        6.6713727098        0.6297177942
C          0.0234952428        7.3627466187        0.7304566040
C         -1.1858523142        6.6772627623        0.6399312858
C         -1.1907735351        5.3131906861        0.4523570166
S         -0.0265976518        9.1066385686        0.9722497933
C          0.0070170509        3.1647214601        0.1555357355
N          1.1821153308        2.5414655712        0.0697356613
C          1.1314545996        1.2273472127       -0.1410518411
N         -0.0006273975        0.5379508820       -0.2706361278
C         -1.1283225033        1.2315078541       -0.1258686617
N         -1.1712824155        2.5458743501        0.0848989980
C         -2.3865151104        0.4935802449       -0.1745853701
C         -3.5826505550        1.1036763404        0.2028182045
C         -4.7590424667        0.3857445041        0.2145660692
C         -4.7648945735       -0.9568602508       -0.1666150364
C         -3.5739898764       -1.5610577251       -0.5730410404
C         -2.3976098550       -0.8450028942       -0.5678212548
C          2.3861357401        0.4848402301       -0.2074865975
C          2.3869885065       -0.8531753741       -0.6027951190
C          3.5605568194       -1.5735394009       -0.6249565699
C          4.7590580136       -0.9743569120       -0.2337509642
C          4.7632990302        0.3676553593        0.1495215699
C          3.5895118276        1.0899012376        0.1547081059
N         -5.9465960346       -1.6986070347       -0.1297496057
C         -6.0869128952       -2.9583151028        0.4271763003
C         -7.4274253325       -3.3833620155        0.2884851677
C         -8.1243578526       -2.3258346290       -0.3899705954
C         -7.1767025313       -1.3039018277       -0.6252560271
N          5.9384846529       -1.7203918375       -0.2140274201
C          7.1630696408       -1.3293171005       -0.7258210226
C          8.1101748543       -2.3550251066       -0.5052407444
C          7.4187802659       -3.4112162909        0.1809143777
C          6.0818301042       -2.9815929845        0.3386817415
C         -7.8233555100       -4.6163841795        0.7899149648
C         -6.8856334106       -5.4019036305        1.4303751349
C         -5.5738361687       -4.9616692404        1.5905163274
C         -5.1572056864       -3.7383645241        1.1000694489
C         -7.5253544599       -0.1531196352       -1.3176591043
C         -8.8375519754       -0.0210339420       -1.7318424483
C         -9.7846429219       -1.0104550410       -1.4779602409
C         -9.4367615749       -2.1714378221       -0.8163637590
C          9.4171547705       -2.2046133767       -0.9493654197
C          9.7600988916       -1.0437795023       -1.6137988674
C          8.8131648237       -0.0505753792       -1.8530788508
C          7.5063199883       -0.1786435979       -1.4211034107
C          5.1585960507       -3.7594950724        1.0228818150
C          5.5774593369       -4.9851738282        1.5054278895
C          6.8853443693       -5.4298371446        1.3265833115
C          7.8170610305       -4.6465481981        0.6747281571
H          2.1414236336        4.7570724732        0.3605538685
H          2.1661228552        7.1998173109        0.6980606224
H         -2.1131411013        7.2242466552        0.7180568325
H         -2.1196567510        4.7708397790        0.3793976478
H          1.2904587511        9.2917043508        0.9945694392
H         -3.5650302997        2.1377038561        0.5085136100
H         -5.6753942442        0.8491669452        0.5457611122
H         -3.5847764019       -2.5881616638       -0.9032794109
H         -1.4712528756       -1.3044347676       -0.8730632833
H          1.4549198315       -1.3087274936       -0.8962411084
H          3.5630257872       -2.6001731251       -0.9568349329
H          5.6858082772        0.8269871933        0.4690692218
H          3.5796567456        2.1234160249        0.4622442227
H         -8.8453568530       -4.9467597157        0.6835380155
H         -7.1711554703       -6.3656601572        1.8243705718
H         -4.8664995349       -5.5879753758        2.1133484939
H         -4.1438811881       -3.4001425291        1.2517029997
H         -6.7969548893        0.6111712242       -1.5402612914
H         -9.1338453550        0.8681991779       -2.2679320312
H        -10.8005727487       -0.8681391204       -1.8144388586
H        -10.1646098311       -2.9477864820       -0.6359989595
H         10.1445860164       -2.9839027949       -0.7803161542
H         10.7718227626       -0.9046196871       -1.9640056432
H          9.1053136430        0.8383770902       -2.3918846411
H          6.7775945051        0.5884514881       -1.6326043059
H          4.1486333912       -3.4179887265        1.1889331761
H          4.8750695269       -5.6098991091        2.0367670166
H          7.1727127228       -6.3953437216        1.7149307691
H          8.8362942225       -4.9804675794        0.5537882237
