63
-103.10090148
C          6.7648568617        0.2239746476       -0.1156381736
C          6.0563339731        1.2516952448        0.4936130512
C          4.6761673451        1.2498260663        0.4636729325
C          3.9837740484        0.2197375275       -0.1683404400
C          4.7004945948       -0.8097388883       -0.7757395442
C          6.0793674165       -0.8049030556       -0.7519807801
H          4.1353377258        2.0614346596        0.9238729070
H          4.1795592443       -1.6260720163       -1.2499213109
H          6.6334975371       -1.6042859741       -1.2192233459
H          6.5782851800        2.0573423436        0.9868238426
S          8.5323745527        0.1753610771       -0.1093388109
H          8.7040668733        1.2935874859        0.5887126368
N          2.5841784074        0.2147103792       -0.1845449091
C          1.8031498029       -0.2987882546       -1.1854921076
C          1.7794353649        0.6907582561        0.8020613785
C          0.4807497759       -0.1508848390       -0.8430187535
C          0.4725623830        0.4815807282        0.4419078874
H          2.2592872475       -0.7137642726       -2.0572576859
H          2.1681617868        1.1082280066        1.7085877977
N         -0.6752163047       -0.5888074241       -1.4885248812
N         -0.6758938640        0.7760375749        1.2092473155
C         -0.7481162178       -1.7844348437       -2.2187778036
C         -1.8101930832       -2.6685068000       -2.0157233956
S         -3.0891715604       -2.2870684834       -0.8415844053
C         -3.0661495801       -0.5227866333       -1.0197781310
C         -1.8645366558        0.1271899611       -1.2966268630
C         -4.2380042991        0.1944343671       -0.8523372610
C         -4.2226474390        1.5748471887       -0.9471153700
C         -3.0378966085        2.2315778760       -1.2356131405
C         -1.8722675510        1.5134517908       -1.4249704994
H         -5.1326441515        2.1321866234       -0.7905313633
H         -5.1489993084       -0.3361911668       -0.6205159313
H         -0.9467501820        2.0210749033       -1.6517363996
H         -3.0178618080        3.3079454718       -1.3101387771
C         -1.8930756717       -3.8574049485       -2.7214965921
C         -0.9174337461       -4.1867203912       -3.6452618608
C          0.1140496245       -3.2976358038       -3.8917101271
C          0.1871929653       -2.1020590506       -3.1995001847
H         -0.9765564168       -5.1212588773       -4.1801745923
H         -2.7218399109       -4.5208271567       -2.5279448192
H          0.8609861355       -3.5263031808       -4.6360620340
H          0.9634414766       -1.3960118191       -3.4369327834
C         -1.3582341481       -0.3112234073        1.7522534085
C         -2.6331339063       -0.2161319370        2.3132848306
S         -3.5245954224        1.3109247439        2.4066706501
C         -2.2716322670        2.4805176245        1.9549649095
C         -1.0490864646        2.1051469262        1.3918227565
C         -0.7573287204       -1.5721113831        1.7520970261
C         -1.4040548597       -2.6867588894        2.2521828810
C         -2.6732572914       -2.5756351925        2.7871825449
C         -3.2762385281       -1.3313440880        2.8232114934
H         -0.9078329669       -3.6444229042        2.2170953422
H          0.2358487845       -1.6809058235        1.3462611543
H         -3.1912686839       -3.4392631998        3.1723576944
H         -4.2652407841       -1.2078562400        3.2389381872
C         -0.1943698636        3.1355200401        0.9939265951
C         -0.5274338415        4.4667980230        1.1625424321
C         -1.7289998828        4.8176554827        1.7479938140
C         -2.5969136143        3.8139800152        2.1393235670
H          0.1616875886        5.2288063003        0.8323188480
H          0.7441017607        2.8865413571        0.5268100575
H         -3.5532843721        4.0510320852        2.5806726623
H         -1.9973860815        5.8521697838        1.8906812705
