63
-103.10046274
C          6.5397979345       -1.3676239874        0.9077858387
C          5.7398539869       -0.9794459594        1.9748933508
C          4.4187040055       -0.6421281428        1.7598210591
C          3.8786152738       -0.6813038816        0.4763653263
C          4.6878282074       -1.0676946806       -0.5906123166
C          6.0061381647       -1.4108442386       -0.3754400299
H          3.7997024086       -0.3659506621        2.5984469733
H          4.2896323276       -1.0877135390       -1.5925647758
H          6.6319249977       -1.7091223731       -1.2024110914
H          6.1422034861       -0.9476497786        2.9758314211
S          8.2359361495       -1.8171513636        1.1268417681
H          8.2640511671       -1.6313116254        2.4429151817
N          2.5375588673       -0.3452616521        0.2610672601
C          1.7255955828       -0.8921236533       -0.6809224778
C          1.8207957744        0.5714346450        0.9846038207
C          0.4777173031       -0.3322226470       -0.5669650214
C          0.5357801296        0.6216498463        0.4992536021
H          2.0555109446       -1.6637857988       -1.3464791715
H          2.2844564503        1.1077176531        1.7830721089
N         -0.6694835197       -0.6836229262       -1.3131812119
N         -0.5625151555        1.3294511934        0.9776605376
C         -1.6536799050       -1.4058161488       -0.6402815803
C         -2.9307452753       -1.6317230105       -1.1575204819
S         -3.4370922092       -1.0443524715       -2.7492541639
C         -1.9005460653       -0.4730531593       -3.4230787676
C         -0.7420440659       -0.3232316955       -2.6559144836
C         -1.9236929872       -0.1227268426       -4.7628910587
C         -0.8050271000        0.4106537399       -5.3775545106
C          0.3410303292        0.5953388258       -4.6276385736
C          0.3703175659        0.2303005386       -3.2944379540
H         -0.8381950411        0.6849984778       -6.4197747970
H         -2.8430034555       -0.2610251687       -5.3119090536
H          1.2726020374        0.3920017877       -2.7278435814
H          1.2233016525        1.0256260979       -5.0760853003
C         -3.8821201682       -2.3333986008       -0.4367294397
C         -3.5937060120       -2.8322756018        0.8208056087
C         -2.3279703134       -2.6393547733        1.3399931589
C         -1.3753407502       -1.9452330595        0.6176385834
H         -4.3482040353       -3.3632077802        1.3788195885
H         -4.8583433338       -2.4733977278       -0.8767698374
H         -2.0729200808       -3.0245675834        2.3151729363
H         -0.3923624413       -1.8130964407        1.0406472490
C         -0.6986686740        1.7243959254        2.3178404439
C         -1.8872451426        1.4637711864        3.0022800533
S         -3.2341133373        0.6529718107        2.1702524050
C         -2.9570199877        1.3331441896        0.5557737963
C         -1.6524638001        1.5811067640        0.1326026951
C          0.2995333420        2.4341565718        2.9785296333
C          0.1519902689        2.7905454345        4.3071551817
C         -1.0105250319        2.4775617976        4.9906303039
C         -2.0408769580        1.8347664948        4.3278425006
H          0.9452392411        3.3268206934        4.8045306378
H          1.1835377337        2.7275443109        2.4381777906
H         -1.1265761149        2.7499998920        6.0276262681
H         -2.9676757577        1.6051288993        4.8303321456
C         -1.4528984058        2.1343692452       -1.1286486803
C         -2.5258975526        2.3802904193       -1.9642780680
C         -3.8165031865        2.1052969632       -1.5422485279
C         -4.0330096363        1.5946798690       -0.2745348243
H         -2.3512730344        2.7828531609       -2.9503080643
H         -0.4450786399        2.3465617494       -1.4528352634
H         -5.0308252522        1.3729804570        0.0722752555
H         -4.6544709790        2.2856713252       -2.1969002416
