63
-103.09959365
C          6.6848597202       -0.2824195508       -0.2073923871
C          6.0186569465       -0.9995206705        0.7779605787
C          4.6446013021       -0.9164397423        0.8817388475
C          3.9145495549       -0.1226629430        0.0000180174
C          4.5895557563        0.5933612473       -0.9872564303
C          5.9628116224        0.5164800231       -1.0869913076
H          4.1392088173       -1.4608655573        1.6629714761
H          4.0387052644        1.1979118605       -1.6898469273
H          6.4832296953        1.0691218358       -1.8540204167
H          6.5696326486       -1.6184984688        1.4693692511
S          8.4427742439       -0.3508107910       -0.3867044587
H          8.6551183778       -1.2017345116        0.6124453304
N          2.5214377680       -0.0491830912        0.0995999811
C          1.7049294397       -1.0523307834        0.5538804417
C          1.7516401286        1.0132721267       -0.2486662325
C          0.3965764495       -0.6295516779        0.5015565919
C          0.4334580398        0.7055859169       -0.0123998843
H          2.1032420585       -2.0165782246        0.7857576374
H          2.1656583073        1.9364072137       -0.6002652885
N         -0.7434400495       -1.3813196344        0.7553859949
N         -0.6633042057        1.5509700494       -0.2999351775
C         -2.0135705042       -0.7905723057        0.8269401070
C         -3.0724060605       -1.3034700533        0.0798818324
S         -2.7965124822       -2.7154896629       -0.9570778963
C         -1.6148689306       -3.5397531306        0.0870087321
C         -0.7130406684       -2.7837428470        0.8359717319
C         -1.6048102563       -4.9234441345        0.1495807196
C         -0.6953112594       -5.5698496718        0.9675859710
C          0.1714865070       -4.8281826957        1.7531022755
C          0.1523493515       -3.4460788519        1.7011340131
H         -0.6785561387       -6.6475860860        1.0036554463
H         -2.3056114354       -5.4804774370       -0.4525483701
H          0.7963404378       -2.8679352765        2.3436769282
H          0.8591089789       -5.3264374840        2.4187172399
C         -4.3265906897       -0.7210574424        0.1362823007
C         -4.5381433609        0.3759453647        0.9523718637
C         -3.5055946281        0.8627196416        1.7374578286
C         -2.2555492567        0.2749128858        1.6878302902
H         -5.5092499631        0.8446269355        0.9792268558
H         -5.1218362882       -1.1227178384       -0.4727271074
H         -3.6709784849        1.7071016078        2.3893536776
H         -1.4489813508        0.6478788894        2.3011904418
C         -1.4711102364        1.1869603604       -1.3753404694
C         -2.6807645637        1.8149698696       -1.6798024619
S         -3.2921942491        3.2164282146       -0.7877536910
C         -1.9904006266        3.5012807086        0.3812217712
C         -0.8820879173        2.6602724458        0.5130532191
C         -1.0764287892        0.1393126003       -2.2107637270
C         -1.8662756030       -0.2974030818       -3.2579914591
C         -3.0803603306        0.3090523041       -3.5156890009
C         -3.4722176454        1.3762803037       -2.7276005307
H         -1.5264093967       -1.1212756550       -3.8663376771
H         -0.1314556772       -0.3486552555       -2.0333474486
H         -3.7120169406       -0.0315525611       -4.3204348902
H         -4.4052644201        1.8872500770       -2.9135998133
C          0.0232635402        2.9672067271        1.5325458486
C         -0.1472624245        4.0634971282        2.3576803706
C         -1.2351479700        4.8995335466        2.1924594851
C         -2.1551766368        4.6048527338        1.2023724115
H          0.5785987691        4.2577948583        3.1322239944
H          0.8747566431        2.3250492420        1.6878515274
H         -3.0275099985        5.2242163714        1.0565419454
H         -1.3766773244        5.7609141197        2.8252936813
