63
-103.10008688
C          6.6841692114        0.4763014540       -0.4769031312
C          6.1116138936       -0.7443348711       -0.1430671834
C          4.7442798685       -0.8433618657        0.0183953317
C          3.9277323122        0.2716013340       -0.1575320591
C          4.5087002654        1.4928243993       -0.4952595944
C          5.8753251491        1.5938689796       -0.6501088946
H          4.3117477025       -1.7913123488        0.2963614678
H          3.8901890781        2.3612563428       -0.6557418701
H          6.3234010949        2.5392422956       -0.9145940657
H          6.7301304568       -1.6174733230       -0.0020099744
S          8.4293930674        0.6621700790       -0.6933536707
H          8.7403110139       -0.6065588400       -0.4466528914
N          2.5418256639        0.1633614935       -0.0019858401
C          1.7962762570       -0.9373486868       -0.2792801921
C          1.7099923367        1.1577697314        0.4421261929
C          0.4777007489       -0.6586660139       -0.0159356739
C          0.4172337696        0.6892726389        0.4627839230
H          2.2213646936       -1.8363342766       -0.6769682742
H          2.1013147674        2.1175683156        0.6993961398
N         -0.6104729385       -1.5318161334       -0.2423592825
N         -0.7499679956        1.3891634378        0.7452140300
C         -0.7637291174       -2.6442253458        0.5811910626
C         -1.8754101474       -3.4894162169        0.5246363207
S         -3.2672127691       -3.1899835978       -0.5313212494
C         -2.6789019339       -1.8527452000       -1.5310101717
C         -1.4589366147       -1.2133502552       -1.3012442667
C         -3.5037913575       -1.4693873017       -2.5747023486
C         -3.1392182700       -0.4431212619       -3.4276610303
C         -1.9204718482        0.1789099701       -3.2376078953
C         -1.0949434524       -0.2058316195       -2.1974913722
H         -3.7972636432       -0.1436314045       -4.2275739408
H         -4.4424827615       -1.9877584798       -2.7029825505
H         -0.1460253147        0.2910053235       -2.0736940483
H         -1.6043393280        0.9740812070       -3.8949786394
C         -1.9737766997       -4.6013318927        1.3450628668
C         -0.9837067919       -4.8970882048        2.2647231523
C          0.1073575293       -4.0542125932        2.3596909221
C          0.2135440190       -2.9524222866        1.5312350682
H         -1.0746379306       -5.7637945470        2.8996063996
H         -2.8514629525       -5.2241412065        1.2583253948
H          0.8860661510       -4.2482706423        3.0811903208
H          1.0688379522       -2.3045874325        1.6316838819
C         -1.9501957940        0.7105462584        1.0004893904
C         -3.1233073632        1.0746088776        0.3422565666
S         -3.0811744460        2.3986407825       -0.8371561413
C         -1.8616142035        3.4010186270       -0.0170899030
C         -0.8281648216        2.7905785470        0.6950380007
C         -2.0044699709       -0.2996119709        1.9557968207
C         -3.1877608116       -0.9717438686        2.1966834444
C         -4.3397001086       -0.6264257245        1.5084567045
C         -4.3111689169        0.4093270599        0.5915659674
H         -3.2074231966       -1.7719936207        2.9207619581
H         -1.1042666950       -0.5641682360        2.4901606540
H         -5.2602881828       -1.1598141869        1.6855693085
H         -5.1992225361        0.6971073551        0.0498989773
C          0.0607236512        3.6002038326        1.3956446655
C         -0.0259524222        4.9783803117        1.3115512922
C         -1.0233252904        5.5721553770        0.5564516153
C         -1.9570081452        4.7809252739       -0.0888603331
H          0.6826380206        5.5892396180        1.8491525778
H          0.8069652557        3.1428337579        2.0240465071
H         -2.7597181363        5.2210230035       -0.6598652937
H         -1.0895316449        6.6462548689        0.4855762053
