63
-103.10098281
C          6.7591328329       -0.4204607659        0.0319224081
C          5.9914844682       -1.3491430025        0.7231289758
C          4.6138052360       -1.2879113212        0.6613558924
C          3.9833823165       -0.3033701056       -0.0957434669
C          4.7589691131        0.6234341207       -0.7895617994
C          6.1353763953        0.5664395707       -0.7233657297
H          4.0261594538       -1.9977333987        1.2214208597
H          4.2857188457        1.3821523772       -1.3922877899
H          6.7355146397        1.2836057267       -1.2617980885
H          6.4652820214       -2.1155649990        1.3171257985
S          8.5264010242       -0.4480659261        0.0805504549
H          8.6306885351       -1.5014029992        0.8849342141
N          2.5861309511       -0.2399334621       -0.1525769445
C          1.8486259213        0.8975149839       -0.2506867207
C          1.7397030706       -1.3146069706       -0.0915856197
C          0.5192437866        0.5597749050       -0.2486019740
C          0.4420966685       -0.8670838948       -0.1523244314
H          2.2957358848        1.8705298732       -0.2764944058
H          2.1389550839       -2.3027431233       -0.0252980570
N         -0.5810736080        1.4444309758       -0.2810159365
N         -0.7627773353       -1.5620666308       -0.0436495423
C         -0.8639921364        2.1330678513       -1.4578947701
C         -2.0399013252        2.8639316394       -1.6468706542
S         -3.3463039940        2.9153431451       -0.4501188513
C         -2.5584606466        2.2002158205        0.9653361839
C         -1.3129618254        1.5730140106        0.8981090307
C         -3.2536556097        2.2859669790        2.1597944221
C         -2.7341043269        1.7466578567        3.3226855682
C         -1.4947291662        1.1370889290        3.2797938950
C         -0.7953723809        1.0604764779        2.0899198938
H         -3.2928682432        1.8052359967        4.2429513030
H         -4.2171326072        2.7737236018        2.1585544140
H          0.1736839953        0.5874251297        2.0813549550
H         -1.0632895637        0.7129611238        4.1733993966
C         -2.2748862357        3.5524312170       -2.8252744177
C         -1.3608659152        3.5173192203       -3.8630964668
C         -0.2050168733        2.7764389361       -3.7061303188
C          0.0383980573        2.1029598248       -2.5234210994
H         -1.5591337401        4.0520247778       -4.7781840509
H         -3.1982432994        4.1038314009       -2.9202928462
H          0.5181604558        2.7174214637       -4.5049876186
H          0.9427030852        1.5249810156       -2.4280976496
C         -0.9433961056       -2.6681516292        0.8000239320
C         -2.0602296639       -2.7427957001        1.6355145588
S         -3.2769535122       -1.4470013997        1.6374747424
C         -3.1267118403       -0.9629621949       -0.0617064058
C         -1.8903412758       -1.0503119612       -0.6995615846
C         -0.0597478922       -3.7437315162        0.7952311627
C         -0.2365926243       -4.8146672070        1.6529401057
C         -1.3225366698       -4.8525337750        2.5098195509
C         -2.2469120899       -3.8237774150        2.4812831310
H          0.4723749693       -5.6279447509        1.6394209843
H          0.7590295853       -3.7506547988        0.0976879645
H         -1.4630021602       -5.6836243874        3.1825255192
H         -3.1157682135       -3.8394246530        3.1210628407
C         -1.8001880957       -0.6544117447       -2.0313946079
C         -2.9018380478       -0.1424465817       -2.6905772145
C         -4.1213521953       -0.0479205805       -2.0411122354
C         -4.2355340588       -0.4716903670       -0.7288252378
H         -2.8042273237        0.1871902458       -3.7134870558
H         -0.8479533018       -0.7311661273       -2.5344430710
H         -5.1747552301       -0.3990127167       -0.2016924625
H         -4.9814842046        0.3588321004       -2.5490402428
