63
-103.10013448
C          6.7126549373       -0.3241060685        0.5292237062
C          5.9158511999        0.1240523971        1.5750493865
C          4.5488371854        0.2191904130        1.4086767541
C          3.9581528719       -0.1248240388        0.1950168926
C          4.7639046383       -0.5675913132       -0.8522785521
C          6.1291343443       -0.6691829173       -0.6846962587
H          3.9362303872        0.5460681490        2.2337237771
H          4.3245537540       -0.8181264975       -1.8043432235
H          6.7525110738       -1.0113122954       -1.4963121278
H          6.3575618368        0.3909367464        2.5229595217
S          8.4671608398       -0.4743637307        0.6897886566
H          8.5319550542       -0.0585351052        1.9507732683
N          2.5711856131       -0.0329693088        0.0333165654
C          1.8117949960       -0.8486979438       -0.7646981520
C          1.7547693686        0.8597983212        0.6509703284
C          0.4921226176       -0.4778288755       -0.6592174257
C          0.4627286442        0.6286468476        0.2485966380
H          2.2610721315       -1.6787960358       -1.2651619159
H          2.1259236065        1.6237637038        1.3036147233
N         -0.6400845819       -1.0836415552       -1.1940368800
N         -0.6911538946        1.3008151262        0.7115041623
C         -1.8285081886       -0.3520706242       -1.3293269583
C         -3.0428271564       -0.8766772624       -0.8905830416
S         -3.0708647999       -2.4736837514       -0.1188050069
C         -1.7746599532       -3.2209042100       -1.0809728746
C         -0.7006033440       -2.4467915375       -1.5237076293
C         -1.8531003263       -4.5694858899       -1.3864422777
C         -0.8611560588       -5.1658510142       -2.1444555750
C          0.1807045424       -4.3972513245       -2.6348283666
C          0.2509067944       -3.0467894743       -2.3429242888
H         -0.9157822486       -6.2197561685       -2.3666485543
H         -2.6898090299       -5.1413859581       -1.0162409785
H          1.0342528660       -2.4436679885       -2.7698549202
H          0.9378684564       -4.8461391251       -3.2588630988
C         -4.2182121972       -0.1607692428       -1.0371531344
C         -4.1924336250        1.0921702777       -1.6238809882
C         -2.9953963870        1.6122908213       -2.0887366462
C         -1.8243569457        0.8904113615       -1.9560433047
H         -5.1054740015        1.6588807840       -1.7160570201
H         -5.1407057014       -0.5831410382       -0.6688975959
H         -2.9702962218        2.5866871607       -2.5521458022
H         -0.8887669735        1.2913108246       -2.3162648782
C         -1.5132194666        0.5950261975        1.5885593573
C         -2.7891930702        1.0238288486        1.9596350993
S         -3.5015073505        2.5341775693        1.3709311402
C         -2.1160082803        3.2909383351        0.5651505939
C         -0.9249233822        2.6098159323        0.2997520477
C         -1.0627800817       -0.6053609641        2.1427177652
C         -1.8524992459       -1.3579851201        2.9919138632
C         -3.1209609680       -0.9273706600        3.3299899880
C         -3.5767962300        0.2732652233        2.8159639164
H         -1.4684314731       -2.2872979047        3.3834998755
H         -0.0745405328       -0.9601912646        1.8975071068
H         -3.7498646239       -1.5102679257        3.9836458215
H         -4.5600274118        0.6438642433        3.0652830942
C          0.0488063777        3.2997664409       -0.4263865126
C         -0.1416111467        4.6024897282       -0.8486868956
C         -1.3150699840        5.2691062624       -0.5510506230
C         -2.2991228657        4.6013218322        0.1557166151
H          0.6369337271        5.0928629015       -1.4126130448
H          0.9691962769        2.7982578871       -0.6769073347
H         -3.2367790317        5.0835541453        0.3879921416
H         -1.4727258217        6.2871455821       -0.8694023420
