73
Coordinates from ORCA-job Combo10_betterFunctional_Cf1Opt
  C   -0.04706242239359      3.94730961332619      0.26189426713175
  C   -0.63178457956178      4.69668462667383     -0.75070723631562
  C   -0.63772656544325      6.07840724953399     -0.66515256429023
  C   -0.04793491827368      6.72125170853562      0.42519073795792
  C   0.54486547756560      5.95667216681161      1.43063087358031
  C   0.54251354221980      4.57382267904388      1.35196023444052
  S   -0.08703245898345      8.47605017470330      0.45596101962483
  N   -0.04248937598594      2.52213888154381      0.18064944109066
  C   1.12176836018027      1.72084040429077      0.14208259498635
  C   0.73964400292594      0.37549525681368      0.04161713670306
  C   -0.71914117746456      0.36128742639268      0.02968389837535
  C   -1.13427951493905      1.72809122333566      0.11062611879433
  C   1.70101749996673     -0.61852659273731     -0.03890517176695
  C   3.04478102424253     -0.25012798587997      0.00874159758091
  C   3.40632492714757      1.10056961030590      0.11391341384539
  C   2.45206233330298      2.10629420057559      0.16650509704165
  C   -2.49965849372374      2.08130330061883      0.12940343580799
  C   -3.42316917110444      1.07742333209570      0.04507981122857
  C   -3.02531067476185     -0.28908245941017     -0.02922480157845
  C   -1.65241436802551     -0.63604124734664     -0.02885477036326
  N   4.03721044229939     -1.24103819567504     -0.05088695731134
  C   4.05191336655945     -2.42031458635576      0.70517752904319
  C   5.15867877047879     -3.19519824187349      0.31599190757463
  C   5.84806298802480     -2.45333932612308     -0.72993548333531
  C   5.13092314526746     -1.26045939589095     -0.92901864991316
  N   -3.97395426882878     -1.27711878637825     -0.08658786370261
  C   -5.18397867645093     -1.23572665109738     -0.82734936930591
  C   -5.85802854795635     -2.45362508408498     -0.64992597246609
  C   -5.04361154642065     -3.27709648106342      0.24449421981514
  C   -3.89934733104536     -2.53310104884654      0.56913946657535
  C   5.50478327116459     -0.33762105877954     -1.90065726526687
  C   6.63158543265365     -0.62306896113410     -2.65702193290559
  C   7.36652263643794     -1.79629617883076     -2.45900173986635
  C   6.97595423029641     -2.71852133886671     -1.50218235725539
  C   5.40352817295796     -4.41304508079052      0.94487817879063
  C   4.54737725018373     -4.83635076999476      1.94886934114555
  C   3.46243005275577     -4.04451329625751      2.33769643633192
  C   3.19980961045338     -2.82711144920650      1.72738929657200
  C   -7.04876573842211     -2.68913970104642     -1.31640849070773
  C   -7.54690105048117     -1.70247446322143     -2.16110695100998
  C   -6.84766383518160     -0.51314992949057     -2.35887331769348
  C   -5.64649136031496     -0.26432268167657     -1.70534534565006
  C   -2.96670773515281     -2.98942619537299      1.49187783241893
  C   -3.16738424145821     -4.25437204712983      2.03152927635776
  C   -4.27778607585327     -5.02169633710533      1.68394550424294
  C   -5.23366475279974     -4.53144688520464      0.79973776324691
  H   -1.06761750239408      4.19956751095467     -1.61015020820225
  H   -1.09136253155587      6.66461546942989     -1.45637032107393
  H   1.00394928691530      6.44015715386295      2.28489453433217
  H   0.99161020617621      3.98033992991601      2.14043097339574
  H   0.56084778727198      8.63015599552129      1.61584835392709
  H   1.43353197833374     -1.66214700974089     -0.15118748000810
  H   4.45779135325534      1.35473227512350      0.16442032927762
  H   2.74343843682052      3.14671708743698      0.23784779305525
  H   -2.80451186519435      3.11428285769084      0.24052573144730
  H   -4.47771145414174      1.30781735956237      0.11429864545686
  H   -1.36068488637396     -1.67221553741580     -0.13806387231881
  H   4.93725393166219      0.56751279745696     -2.07745792046956
  H   6.94564236871984      0.07967119721213     -3.42070082801257
  H   8.24315353303384     -1.98633454706250     -3.06701840047944
  H   7.53716304958439     -3.63560797074175     -1.36015162838465
  H   6.25571356894188     -5.01899636211210      0.65715515713083
  H   4.72473838573107     -5.78203965451775      2.44748917586794
  H   2.81637802530377     -4.38351811490649      3.14002963471654
  H   2.37113458785818     -2.21212256727000      2.05686777583212
  H   -7.57601220840166     -3.62827471995836     -1.19437460922534
  H   -8.47836941347438     -1.86769103248602     -2.68945160373907
  H   -7.23775440681183      0.22956330272440     -3.04461488445525
  H   -5.09613975551162      0.64436060722176     -1.90679830336237
  H   -2.12690208321954     -2.38888974490731      1.81386141409068
  H   -2.45218140863427     -4.64100600743501      2.74782524339214
  H   -4.40840188698269     -6.00174294492378      2.12737852044761
  H   -6.11608228197026     -5.11463404046586      0.56301333426127
