80
-129.12452045
C          0.0007673263        4.5232874360        0.3863862683
C         -1.2018040949        5.2316544474        0.4072771263
C         -1.1995844848        6.6036238856        0.5238312731
C          0.0077877769        7.2916100879        0.6212601430
C          1.2122042811        6.5944099825        0.6018759628
C          1.2047047833        5.2213742468        0.4854680663
S         -0.0455842744        9.0459976959        0.7676056583
C         -0.0001263060        3.0695221720        0.2624810276
N          1.1756292643        2.4433327419        0.2331507975
C          1.1288699777        1.1162534708        0.1275518071
N         -0.0007825284        0.4163679999        0.0359328893
C         -1.1302955900        1.1219999206        0.0653872290
N         -1.1760506221        2.4478165041        0.1862512184
C         -2.3933473160        0.3983079188       -0.0438481755
C         -2.3988814018       -0.9828243639       -0.2415537335
C         -3.5894630015       -1.6672675192       -0.3524117479
C         -4.8021995448       -0.9819702332       -0.2684955597
C         -4.8000428529        0.3990782724       -0.0682738342
C         -3.6074336412        1.0800811462        0.0428096199
C          2.3916105380        0.3845171776        0.1129485415
C          2.3990911014       -1.0093601701        0.1719568786
C          3.5901951460       -1.7017532892        0.1719905963
C          4.8019139631       -1.0127642947        0.1010333378
C          4.7970074640        0.3813274388        0.0332819546
C          3.6042944635        1.0708319969        0.0452419493
N         -6.0095016012       -1.6735931259       -0.3869504807
C         -6.3254219940       -2.5858641744       -1.3779438274
C         -7.6376717361       -3.0670751910       -1.1684313342
C         -8.1288582464       -2.4155548632        0.0142599863
C         -7.0963902072       -1.5601296787        0.4613121480
N          6.0098765201       -1.7123150277        0.0996674133
C          6.3080060703       -2.8152377674       -0.6812312578
C          7.6253726499       -3.2434189336       -0.4008679043
C          8.1394580121       -2.3558149682        0.6052418151
C          7.1138248165       -1.4239695791        0.8829146864
C         -8.1929804317       -3.9827129272       -2.0525710406
C         -7.4412817093       -4.3970063925       -3.1342259080
C         -6.1588531212       -3.8967005032       -3.3479983312
C         -5.5854291477       -2.9849410760       -2.4817286388
C         -7.2365929450       -0.8181985762        1.6253787046
C         -8.4324055416       -0.9141930441        2.3119594903
C         -9.4655827815       -1.7340928989        1.8636466748
C         -9.3216180691       -2.4956809134        0.7208720097
C          8.1647237923       -4.3287787709       -1.0786638307
C          7.3920342155       -4.9644081771       -2.0302617443
C          6.1050972035       -4.5176490844       -2.3211625368
C          5.5476981937       -3.4393387060       -1.6599016022
C          7.2764817858       -0.4541817074        1.8619050385
C          8.4875775689       -0.4036408794        2.5262846605
C          9.5143555500       -1.2997441009        2.2379385458
C          9.3477969535       -2.2859500991        1.2859609854
H         -2.1292188257        4.6874856676        0.3300560552
H         -2.1274748764        7.1548885187        0.5402845947
H          2.1496135775        7.1244395446        0.6778367687
H          2.1295386968        4.6673864695        0.4706582364
H          1.2705337545        9.2306787895        0.8230646733
H         -1.4561352537       -1.5027150406       -0.3001735875
H         -3.5922422371       -2.7382147795       -0.4844647572
H         -5.7376447589        0.9313442866       -0.0237884891
H         -3.5941445859        2.1483008868        0.1888108333
H          1.4578171343       -1.5316245212        0.2341048879
H          3.5941030795       -2.7779410159        0.2496464998
H          5.7323552661        0.9128705352       -0.0490668610
H          3.5893163095        2.1474645924       -0.0114769318
H         -9.1939404630       -4.3551409245       -1.8963952624
H         -7.8531077004       -5.1099845497       -3.8325660757
H         -5.6012923399       -4.2249689431       -4.2124758116
H         -4.5994375006       -2.5887347933       -2.6696048785
H         -6.4360413310       -0.1954725768        1.9939467320
H         -8.5667161931       -0.3437444629        3.2188860002
H        -10.3856654068       -1.7796507936        2.4266709480
H        -10.1143382112       -3.1455870885        0.3828755566
H          9.1693206121       -4.6613338952       -0.8660358421
H          7.7905864008       -5.8125094372       -2.5664518599
H          5.5307059001       -5.0224255671       -3.0835343819
H          4.5580230665       -3.0900234784       -1.9104715116
H          6.4816640705        0.2318292904        2.1107718917
H          8.6390834371        0.3451929306        3.2893237944
H         10.4470438187       -1.2255269129        2.7766369139
H         10.1350927184       -2.9936882715        1.0755064636
