63
-108.44930356
C          3.1865851710       -0.0541944186        0.0924892061
C          3.9174249009        1.1180689036       -0.1010916089
C          5.2901340907        1.0707357089       -0.2141482828
C          5.9575026482       -0.1538841261       -0.1348543572
C          5.2258878866       -1.3289042638        0.0540637667
C          3.8532317224       -1.2778058792        0.1646921005
C          7.3670704644       -0.2038302492       -0.2479198315
C          8.5637095844       -0.2448182236       -0.3430086643
C          1.7303649092       -0.0048702602        0.2218508557
N          1.0804991917       -1.1585784933        0.2857943784
C         -0.2513682948       -1.0723316060        0.3743510038
N         -0.9257181761        0.0712481511        0.4645947113
C         -0.1767583478        1.1757719994        0.4149166868
N          1.1492965465        1.1899663641        0.2677511670
N         -0.8169255154        2.3719677802        0.4918839433
C         -0.2162078109        3.5764732063        0.0524864058
C         -0.9737532828        4.4079382436       -0.7773887384
O         -2.2802422082        4.1135940032       -1.0940681793
C         -2.9306245644        3.3062732986       -0.1915964101
C         -2.2201204160        2.4484794602        0.6492652866
N         -0.9402884834       -2.2471165150        0.3370586941
C         -0.2403970257       -3.4780459014        0.3369675965
C         -0.6601322239       -4.4856152769       -0.5324708091
O         -1.7629586890       -4.3252986149       -1.3348672268
C         -2.6623286013       -3.3714390127       -0.9205796978
C         -2.2977725719       -2.3345141938       -0.0549797716
C         -4.3122808111        3.3826676148       -0.1067503757
C         -4.9827281848        2.6253439168        0.8379192889
C         -4.2753558443        1.8289662555        1.7219313938
C         -2.8956626337        1.7465950581        1.6348252737
C          1.0651761249        3.9623717221        0.4135382529
C          1.6095930314        5.1268591873       -0.1026155080
C          0.8743787814        5.9211043243       -0.9648730604
C         -0.4250961089        5.5731635297       -1.2900057638
C         -3.9641767152       -3.4752341218       -1.3846194454
C         -4.9155190905       -2.5522690069       -0.9858434316
C         -4.5699110660       -1.5481127768       -0.1002852352
C         -3.2716591680       -1.4457580261        0.3717753493
C          0.8208670507       -3.7274498497        1.1951278286
C          1.4996491265       -4.9321340833        1.1329440550
C          1.1132182255       -5.9060941695        0.2283273440
C          0.0205988548       -5.6923342848       -0.5926850963
H          3.3879851617        2.0555642631       -0.1673253240
H          5.8587282310        1.9760295954       -0.3653515052
H          5.7448273388       -2.2739684588        0.1112797075
H          3.2733228738       -2.1766736793        0.3067263142
H          9.6088977644       -0.2807933010       -0.4267472137
H         -4.8367138296        4.0368060623       -0.7842349436
H         -6.0580552960        2.6780644083        0.8952880101
H         -4.7942139475        1.2673864225        2.4824224055
H         -2.3310237603        1.1382921540        2.3233116368
H          1.6318554132        3.3363071491        1.0808627214
H          2.6131114987        5.4098367975        0.1725807165
H          1.3026618713        6.8215274785       -1.3751180367
H         -1.0292301713        6.1842993728       -1.9409191371
H         -4.2035772804       -4.2797096955       -2.0612528695
H         -5.9233850287       -2.6296178635       -1.3607818016
H         -5.3052943135       -0.8316023012        0.2288476892
H         -3.0012456528       -0.6562318226        1.0473869194
H          1.1215074056       -2.9660085849        1.8957115467
H          2.3334287425       -5.1055287309        1.7945271790
H          1.6496190755       -6.8394976931        0.1702903639
H         -0.3200511280       -6.4408926336       -1.2895972732
