62
-105.82600492
C          3.2175888002        0.0255546707        0.2337822650
C          3.9410378354       -1.1583428459        0.0892635718
C          5.3173531399       -1.1295463737        0.0388790733
C          5.9910642092        0.0856050322        0.1320561811
C          5.2774182178        1.2716475148        0.2730749393
C          3.9001249856        1.2382354063        0.3225304968
S          7.7522685136        0.0662473419        0.0648235729
C          1.7580040123       -0.0035584142        0.2990667986
N          1.1221282821        1.1566201290        0.4080402049
C         -0.2106430260        1.0786855150        0.4735336079
N         -0.9070881702       -0.0564513946        0.4805970217
C         -0.1715954807       -1.1618972052        0.3570600858
N          1.1588602414       -1.1885271690        0.2484886254
N         -0.8299431612       -2.3458224387        0.2918435582
C         -2.2341848231       -2.4086707306        0.4286216761
C         -2.9995312144       -3.0562745025       -0.5359152985
S         -2.2000383920       -3.8254809071       -1.9191601839
C         -0.7048988639       -4.3223991370       -1.1019395447
C         -0.1726144845       -3.5399996045       -0.0798482653
N         -0.8946135221        2.2507577045        0.4857866119
C         -2.3025407804        2.2915020600        0.3752774227
C         -2.8973450406        3.1042075074       -0.5867548593
S         -1.8949101585        4.1034407117       -1.6549150575
C         -0.5688827122        4.4354039391       -0.5256639980
C         -0.2070622522        3.4841620690        0.4237427775
C         -2.8612074734       -1.8788194582        1.5475167771
C         -4.2372886348       -1.9384404875        1.6677871215
C         -4.9979755320       -2.5434871573        0.6802292607
C         -4.3796841732       -3.1170441815       -0.4151401232
C         -0.0720618398       -5.4914802314       -1.4965850611
C          1.0963346662       -5.8849190739       -0.8708213928
C          1.6160869107       -5.1254812073        0.1649970018
C          0.9791042546       -3.9653677739        0.5685111996
C          0.1042188169        5.6457282138       -0.6040559278
C          1.1435775545        5.9114561779        0.2675216804
C          1.4916490393        4.9802116104        1.2330558504
C          0.8125867931        3.7783841504        1.3198429517
C         -3.1118695276        1.5567087797        1.2302974665
C         -4.4871283846        1.5874264814        1.0873070720
C         -5.0705631721        2.3718046660        0.1061112613
C         -4.2768450409        3.1431803092       -0.7221702039
H          3.4046266322       -2.0911676506        0.0143317888
H          5.8816671829       -2.0429124207       -0.0733187614
H          5.7967486475        2.2155643698        0.3429413467
H          3.3302655739        2.1481916574        0.4287552611
H          7.9203555296        1.3801689076        0.1842483767
H         -2.2556975775       -1.4199005380        2.3127196947
H         -4.7138939851       -1.5211671506        2.5405186968
H         -6.0717415033       -2.5848917302        0.7690936540
H         -4.9518448318       -3.6125824096       -1.1835057930
H         -0.4999555993       -6.0741562980       -2.2971083912
H          1.5937519266       -6.7879785925       -1.1868375905
H          2.5191564234       -5.4372798534        0.6656895925
H          1.3768514385       -3.3682055971        1.3725043089
H         -0.1910317471        6.3608014452       -1.3556577446
H          1.6738082483        6.8477814230        0.1975246025
H          2.2921049069        5.1894940438        1.9250222766
H          1.0781797467        3.0480518529        2.0670386780
H         -2.6503053947        0.9521974026        1.9919171606
H         -5.1035397635        0.9992476821        1.7474267209
H         -6.1424493546        2.3939218212       -0.0086391773
H         -4.7100804526        3.7737646091       -1.4826039298
