62
-107.48197449
C          3.0981085508        0.0243304394       -0.0175163142
C          3.8032716406       -1.1735484892        0.1008792353
C          5.1692603525       -1.1614115864        0.2787201127
C          5.8513177023        0.0508326830        0.3427090327
C          5.1554109224        1.2505175104        0.2336850896
C          3.7883595873        1.2335891076        0.0559815582
S          7.5994766991        0.0104924894        0.5666381297
C          1.6502193355        0.0120258495       -0.2175894798
N          1.0291315914        1.1801902359       -0.3253605368
C         -0.2917750263        1.1171436707       -0.5164187705
N         -0.9952357668       -0.0128570825       -0.6156379089
C         -0.2797331106       -1.1286775386       -0.4624520752
N          1.0426146097       -1.1662505139       -0.2722616441
N         -0.9569183596        2.3011432519       -0.5734352685
C         -2.3691914405        2.3738754603       -0.5988106741
C         -2.9962448252        3.2257799543        0.3128648415
O         -2.2648517007        4.0303248677        1.1553501550
C         -0.9996403477        4.3371460325        0.7103769771
C         -0.3262164896        3.5116299663       -0.1929275244
N         -0.9287917117       -2.3233089258       -0.4563913454
C         -0.2578162216       -3.5124160171       -0.0769661576
C         -0.8771814116       -4.3377665303        0.8639759034
O         -2.1309771446       -4.0521568890        1.3517876087
C         -2.9106237798       -3.2732786981        0.5287254527
C         -2.3396248473       -2.4215300040       -0.4198809740
C          0.9640275347       -3.8909630341       -0.6116064930
C          1.5933096640       -5.0384894077       -0.1591358362
C          1.0004572043       -5.8242089243        0.8140489132
C         -0.2446423114       -5.4865428925        1.3141658794
C         -4.2885703852       -3.3739908361        0.6399938594
C         -5.0996307670       -2.6454823174       -0.2124964934
C         -4.5367077044       -1.8503354709       -1.1949842834
C         -3.1609786611       -1.7426004259       -1.3039108890
C         -0.4098480411        5.5068982801        1.1644811744
C          0.8454452912        5.8646288955        0.7050760996
C          1.4920823685        5.0772914186       -0.2318215240
C          0.9062261877        3.9082742840       -0.6879303634
C         -3.1359974957        1.6747415252       -1.5152522159
C         -4.5167969302        1.7596415745       -1.4709642247
C         -5.1372912181        2.5501909950       -0.5196660279
C         -4.3794616429        3.3009417908        0.3620894491
H          3.2608787114       -2.1045811900        0.0557817619
H          5.7188029237       -2.0860086809        0.3702999179
H          5.6803399159        2.1922677942        0.2887048629
H          3.2331428278        2.1547613278       -0.0231263217
H          7.7801126702        1.3281848714        0.5629039870
H          1.4217317643       -3.2725047956       -1.3650367586
H          2.5513265023       -5.3151106160       -0.5699258080
H          1.4968158630       -6.7106162567        1.1751195321
H         -0.7416474698       -6.0924957095        2.0543709849
H         -4.6990365454       -4.0247692611        1.3950964247
H         -6.1711311357       -2.7186327837       -0.1187539790
H         -5.1681368648       -1.3129287822       -1.8829445713
H         -2.7110426815       -1.1302236346       -2.0645594223
H         -0.9473180131        6.1133683281        1.8754356093
H          1.3076950752        6.7680741318        1.0692651546
H          2.4580211539        5.3698628505       -0.6116018927
H          1.4041485058        3.2874752789       -1.4132423798
H         -2.6387960434        1.0690319766       -2.2526642913
H         -5.1067197733        1.2101170032       -2.1859914086
H         -6.2130932114        2.6041415089       -0.4747157504
H         -4.8360479060        3.9507394097        1.0910910344
