62
-107.47568947
C          2.9065877586        0.0038245355        0.3264977751
C          3.6015241467       -1.1979791489        0.1921225389
C          4.9782686912       -1.2201201990        0.2548501109
C          5.6786371165       -0.0342772131        0.4548910889
C          4.9922052905        1.1706708371        0.5865348336
C          3.6166266834        1.1893986904        0.5211433253
S          7.4376618510       -0.0023626884        0.5470353930
C          1.4494926458        0.0210932249        0.2556484918
N          0.8377562419        1.1963102670        0.3161806343
C         -0.4936892265        1.1685049205        0.2196625935
N         -1.2227742140        0.0474173968        0.1529594708
C         -0.5139455175       -1.0765925417        0.1049650433
N          0.8166329377       -1.1406552814        0.1240614928
N         -1.1164842298        2.3739073665        0.1508506303
C         -2.4067077613        2.5564978628       -0.4065885692
C         -2.5676004370        3.5770329109       -1.3497065299
O         -1.5441961796        4.4365983711       -1.6690372482
C         -0.5652525767        4.5620560858       -0.7140261405
C         -0.3459489073        3.5623413180        0.2336154455
N         -1.1626843084       -2.2908694170        0.0093695824
C         -2.2515984356       -2.6572381360        0.8268751368
C         -2.5137823488       -4.0165187064        1.0383467287
O         -1.7564143231       -5.0180591162        0.4828726495
C         -0.8645352170       -4.6507669915       -0.4911763035
C         -0.5615295336       -3.3130078018       -0.7559909646
C         -3.0467223334       -1.7319628482        1.4857898164
C         -4.0855299175       -2.1327455302        2.3096365178
C         -4.3507347885       -3.4762652053        2.4913525665
C         -3.5591517502       -4.4167150688        1.8547694326
C         -0.2817384133       -5.6695957532       -1.2281554817
C          0.5960984665       -5.3692860962       -2.2548382135
C          0.8569996595       -4.0471393560       -2.5643807303
C          0.2728301451       -3.0293075843       -1.8299728726
C          0.1933130633        5.7232652604       -0.6983593457
C          1.1614965833        5.8955633904        0.2742565281
C          1.3475045129        4.9284944191        1.2478314489
C          0.5920190470        3.7689313003        1.2339981436
C         -3.5038593631        1.7863049387       -0.0590853852
C         -4.7218259965        1.9748432208       -0.6906678749
C         -4.8604136071        2.9495516228       -1.6624357467
C         -3.7882490437        3.7647971074       -1.9796587791
H          3.0421666122       -2.1070641122        0.0355167477
H          5.5075321349       -2.1550809900        0.1486387112
H          5.5467318982        2.0841558210        0.7382330152
H          3.0706552308        2.1148084658        0.6163725437
H          7.6201914065       -1.3083448328        0.3739687440
H         -2.8250028328       -0.6887748389        1.3562272681
H         -4.6817723637       -1.3853106978        2.8084085979
H         -5.1596893441       -3.7974605107        3.1271049772
H         -3.7218592876       -5.4743693799        1.9857083085
H         -0.5317090545       -6.6874734961       -0.9762499476
H          1.0565580360       -6.1652169590       -2.8171979432
H          1.5139492878       -3.7968834000       -3.3821209465
H          0.4767323005       -2.0017576053       -2.0857385168
H          0.0107073850        6.4687921167       -1.4551699405
H          1.7588232460        6.7930783901        0.2782638770
H          2.0846616988        5.0721469895        2.0216309164
H          0.7373997899        3.0094661774        1.9844854991
H         -3.3980674460        1.0324406863        0.6983432520
H         -5.5594415368        1.3532647388       -0.4182915631
H         -5.8043920136        3.0911793477       -2.1635346813
H         -3.8710279510        4.5503263786       -2.7133000094
