62
-107.48274222
C          3.0706287515       -0.0618322173       -0.3469702269
C          3.7418581815       -1.2836293191       -0.3063399010
C          5.0861414589       -1.3545296898       -0.6033877944
C          5.7776423073       -0.1980037611       -0.9498876549
C          5.1137684979        1.0249195079       -1.0005635730
C          3.7707204736        1.0914569403       -0.7011085369
S          7.4971241819       -0.2272284531       -1.3369618032
C          1.6484452048        0.0045584848       -0.0169156636
N          1.0751920812        1.2032675767        0.0330648062
C         -0.2161568297        1.2054307320        0.3692510670
N         -0.9457903858        0.1105391438        0.5979436841
C         -0.2869266322       -1.0403234872        0.4869323698
N          1.0188486473       -1.1394225468        0.2141495710
N         -0.8437356494        2.4073763140        0.4594374179
C         -0.3169565666        3.5784776434       -0.1368201580
C         -1.1881488647        4.3581123615       -0.9030721562
O         -2.5244626336        4.0486493262       -1.0134041713
C         -3.0371979685        3.3048362150        0.0226050752
C         -2.2107910945        2.5010195061        0.8090825615
N         -0.9691436753       -2.2112857270        0.6263405923
C         -2.3691849168       -2.3170301204        0.4449541511
C         -2.8528585084       -3.4082020371       -0.2849493468
O         -2.0199800310       -4.3929425723       -0.7614345714
C         -0.8113600177       -4.5056137025       -0.1194282357
C         -0.2722194402       -3.4437378571        0.6080664062
C         -3.2736184872       -1.3961189949        0.9493021846
C         -4.6268210690       -1.5231550168        0.6820153236
C         -5.0947822087       -2.5832526342       -0.0724100574
C         -4.2084280068       -3.5363102484       -0.5435524412
C         -0.1433385672       -5.7185759771       -0.1950240032
C          1.0578789480       -5.8836551855        0.4708279937
C          1.5694843369       -4.8526186541        1.2399096841
C          0.9038419811       -3.6414612803        1.3171596799
C         -4.3933636248        3.3926809172        0.2966422634
C         -4.9196262940        2.7024648436        1.3746616938
C         -4.0902842027        1.9636709665        2.2007723850
C         -2.7364072488        1.8694307498        1.9249105312
C          1.0003993250        3.9817884262        0.0150662414
C          1.4604364846        5.1094005771       -0.6449806647
C          0.6069208503        5.8500385212       -1.4436569432
C         -0.7233586584        5.4865665850       -1.5604526007
H          3.1897109272       -2.1711464103       -0.0393188891
H          5.5967249052       -2.3050690511       -0.5669437882
H          5.6592911095        1.9147484312       -1.2759655588
H          3.2429699634        2.0308594150       -0.7429990295
H          7.6673715600       -1.5341886199       -1.1587396064
H         -2.9101383928       -0.5641448585        1.5224907999
H         -5.3088109126       -0.7819047664        1.0666519753
H         -6.1466159272       -2.6804441414       -0.2881566278
H         -4.5413686830       -4.3836315493       -1.1210872160
H         -0.5802280543       -6.5106626173       -0.7813628935
H          1.5822153539       -6.8230256045        0.4001228095
H          2.4909115753       -4.9865329242        1.7839303231
H          1.3013550609       -2.8359261958        1.9121673422
H         -5.0115916349        4.0029355290       -0.3415432077
H         -5.9762966367        2.7635222619        1.5798736906
H         -4.4934563465        1.4563379757        3.0627293151
H         -2.0768357242        1.3058456731        2.5653757777
H          1.6585653213        3.3970585344        0.6342641003
H          2.4910682966        5.4059907197       -0.5319742569
H          0.9683630368        6.7213681715       -1.9658109604
H         -1.4161995258        6.0573456462       -2.1573758533
