62
-107.48522278
C          3.1234349693        0.0059218466        0.0014613104
C          3.8269069635        1.2103668498        0.0202915946
C          5.2045586883        1.2104876805        0.0201632853
C          5.8999548101        0.0042725620        0.0028209115
C          5.2066782636       -1.2017312510       -0.0151137357
C          3.8279980546       -1.1971907909       -0.0165687138
S          7.6620609263        0.0603658479        0.0045306750
C          1.6616321664        0.0040039953        0.0006341821
N          1.0428271750        1.1671273152        0.1674264528
C         -0.2920753166        1.1113490032        0.1803455996
N         -1.0022154787       -0.0010462022       -0.0000072093
C         -0.2879067069       -1.1107203997       -0.1804213751
N          1.0472011479       -1.1614297063       -0.1668350691
N         -0.9720743148        2.2744856130        0.3560410972
C         -2.3829582762        2.3379037998        0.2605060627
C         -2.9410622943        3.3988561926       -0.4569339441
O         -2.1558353476        4.3883821387       -0.9999473916
C         -0.9314357064        4.5602235417       -0.3989258131
C         -0.3227889837        3.5319980347        0.3256020452
N         -0.9628562258       -2.2766244806       -0.3566492506
C         -2.3731615896       -2.3474840670       -0.2582903801
C         -2.9241348745       -3.4127943086        0.4582909881
O         -2.1326515982       -4.3992525919        0.9976838380
C         -0.9086731592       -4.5636265095        0.3936705310
C         -0.3070176895       -3.5308525584       -0.3301463025
C         -3.2185629150       -1.4311820660       -0.8648124264
C         -4.5894976967       -1.5377975247       -0.7028536937
C         -5.1271227215       -2.5633707918        0.0548180839
C         -4.2967441354       -3.5130191960        0.6238858682
C         -0.2886364784       -5.7986121560        0.5042337914
C          0.9264094419       -6.0152020564       -0.1213922619
C          1.4993672853       -5.0133564347       -0.8849922724
C          0.8825720727       -3.7785085858       -0.9986803220
C         -0.3180864666        5.7981620247       -0.5133232991
C          0.8973734097        6.0222645880        0.1088647236
C          1.4773894449        5.0249030919        0.8729761944
C          0.8671418464        3.7871744470        0.9906720421
C         -3.2222322576        1.4185252890        0.8709068800
C         -4.5940544290        1.5176414208        0.7118230574
C         -5.1386933384        2.5387700367       -0.0468513671
C         -4.3145484003        3.4915538487       -0.6197298215
H          3.2752066196        2.1371443950        0.0287712097
H          5.7529859836        2.1401833457        0.0323749885
H          5.7426905929       -2.1388038732       -0.0267258323
H          3.2754217764       -2.1235694246       -0.0257368849
H          7.8524148039       -1.2557755932       -0.0166107814
H         -2.7983686061       -0.6259628464       -1.4425171506
H         -5.2326487380       -0.8102514979       -1.1708952934
H         -6.1938524078       -2.6383806514        0.1921057882
H         -4.6874792799       -4.3370150358        1.1987391581
H         -0.7721121004       -6.5672625166        1.0851928411
H          1.4131679400       -6.9722233481       -0.0233319334
H          2.4320851539       -5.1878041384       -1.3973359472
H          1.3274946107       -2.9948556722       -1.5875757831
H         -0.8067894719        6.5631894643       -1.0946880937
H          1.3792139510        6.9814470641        0.0076660187
H          2.4109074428        5.2047941287        1.3820807703
H          1.3180322204        3.0071290720        1.5798248080
H         -2.7965146751        0.6168325484        1.4494793376
H         -5.2323832053        0.7878048955        1.1828839770
H         -6.2060939778        2.6079453814       -0.1819429571
H         -4.7108068013        4.3123460550       -1.1953730785
