60
-99.36350157
C          3.0868389383        0.0026290236        0.0015177876
C          3.7901024519        1.1711350696        0.2955889191
C          5.1682243048        1.1787526982        0.2987341615
C          5.8656027932        0.0112340216        0.0029140513
C          5.1722482494       -1.1601131496       -0.2930730628
C          3.7951613428       -1.1637167291       -0.2920155425
S          7.6258111692       -0.0393593785       -0.0105952786
C          1.6277027048        0.0009290048        0.0008487196
N          1.0067675706       -1.1743295089       -0.0434349204
C         -0.3244682254       -1.1251734158       -0.0529527368
N         -1.0357465320       -0.0008551075        0.0001445098
C         -0.3260084848        1.1244576053        0.0533903571
N          1.0050887156        1.1755350780        0.0445407405
N         -1.0086778679        2.3039178490        0.1208632479
C         -0.4985398627        3.5659983002       -0.2012020990
C         -1.5153579367        4.5288883405       -0.0382931194
C         -2.6882157927        3.8284195759        0.4177558080
C         -2.3445538415        2.4636269989        0.5043047390
N         -1.0056278928       -2.3055253979       -0.1206109901
C         -0.4930703558       -3.5673301914        0.1988056873
C         -1.5084574989       -4.5316319613        0.0352849540
C         -2.6829950485       -3.8323449091       -0.4181837994
C         -2.3417293406       -2.4668370854       -0.5028606043
C         -3.2568910027        1.5331210386        0.9722739360
C         -4.5232839748        1.9792445931        1.3119699319
C         -4.8773255070        3.3192051055        1.2020110878
C         -3.9616568656        4.2567636618        0.7629846416
C         -1.2697561597        5.8654829640       -0.3170925775
C         -0.0121175892        6.2270420175       -0.7615818649
C          0.9812320504        5.2698927833       -0.9360439292
C          0.7544617542        3.9311323339       -0.6634547654
C         -1.2603719295       -5.8683210817        0.3113385072
C         -0.0017138060       -6.2286385553        0.7539329413
C          0.9902375723       -5.2701766246        0.9291021984
C          0.7609866041       -3.9313235571        0.6591100476
C         -3.2565480062       -1.5371240614       -0.9676058289
C         -4.5226730335       -1.9848946140       -1.3062014067
C         -4.8741481933       -3.3256929170       -1.1983862009
C         -3.9561372183       -4.2623826840       -0.7624171915
H          3.2390488266        2.0677121299        0.5314443118
H          5.7012536352        2.0881908478        0.5314003602
H          5.7225722417       -2.0596821691       -0.5232437687
H          3.2496657353       -2.0634452218       -0.5283075651
H          7.8137073148        1.2378492861        0.3101684010
H         -2.9935167059        0.4941517955        1.0726243245
H         -5.2480739318        1.2654139173        1.6725915894
H         -5.8752213142        3.6287287662        1.4724928738
H         -4.2235387943        5.3009652819        0.6933223558
H         -2.0486421602        6.6011395740       -0.1908389550
H          0.2026043121        7.2615056613       -0.9819914601
H          1.9531101584        5.5736240478       -1.2941531277
H          1.5268874709        3.1951489358       -0.8075173614
H         -2.0381506384       -6.6050584452        0.1845857738
H          0.2151379262       -7.2631193051        0.9721396413
H          1.9632832483       -5.5727426494        1.2851638573
H          1.5329450182       -3.1948157229        0.8031495664
H         -2.9952653495       -0.4974823112       -1.0662691139
H         -5.2493412854       -1.2717114063       -1.6642948601
H         -5.8718315211       -3.6365813027       -1.4680689594
H         -4.2159037249       -5.3072067934       -0.6942601387
