73
Coordinates from ORCA-job Combo10_betterFunctional_Cf4Opt
  C   -0.00433104403145      3.96611250462252     -0.18514665497102
  C   -0.48303259065302      4.59180160582545     -1.32813041874277
  C   -0.49429756463363      5.97539484145649     -1.39980493358492
  C   -0.02127744276981      6.74093674916245     -0.33369568043596
  C   0.45813845908908      6.09854875967221      0.80976098803848
  C   0.46111282386617      4.71640782744878      0.88702986868119
  S   -0.00081808079849      8.49637194627643     -0.34999821933103
  N   -0.00057880336191      2.53979784292182     -0.10627456131005
  C   1.09415349528501      1.75692580650669      0.01997274585465
  C   0.68889637989834      0.38663615049907      0.09640632970257
  C   -0.76568145931328      0.38520778830674     -0.00645708824988
  C   -1.15609250907095      1.72621763232837     -0.13141063466839
  C   1.62834764094410     -0.60175210019086      0.19922398865642
  C   2.99791356414242     -0.24374521954947      0.20278272540090
  C   3.38600724035094      1.12489070950854      0.11643529560872
  C   2.45570403634809      2.12300988637671      0.04015647630747
  C   -2.48543095142387      2.09901308376854     -0.24448466003806
  C   -3.43199588619461      1.08423600222106     -0.22881318256639
  C   -3.06076559476907     -0.26277362571944     -0.11808340659001
  C   -1.71913158097360     -0.62032234898896     -0.00725361692341
  N   3.95533125929415     -1.22221623575530      0.28041784150802
  C   3.88280094139492     -2.39331362527370      1.07737463188259
  C   5.04979206087594     -3.14582645885043      0.87452567209497
  C   5.87327190815334     -2.42005598655647     -0.09345693285102
  C   5.18106763849335     -1.24771163261693     -0.43392382590391
  N   -4.04687639988063     -1.26506256960974     -0.12046881512790
  C   -4.14565520783928     -2.30715652076770      0.80810919339378
  C   -5.15058800225811     -3.19652717592340      0.38854689191789
  C   -5.68295770726007     -2.67347713469577     -0.86129945873904
  C   -4.97780493500520     -1.49002368084247     -1.14362874961329
  C   5.64263903340340     -0.38313448216191     -1.41763934301774
  C   6.86364339211075     -0.68375066887695     -2.01000933432932
  C   7.58118965053120     -1.82343112681307     -1.65139786443082
  C   7.08360313514371     -2.70955253410336     -0.70040352842314
  C   5.24756815082192     -4.31901258037716      1.58214329429309
  C   4.27461711005039     -4.72092520574997      2.49246177075823
  C   3.13901558763788     -3.94399030637227      2.71360405712345
  C   2.92991846409786     -2.75792192766778      2.01950608104770
  C   -5.45309649095561     -4.30933858754853      1.16903746324602
  C   -4.75568963813583     -4.51420027297146      2.34870203285251
  C   -3.77125271937303     -3.60982300821112      2.75997704519203
  C   -3.45292780480199     -2.49424061592617      2.00006617492388
  C   -5.21449488248225     -0.75371677596489     -2.29958010541274
  C   -6.19488126932805     -1.21593988128604     -3.16439016071559
  C   -6.91882671295927     -2.38083821792986     -2.89019434248277
  C   -6.66383907776394     -3.11710669334742     -1.74465381014198
  H   -0.84140614087404      3.99764314549907     -2.16132590297402
  H   -0.86754082734150      6.45882773275001     -2.29497113706364
  H   0.81922746193304      6.68501329298268      1.64718834193007
  H   0.81340053190717      4.21913025318901      1.78402540349484
  H   -0.52379145677498      8.65170490698362     -1.57101014942875
  H   1.34621748690113     -1.64648180944374      0.19776646331440
  H   4.43721162585922      1.37135549340426      0.18029377916355
  H   2.75220072438117      3.16381827452668      0.00922885413721
  H   -2.78117197918226      3.13810905535059     -0.31919490528377
  H   -4.48580465408705      1.32804030638980     -0.28853139148842
  H   -1.44776553288695     -1.66683356325428      0.06528176842853
  H   5.07727169187218      0.47873172503070     -1.74427400570758
  H   7.25412573912278     -0.02443901510797     -2.77602568705090
  H   8.52707312937611     -2.03210824670049     -2.13710253176980
  H   7.62566898381271     -3.61483378388629     -0.45256761206858
  H   6.14729955348436     -4.90663247192585      1.44119289501564
  H   4.41052149680278     -5.63766561844231      3.05393010743045
  H   2.40972967129829     -4.25941757918550      3.45029052745066
  H   2.06828179688618     -2.14269016710880      2.23971014333434
  H   -6.22767658426159     -5.00304422034949      0.86111606003338
  H   -4.98143675971163     -5.37534951390232      2.96671356682333
  H   -3.25083315843882     -3.77839943561844      3.69641191997105
  H   -2.70484096987951     -1.78629821363761      2.33713291480785
  H   -4.65141632967328      0.14299183878946     -2.52808408696063
  H   -6.40292090380896     -0.66071749805564     -4.07223298076173
  H   -7.68166627531434     -2.71081413151434     -3.58555631397715
  H   -7.21814391349817     -4.02667315651608     -1.54073811378375
