75
-123.96734575
C          0.0073572407        3.9215605883        0.1756253585
C         -0.7560207367        4.6590057602       -0.7241110994
C         -0.7619817642        6.0388599793       -0.6668263340
C          0.0054055348        6.6950407982        0.2873779458
C          0.7736201930        5.9616344524        1.1851000115
C          0.7714142585        4.5828070839        1.1333210184
S          0.0403955264        8.4595050908        0.4034828853
N          0.0062685514        2.5174576762        0.1171842429
C          1.1223624258        1.7122693899        0.0633675248
C          0.7198389895        0.3560746339        0.0076765040
C         -0.7147466498        0.3570010700        0.0372359722
C         -1.1126139189        1.7137663361        0.1007527646
C          1.6703854380       -0.6522286210       -0.0739665524
C          3.0060928165       -0.2920637877       -0.1075822744
C          3.3962781493        1.0505709221       -0.0690580916
C          2.4649865779        2.0648907869        0.0132197844
C         -2.4543401027        2.0642680199        0.1804239074
C         -3.3885372766        1.0496706690        0.1715788956
C         -3.0038955263       -0.2930963304        0.0867117943
C         -1.6682718662       -0.6517076360        0.0228970286
N          4.0068531484       -1.2993633243       -0.2011624437
C          4.6626191788       -1.7457869108        0.9396631938
C          5.6852325098       -2.6967446706        0.8201454977
O          6.0725177371       -3.2118932523       -0.4001029677
C          5.4255146507       -2.7337646207       -1.5213389944
C          4.3987049057       -1.7829347465       -1.4439854025
N         -4.0071913579       -1.2990092073        0.0811657731
C         -4.8145942942       -1.4774022595       -1.0376502583
C         -5.8418696176       -2.4300125555       -1.0032478147
O         -6.0847548661       -3.2114284126        0.1072237793
C         -5.2876829010       -3.0013499923        1.2132683274
C         -4.2537605543       -2.0550658605        1.2231494137
C          4.3278397460       -1.2861223496        2.2069025123
C          4.9960110887       -1.7544915881        3.3284543704
C          6.0049406968       -2.6869933974        3.2003048546
C          6.3483016965       -3.1589156312        1.9396756104
C          5.8322100878       -3.2299690371       -2.7440828139
C          5.2258316044       -2.7903296599       -3.9140004921
C          4.2159932706       -1.8524338145       -3.8481239942
C          3.8046335627       -1.3500257100       -2.6225525645
C         -5.5543380668       -3.7644122084        2.3331269573
C         -4.8009392026       -3.5993401500        3.4879236543
C         -3.7885888331       -2.6620960524        3.5119666612
C         -3.5175692245       -1.8930740827        2.3901301668
C         -4.6211032479       -0.7555673132       -2.2089009569
C         -5.4392661730       -0.9587654027       -3.3100822535
C         -6.4582280653       -1.8878546558       -3.2603829530
C         -6.6552128231       -2.6278429125       -2.1017832608
H         -1.3358624137        4.1495699610       -1.4779545883
H         -1.3574975515        6.6011262596       -1.3697814425
H          1.3639064605        6.4782817687        1.9262169464
H          1.3518553168        4.0145479783        1.8432811743
H         -0.8001490864        8.6855972744       -0.6013240116
H          1.3824442133       -1.6910052808       -0.1186954375
H          4.4492728077        1.2843001292       -0.1098586790
H          2.7741982521        3.0978902389        0.0238572769
H         -2.7607686825        3.0947079683        0.2636287844
H         -4.4406938309        1.2828864853        0.2326792951
H         -1.3821205351       -1.6907956983       -0.0270791871
H          3.5375491591       -0.5591615051        2.3101817502
H          4.7181632974       -1.3828768788        4.3024401947
H          6.5287546923       -3.0549387366        4.0679511957
H          7.1306297931       -3.8894407057        1.8072033811
H          6.6260874361       -3.9598086183       -2.7628622813
H          5.5506957989       -3.1846199788       -4.8635251799
H          3.7385475459       -1.5013536688       -4.7496337744
H          3.0166361026       -0.6148702277       -2.5752968392
H         -6.3580955662       -4.4819152701        2.2841125825
H         -5.0165186928       -4.2008204653        4.3564248870
H         -3.2003420132       -2.5179060446        4.4047666610
H         -2.7298519829       -1.1569361291        2.4191319922
H         -3.8210492961       -0.0338832231       -2.2564896782
H         -5.2692675848       -0.3841614343       -4.2072070780
H         -7.0993322176       -2.0494625873       -4.1121777980
H         -7.4367745701       -3.3679510841       -2.0335898850
