75
-123.96740977
C          0.0041863444        3.9169784774        0.4832062150
C         -0.7372481786        4.4972537114        1.5077796784
C         -0.7386660800        5.8678355471        1.6778110195
C          0.0112536515        6.6712887613        0.8280994179
C          0.7559803434        6.0948389892       -0.1951578389
C          0.7490851927        4.7262435059       -0.3703284421
S          0.0532164428        8.4306892487        1.0038371158
N          0.0016108453        2.5220465663        0.3129855453
C          1.1179570401        1.7215273199        0.2082471396
C          0.7151890079        0.3728867704        0.0581319340
C         -0.7194774965        0.3742731590        0.0675053265
C         -1.1174853023        1.7233530598        0.2266494240
C          1.6650248347       -0.6318388515       -0.0627732369
C          3.0026198052       -0.2781903669       -0.0203338310
C          3.3934947351        1.0537991960        0.1539618898
C          2.4624284461        2.0647125904        0.2722633407
C         -2.4602128877        2.0791070661        0.2265937854
C         -3.3951317121        1.0730175438        0.0970554686
C         -3.0090624314       -0.2646432981       -0.0394035302
C         -1.6730849548       -0.6257143165       -0.0626877372
N          4.0027895250       -1.2800021176       -0.1473896549
C          4.7105040127       -1.4150374257       -1.3368685155
C          5.7184833903       -2.3838666467       -1.4341443314
O          6.0388699974       -3.2209594743       -0.3854102030
C          5.3268796709       -3.0662431323        0.7862200141
C          4.3140064517       -2.1075804692        0.9261483825
N         -4.0133128391       -1.2628759355       -0.1687039171
C         -4.6650832843       -1.4478084979       -1.3828183914
C         -5.6774266144       -2.4118773806       -1.4826598355
O         -6.0570839792       -3.1945868350       -0.4117410703
C         -5.3921029328       -2.9980693312        0.7811912279
C         -4.3754726240       -2.0437028123        0.9231851364
C          4.4370032002       -0.6299264443       -2.4498781361
C          5.1567977248       -0.7908181080       -3.6243577811
C          6.1555079294       -1.7393779678       -3.7061292968
C          6.4329373253       -2.5399909192       -2.6055996658
C          5.6571841803       -3.8987519073        1.8373899978
C          4.9896468533       -3.7921298895        3.0506457878
C          3.9977395944       -2.8449280461        3.2015645083
C          3.6625635312       -2.0064361395        2.1489186722
C         -5.7731383104       -3.7834852090        1.8511841363
C         -5.1529606257       -3.6334772101        3.0849401299
C         -4.1559721241       -2.6917705073        3.2366629705
C         -3.7699471222       -1.9003422034        2.1651208476
C         -4.3328177260       -0.7156179150       -2.5156331996
C         -4.9979249626       -0.9255869914       -3.7144076628
C         -5.9998531698       -1.8703962342       -3.8001522177
C         -6.3369481268       -2.6170334878       -2.6784390513
H         -1.3031478730        3.8713408226        2.1801367163
H         -1.3165991370        6.3074181040        2.4763789117
H          1.3320859015        6.7258177799       -0.8543754826
H          1.3111125673        4.2820716092       -1.1769576464
H         -0.7611699115        8.4892274670        2.0530006162
H          1.3751806394       -1.6643273719       -0.1815047943
H          4.4477043918        1.2819179574        0.1948799467
H          2.7742243600        3.0860787777        0.4218231567
H         -2.7672211591        3.1090676177        0.3139755686
H         -4.4481526067        1.3099283123        0.0929072152
H         -1.3873499371       -1.6592563216       -0.1821040652
H          3.6524757019        0.1080994320       -2.3935577026
H          4.9260819704       -0.1678077019       -4.4743956100
H          6.7195394360       -1.8690725413       -4.6158579396
H          7.2021328735       -3.2952398795       -2.6398003447
H          6.4418664350       -4.6237599184        1.6894535897
H          5.2549383739       -4.4473320233        3.8648255995
H          3.4756999127       -2.7473103657        4.1406296929
H          2.8909326709       -1.2633950515        2.2748503049
H         -6.5592775448       -4.5065953118        1.7016483240
H         -5.4580179150       -4.2519327614        3.9138184222
H         -3.6693962199       -2.5622920924        4.1908127782
H         -2.9934075416       -1.1622197634        2.2899600431
H         -3.5463123820        0.0200889410       -2.4550445626
H         -4.7221411705       -0.3435230596       -4.5799032252
H         -6.5212599789       -2.0381959082       -4.7288912649
H         -7.1113833615       -3.3668306682       -2.7145387750
