75
-123.96751144
C          0.0019819288        3.8756365324        0.7818162179
C          0.7035377341        4.3706600555        1.8779405651
C          0.7087249033        5.7248012169        2.1423615841
C          0.0052142237        6.5989787440        1.3209481407
C         -0.7004697791        6.1088466470        0.2293532656
C         -0.6969027311        4.7543761805       -0.0402610518
S          0.0412299224        8.3240592512        1.7100987274
N          0.0000431051        2.4981372829        0.5068869614
C          1.1147576052        1.6932208245        0.4159610569
C          0.7135861316        0.3670546563        0.1277725538
C         -0.7182356896        0.3867856470        0.0370720818
C         -1.1164688883        1.7225623490        0.2817420124
C          1.6610149439       -0.6380673666       -0.0067689147
C          2.9989920022       -0.3018307030        0.1170559280
C          3.3889991342        1.0203814227        0.3612873311
C          2.4592318893        2.0271383091        0.5167942322
C         -2.4601794984        2.0726589590        0.3162127647
C         -3.3920497244        1.0862089450        0.0696110960
C         -3.0047505476       -0.2286544308       -0.2149647494
C         -1.6677139756       -0.5901827139       -0.2275237791
N          3.9963254041       -1.3022178431       -0.0127471219
C          4.2260946208       -1.9227159559       -1.2386195562
C          5.2353873781       -2.8897585030       -1.3432817200
O          6.0326500091       -3.2437704388       -0.2754139195
C          5.7913656745       -2.6149664127        0.9276189307
C          4.7809432866       -1.6563056903        1.0823843116
N         -4.0040298723       -1.1985343683       -0.4857821036
C         -4.2403521547       -2.2442133841        0.4034921265
C         -5.2463592894       -3.1777230712        0.1182805534
O         -6.0334290468       -3.0934113973       -1.0107584339
C         -5.7844385834       -2.0497716802       -1.8767389161
C         -4.7772477753       -1.1044139633       -1.6405555907
C          3.5044336590       -1.5999062957       -2.3814823200
C          3.7557820999       -2.2403230177       -3.5855438387
C          4.7360786419       -3.2075717707       -3.6712018572
C          5.4815426823       -3.5263201643       -2.5442548250
C          6.5886604426       -2.9789064628        1.9953442375
C          6.3907864645       -2.4052882271        3.2440783045
C          5.3818252131       -1.4795150899        3.4142046421
C          4.5801289265       -1.1105600385        2.3446134098
C         -6.5704448499       -1.9754717044       -3.0102486463
C         -6.3644653087       -0.9649524184       -3.9397702577
C         -5.3588932030       -0.0436432731       -3.7300441990
C         -4.5684105866       -0.1140915592       -2.5929172464
C         -3.5287893908       -2.3862453607        1.5886447827
C         -3.7869988931       -3.4413961543        2.4506632333
C         -4.7640236385       -4.3676249201        2.1482811501
C         -5.4992457983       -4.2281606408        0.9789167432
H          1.2327927517        3.6914237435        2.5278361332
H          1.2510039897        6.1123519439        2.9911185566
H         -1.2455303386        6.7814091823       -0.4152798148
H         -1.2275782821        4.3759823038       -0.9000205866
H         -0.7278783857        8.7150249878        0.6986606009
H          1.3681351474       -1.6567233834       -0.2090951159
H          4.4427478010        1.2443671588        0.4296796050
H          2.7731086345        3.0433358863        0.6950005637
H         -2.7718452488        3.0794078426        0.5444377683
H         -4.4452798667        1.3216141282        0.0911546710
H         -1.3770882076       -1.6088785516       -0.4328995589
H          2.7435092927       -0.8376418575       -2.3289065904
H          3.1766983737       -1.9724526400       -4.4555102301
H          4.9339693728       -3.7121412932       -4.6032615665
H          6.2648437788       -4.2669060158       -2.5788223982
H          7.3583245042       -3.7162624919        1.8306615299
H          7.0206689913       -2.6933825575        4.0703458561
H          5.2067003967       -1.0359505835        4.3819222743
H          3.7871846753       -0.3944887512        2.4903004424
H         -7.3377601513       -2.7203921443       -3.1499919112
H         -6.9854935267       -0.9136449903       -4.8196385392
H         -5.1776684479        0.7386225148       -4.4505194613
H         -3.7778172356        0.6037572796       -2.4434857529
H         -2.7703902613       -1.6621033013        1.8403054069
H         -3.2159108035       -3.5290747964        3.3617791885
H         -4.9671955790       -5.1925238953        2.8121856150
H         -6.2795448042       -4.9256834132        0.7184814435
