75
-123.96720448
C          0.0029238944        3.8841651188        0.5963788014
C          0.7081661823        4.4250247205        1.6669466810
C          0.7150300836        5.7896476302        1.8794967367
C          0.0064484791        6.6263909459        1.0264534825
C         -0.7030589196        6.0891539732       -0.0421616022
C         -0.7013006768        4.7265933548       -0.2595288735
S         -0.0258249680        8.3799388653        1.2544320930
N          0.0014487597        2.4952461278        0.3814333253
C          1.1170830561        1.6905297799        0.3098268293
C          0.7157685845        0.3516172348        0.0856456362
C         -0.7177165333        0.3622502433        0.0265175913
C         -1.1159981100        1.7083281871        0.2089666313
C          1.6669409714       -0.6510347721       -0.0439794798
C          3.0028943345       -0.3013985674        0.0436128624
C          3.3932662501        1.0261221834        0.2474695995
C          2.4611254084        2.0344786392        0.3792258320
C         -2.4592494037        2.0607245258        0.2402756824
C         -3.3933224032        1.0610887427        0.0637672214
C         -3.0061529957       -0.2683487249       -0.1347874005
C         -1.6707353769       -0.6311959102       -0.1510267828
N          4.0047923765       -1.3030210091       -0.0915221821
C          4.5106322069       -1.6220427229       -1.3460227114
C          5.5339045467       -2.5735616136       -1.4551996809
O          6.0664476383       -3.2118641308       -0.3536308459
C          5.5686847972       -2.8570300041        0.8836776312
C          4.5459497076       -1.9107400072        1.0347256272
N         -4.0102488130       -1.2609842551       -0.3066876451
C         -4.6362435114       -1.4195636254       -1.5374203097
C         -5.6629904234       -2.3638287317       -1.6729381779
O         -6.0828046948       -3.1510361422       -0.6203452315
C         -5.4541350059       -2.9688834868        0.5944234890
C         -4.4246219896       -2.0344771578        0.7717111505
C          4.0324546679       -1.0248016494       -2.5052919077
C          4.5556622863       -1.3653695571       -3.7438291408
C          5.5625313580       -2.3037088572       -3.8414375808
C          6.0522679343       -2.9081338503       -2.6905189410
C          6.1198016221       -3.4768502532        1.9875903932
C          5.6627652408       -3.1695182372        3.2629631096
C          4.6540278796       -2.2415114222        3.4213330615
C          4.0979912912       -1.6151756259        2.3157962377
C         -5.8845031778       -3.7485725417        1.6497719549
C         -5.3008067071       -3.6133844713        2.9029410809
C         -4.2904386540       -2.6922940642        3.0887124348
C         -3.8552080052       -1.9062236141        2.0321765466
C         -4.2642947204       -0.6789910280       -2.6521776013
C         -4.9030292566       -0.8633947090       -3.8693781579
C         -5.9184811611       -1.7896947242       -3.9908336938
C         -6.2966279543       -2.5429521211       -2.8866798367
H          1.2414418336        3.7731135336        2.3412151896
H          1.2649868598        6.1986052937        2.7132889522
H         -1.2474751583        6.7458280784       -0.7031876291
H         -1.2354758144        4.3130409628       -1.1006268792
H          0.7485775986        8.3980541127        2.3348583813
H          1.3796337252       -1.6765995566       -0.2159639500
H          4.4473508209        1.2532298828        0.2958029630
H          2.7715800171        3.0577861446        0.5173859338
H         -2.7679622393        3.0797373864        0.4107449932
H         -4.4467723858        1.2956524977        0.0803231250
H         -1.3853017176       -1.6622539053       -0.2903943013
H          3.2461973698       -0.2897847565       -2.4325681214
H          4.1673542367       -0.8883481543       -4.6301935995
H          5.9740537478       -2.5725668063       -4.8011086843
H          6.8396540880       -3.6439321428       -2.7340856100
H          6.9057756656       -4.1987059765        1.8313203050
H          6.0997502150       -3.6598487971        4.1180953483
H          4.2893699331       -1.9961116936        4.4065906882
H          3.3080729058       -0.8914792743        2.4420350698
H         -6.6794977476       -4.4558205303        1.4736371884
H         -5.6440936877       -4.2273771868        3.7200986531
H         -3.8313776814       -2.5748587910        4.0579240044
H         -3.0681974311       -1.1842247513        2.1832938091
H         -3.4676264306        0.0426708964       -2.5619340614
H         -4.5965247435       -0.2761983755       -4.7209449886
H         -6.4196718288       -1.9375916937       -4.9339529232
H         -7.0836079796       -3.2776879109       -2.9506556097
