61
-96.64721832
C          3.8367031447       -0.0010947009        0.0008271475
C          4.5401977969       -1.1979300428        0.1096718394
C          5.9206931590       -1.2026778809        0.1066204027
C          6.6183658848       -0.0062262865        0.0004936708
C          5.9215149975        1.1924213273       -0.1051819934
C          4.5423322601        1.1954086490       -0.1081051000
S          8.3853193904        0.0478264088       -0.0050594117
N          2.4356570559       -0.0004582097        0.0008109441
C          1.6430613410       -0.9911129736       -0.5007531797
C          0.3297055704       -0.6321442439       -0.3300018787
C          0.3301200123        0.6328733711        0.3308092270
C          1.6437294273        0.9908486958        0.5019592478
N         -0.8079903083       -1.3543599186       -0.6925170775
C         -1.9194542284       -0.8183501430       -1.3086123692
C         -2.9773262384       -1.7549215215       -1.2677181987
C         -2.4665137715       -2.9151357338       -0.5933768027
C         -1.1269863919       -2.6214083414       -0.2492018513
N         -0.8074880111        1.3553509855        0.6932392428
C         -1.1273155139        2.6217792643        0.2488303828
C         -2.4671053374        2.9148605459        0.5926478467
C         -2.9770628011        1.7550236267        1.2682676502
C         -1.9186255438        0.8191466325        1.3098153688
C         -4.2087416366       -1.4312038671       -1.8211443586
C         -4.3648167863       -0.1919226644       -2.4094388071
C         -3.3051704327        0.7103136502       -2.4747715718
C         -2.0690027405        0.4080915622       -1.9391210151
C         -0.3469436254       -3.5309193346        0.4491831566
C         -0.9160706312       -4.7442493062        0.7850505531
C         -2.2306727823       -5.0498237423        0.4382015221
C         -3.0152131306       -4.1427303683       -0.2464463607
C         -3.0169956769        4.1413213509        0.2436648914
C         -2.2333244064        5.0480516668       -0.4424506286
C         -0.9182954617        4.7433317222       -0.7884531697
C         -0.3479870495        3.5310934835       -0.4506254586
C         -2.0675050042       -0.4070365001        1.9409912313
C         -3.3033737733       -0.7094598830        2.4772212009
C         -4.3634168352        0.1922940545        2.4117409430
C         -4.2081345350        1.4311776721        1.8224001171
H          4.0081994407       -2.1300210424        0.2128538206
H          6.4512558619       -2.1383927155        0.1938323081
H          6.4671482111        2.1193029442       -0.1917897161
H          4.0130407155        2.1290079609       -0.2108897096
H          8.5690356371       -1.2642406939        0.1047896061
H          2.0491847375       -1.8562739096       -0.9828702926
H          2.0506979519        1.8560790265        0.9833638713
H         -5.0257357075       -2.1364563459       -1.7886725719
H         -5.3180097768        0.0826938093       -2.8363723652
H         -3.4515605731        1.6660882375       -2.9560350690
H         -1.2494834125        1.1065169103       -2.0135180782
H          0.6675126832       -3.2929920045        0.7306452262
H         -0.3316849472       -5.4711899977        1.3295196865
H         -2.6396926767       -6.0099024015        0.7160661117
H         -4.0368388794       -4.3771879799       -0.5055470796
H         -4.0389056325        4.3751878205        0.5021804681
H         -2.6432774199        6.0071963723       -0.7221623317
H         -0.3343875760        5.4700048201       -1.3338325233
H          0.6669650553        3.2940942165       -0.7313151692
H         -1.2476444817       -1.1050182052        2.0154759821
H         -3.4492284883       -1.6649607860        2.9591569105
H         -5.3162899668       -0.0823109867        2.8393893087
H         -5.0253988263        2.1361079086        1.7896845223
