61
-96.64704198
C          3.8325583327        0.0131227622        0.0091738778
C          4.5425598040       -0.6281853714       -1.0036415560
C          5.9218650009       -0.6255587562       -0.9941675367
C          6.6133808734        0.0234026253        0.0228433248
C          5.9107183490        0.6681350334        1.0329105580
C          4.5301242315        0.6590585436        1.0265677606
S          8.3805714164       -0.0016356122       -0.0165173198
N          2.4307850205        0.0082980725        0.0046732161
C          1.6432664370       -0.9953474662       -0.4780049862
C          0.3277782992       -0.6425608481       -0.3090086652
C          0.3217426719        0.6432635991        0.3099753606
C          1.6337685216        1.0059486733        0.4842275358
N         -0.8058834001       -1.3848097413       -0.6436871602
C         -1.1146116626       -2.6395576436       -0.1601840676
C         -2.4496007313       -2.9575189631       -0.5008262432
C         -2.9679671000       -1.8256311151       -1.2161189273
C         -1.9190618445       -0.8803539869       -1.2828087469
N         -0.8176972582        1.3787318255        0.6397409354
C         -1.1313991408        2.6308176013        0.1524219035
C         -2.4690419233        2.9426403471        0.4881218774
C         -2.9838910607        1.8094161994        1.2039485162
C         -1.9306022316        0.8693961980        1.2752697153
C         -2.9885608602       -4.1782775605       -0.1164479849
C         -2.1988268665       -5.0549798788        0.6009581750
C         -0.8886891379       -4.7257045464        0.9430834620
C         -0.3291244563       -3.5185232636        0.5707434713
C         -2.0774456043        0.3228950955       -1.9545417732
C         -3.3131361821        0.5937968822       -2.5078568505
C         -4.3637626854       -0.3169764096       -2.4192976464
C         -4.1989069606       -1.5337962391       -1.7881183821
C         -3.0128951755        4.1596495051        0.0987455208
C         -2.2255078807        5.0382087552       -0.6190073631
C         -0.9127651880        4.7146405681       -0.9565555573
C         -0.3481613809        3.5115226268       -0.5788031314
C         -2.0853367680       -0.3341238564        1.9474307940
C         -3.3214399268       -0.6104103747        2.4971236761
C         -4.3760896015        0.2952965538        2.4043671960
C         -4.2152292173        1.5121853514        1.7722609145
H          4.0163941963       -1.1159091553       -1.8084379472
H          6.4716577836       -1.1208786889       -1.7794785262
H          6.4372822650        1.1713127034        1.8292670593
H          3.9931224137        1.1428246796        1.8266612759
H          8.5584460824        0.7067021449        1.0944313849
H          2.0543395757       -1.8984653426       -0.8798356351
H          2.0360208628        1.9125987280        0.8868747138
H         -4.0066471906       -4.4308021017       -0.3725092033
H         -2.5999623375       -6.0094232045        0.9082107643
H         -0.2994428699       -5.4290986774        1.5126999503
H          0.6825708225       -3.2637172320        0.8478573706
H         -1.2649943595        1.0273694469       -2.0472162053
H         -3.4661616075        1.5312759651       -3.0219387218
H         -5.3166264382       -0.0673726983       -2.8620499973
H         -5.0085128083       -2.2464716696       -1.7372342451
H         -4.0329923991        4.4078890949        0.3509692325
H         -2.6306868602        5.9895856014       -0.9304309012
H         -0.3256958265        5.4190033366       -1.5272153062
H          0.6653102865        3.2604714511       -0.8528204470
H         -1.2698997182       -1.0348019939        2.0427748094
H         -3.4717017888       -1.5481357750        3.0115700716
H         -5.3291875897        0.0414822823        2.8442185890
H         -5.0283691349        2.2205479773        1.7177535879
