61
-96.64704896
C          3.8405435517        0.0044931441        0.0079854345
C          4.5464645167       -0.6289401663       -1.0114684784
C          5.9271137076       -0.6324101826       -1.0099111597
C          6.6213627987        0.0050951128        0.0105362683
C          5.9213829696        0.6422232191        1.0292659216
C          4.5420445964        0.6396244366        1.0305337224
S          8.3881089505        0.0358083198        0.0610938865
N          2.4387291882        0.0029848094        0.0051331367
C          1.6487437946       -0.9970547988       -0.4812960680
C          0.3344160659       -0.6413601393       -0.3110162818
C          0.3316875837        0.6422379294        0.3129524794
C          1.6445046498        1.0010378489        0.4885216695
N         -0.8026808491       -1.3775865034       -0.6479620857
C         -1.1247677660       -2.6257215389       -0.1557062914
C         -2.4656673872       -2.9284391474       -0.4867920138
C         -2.9742233200       -1.7934413033       -1.2043482654
C         -1.9137994827       -0.8621986438       -1.2822013036
N         -0.8086901388        1.3757915646        0.6446945296
C         -1.1316824662        2.6229313659        0.1505487400
C         -2.4750606416        2.9220815416        0.4747945600
C         -2.9840305488        1.7860133882        1.1903443276
C         -1.9214514179        0.8577097369        1.2738179632
C         -3.0176906483       -4.1400431999       -0.0922796640
C         -2.2348589901       -5.0226435264        0.6255207938
C         -0.9185947252       -4.7082934417        0.9579443533
C         -0.3459820133       -3.5104744499        0.5752857114
C         -2.0606257851        0.3399471279       -1.9584763262
C         -3.2967294284        0.6253839545       -2.5034148140
C         -4.3588272011       -0.2706642952       -2.4025643985
C         -4.2054817155       -1.4872719405       -1.7680104694
C         -3.0285310533        4.1318665333        0.0767485986
C         -2.2446385856        5.0162146631       -0.6377276223
C         -0.9257941598        4.7054610810       -0.9632361168
C         -0.3517213510        3.5095045057       -0.5769776396
C         -2.0683833596       -0.3446353958        1.9497277158
C         -3.3063630072       -0.6332001634        2.4887265842
C         -4.3703815302        0.2599244335        2.3823106077
C         -4.2172209196        1.4766987050        1.7480374462
H          4.0158744562       -1.1073916642       -1.8190450377
H          6.4602994514       -1.1257704865       -1.8080164457
H          6.4645650634        1.1322591919        1.8224556309
H          4.0090906233        1.1178464876        1.8365896153
H          8.5754279964       -0.6658026271       -1.0525091072
H          2.0576911901       -1.9001129038       -0.8853377643
H          2.0499787923        1.9046670832        0.8949147689
H         -4.0404506338       -4.3810273500       -0.3407355172
H         -2.6464040840       -5.9699964327        0.9408617687
H         -0.3351257284       -5.4157689366        1.5284536400
H          0.6703434089       -3.2665078380        0.8451620212
H         -1.2393092960        1.0329310727       -2.0595840259
H         -3.4411426411        1.5628600414       -3.0199756338
H         -5.3118764879       -0.0096202902       -2.8382603910
H         -5.0244611136       -2.1883902095       -1.7077323868
H         -4.0531917393        4.3701132563        0.3199549643
H         -2.6572792665        5.9621885979       -0.9557560898
H         -0.3413846831        5.4143332206       -1.5310428229
H          0.6668187789        3.2684893783       -0.8411193027
H         -1.2456237535       -1.0352539346        2.0552658126
H         -3.4507454637       -1.5708096110        3.0050506297
H         -5.3248082668       -0.0034719499        2.8135477825
H         -5.0377539659        2.1756191296        1.6835307965
