84
-140.95410009
C         -1.2930147902       -6.1749156963       -0.5174897532
C         -1.2756102551       -4.8029101981       -0.4141428743
C         -0.0625807880       -4.1144478444       -0.3949415646
C          1.1325412011       -4.8284142888       -0.4819802377
C          1.1164093850       -6.2009977242       -0.5859003399
C         -0.0972490357       -6.8993123695       -0.6052370772
C         -0.0422294895       -2.6525607848       -0.2830937231
N          1.1384977800       -2.0505915213       -0.2512392007
C          1.1184832088       -0.7162657761       -0.1463348396
N         -0.0111151354       -0.0034212028       -0.0768500406
C         -1.1444392667       -0.6909823131       -0.1179584597
N         -1.2125995385       -2.0193479266       -0.2206616445
C         -2.4037449278        0.0533752549       -0.0472568108
C         -3.6217350769       -0.6207091553       -0.1274333170
C         -4.8085767147        0.0798141601       -0.0618414362
C         -4.7895356624        1.4637905350        0.0875071250
C         -3.5785437406        2.1414903528        0.1662773217
C         -2.3916503805        1.4393137516        0.0988729331
C          2.3806446098       -0.0115967296       -0.1091001835
C          3.5927351481       -0.7064155433       -0.1672073962
C          4.7918356605       -0.0388906612       -0.1499264633
C          4.8359221737        1.3638801283       -0.0863649100
C          3.6176679899        2.0539671305        0.0295807664
C          2.4216966493        1.3809279012        0.0115271215
C         -0.1347820316       -8.3449375883       -0.7127339445
S         -1.5276150230       -9.2224803522       -0.7099638462
S          1.4099260325       -9.1562470051       -0.8509077506
N          6.0342636206        2.0351087189       -0.0719401298
C          7.2852549923        1.3781741196       -0.0845173206
C          8.2075262165        1.6456965269        0.9247886278
S          7.7982605224        2.8344021882        2.1792504687
C          6.9127566636        3.9519916200        1.1205937536
C          6.1301873799        3.4354866743        0.0902398290
C          7.0210473229        5.3210028661        1.3088557694
C          6.3587371965        6.1839911345        0.4552431761
C          5.6194128897        5.6802890451       -0.6038097299
C          5.5141928482        4.3144438562       -0.7944476298
C          7.6458234454        0.5188426860       -1.1170944423
C          8.8745850148       -0.1157271910       -1.0964720239
C          9.7653197455        0.1177413264       -0.0601352091
C          9.4403238771        1.0122579404        0.9429981976
N         -6.0069893004        2.2030190297        0.1535744852
C         -6.7157252085        2.1855940875        1.3521568070
C         -7.8756642651        2.9383050988        1.5556031560
S         -8.5024897138        4.0739724381        0.3457702754
C         -7.6133198533        3.5648256247       -1.1015623372
C         -6.4920262836        2.7339321989       -1.0392335202
C         -6.2636860977        1.4092513345        2.4215265788
C         -6.9491339108        1.3606570061        3.6221525241
C         -8.1151372340        2.0828648513        3.7925012798
C         -8.5696719147        2.8741605266        2.7522576472
C         -8.0698429267        4.0605705131       -2.3114186186
C         -7.4136739375        3.7597667506       -3.4920108133
C         -6.2983777462        2.9444465226       -3.4485413730
C         -5.8509780780        2.4337735738       -2.2433577286
H         -2.2312840468       -6.7082434432       -0.5325481179
H         -2.1942920852       -4.2431327884       -0.3460785664
H          2.0640258140       -4.2862171841       -0.4660907320
H          2.0487396599       -6.7416146340       -0.6513810231
H         -3.6181123274       -1.6922951449       -0.2446952331
H         -5.7555361343       -0.4348022249       -0.1255491468
H         -3.5780913569        3.2148431910        0.2779843426
H         -1.4432184607        1.9478290995        0.1602778112
H          3.5709984890       -1.7831308378       -0.2213070209
H          5.7084416416       -0.6061265520       -0.1641451822
H          3.6153962006        3.1245731709        0.1560168006
H          1.4924242535        1.9214084410        0.0955642775
H          0.9138827370      -10.3900352846       -0.9190197572
H          7.6211880468        5.6947577553        2.1235269337
H          6.4351354071        7.2489285652        0.6069318294
H          5.1258049580        6.3526742059       -1.2876340337
H          4.9517751825        3.9169062129       -1.6252237170
H          6.9543100902        0.3519301603       -1.9285645875
H          9.1382994179       -0.7910064163       -1.8950995269
H         10.7206255614       -0.3822293105       -0.0414231183
H         10.1302726039        1.2257307532        1.7442108134
H         -5.3537780303        0.8407356172        2.3153032058
H         -6.5624167875        0.7507418869        4.4238666295
H         -8.6605644970        2.0453172014        4.7217106242
H         -9.4645266848        3.4682898281        2.8599806337
H         -8.9417387083        4.6970297971       -2.3100197083
H         -7.7723590579        4.1596886117       -4.4267508282
H         -5.7687720533        2.6945913403       -4.3548034517
H         -4.9843526112        1.7920329802       -2.2343203591
