84
-140.94695724
C          1.2277381015       -6.1000767494        1.2116194565
C          1.2225487100       -4.7486351463        0.9472815996
C          0.0146761823       -4.0632591573        0.8168438993
C         -1.1867617592       -4.7578075937        0.9530898450
C         -1.1835865727       -6.1071157786        1.2337736783
C          0.0256014464       -6.7961924675        1.3708210660
C          0.0074201921       -2.6275955234        0.5290157307
N          1.1789288115       -2.0113464076        0.4007876638
C          1.1270453824       -0.7070490771        0.1351289814
N         -0.0062311301       -0.0223470657        0.0027376090
C         -1.1324514351       -0.7156811472        0.1509438305
N         -1.1705743475       -2.0213124704        0.4129131642
C         -2.4016175752       -0.0035464814        0.0183317087
C         -2.4120288272        1.3697786225       -0.2274279058
C         -3.6092137643        2.0432460809       -0.3533878176
C         -4.8116227702        1.3500094134       -0.2368523853
C         -4.8068067746       -0.0181775279        0.0132714514
C         -3.6086557385       -0.6913043448        0.1392979224
C          2.3890731124        0.0136856923       -0.0195425886
C          3.6023584437       -0.6661549376        0.0901899745
C          4.7940097520        0.0130988999       -0.0557889125
C          4.7860297756        1.3820309250       -0.3121320996
C          3.5792905104        2.0637374909       -0.4269473865
C          2.3873979254        1.3834850977       -0.2806080849
C          0.0682588551       -8.2290318530        1.6276325052
S          1.2158573116       -9.2002461651        0.9635194137
S         -1.1410444845       -8.9514426521        2.6588591220
N          6.0055542110        2.0998850833       -0.4710783982
C          6.4347662300        2.3351829518       -1.7759122073
C          7.5321792801        3.1431907333       -2.0820531923
S          8.4641938608        3.9922179046       -0.8355370193
C          7.9212429525        3.1538819593        0.6305616595
C          6.7668804780        2.3664731116        0.6650345398
C          8.6725106068        3.3732628378        1.7731738360
C          8.2810785168        2.8438334874        2.9901332209
C          7.1178617627        2.0999510156        3.0512453683
C          6.3757128025        1.8638947123        1.9079465456
C          5.7629246070        1.7371926085       -2.8445896048
C          6.1520193163        1.9505846341       -4.1546455230
C          7.2402244151        2.7541660730       -4.4390112623
C          7.9311152130        3.3408930880       -3.3935706389
N         -6.0580973790        2.0269188707       -0.3591768274
C         -6.4655934293        2.4393452612       -1.6262604842
C         -7.7215307561        3.0041912297       -1.8661559793
S         -8.9670405078        3.1365215946       -0.6099214081
C         -8.0003105849        2.9003475141        0.8574138159
C         -6.7069135486        2.3742779446        0.8244659261
C         -5.6217623355        2.2730295192       -2.7265835934
C         -5.9930650036        2.6857895679       -3.9936264511
C         -7.2210330576        3.2842273566       -4.2037223187
C         -8.0834573385        3.4336781631       -3.1321219788
C         -8.6031981420        3.2419789250        2.0566753818
C         -7.9431658378        3.0552133111        3.2583120883
C         -6.6613380527        2.5378662643        3.2445919893
C         -6.0505770874        2.2130034677        2.0468758000
H          2.1586512247       -6.6368401534        1.3124765187
H          2.1468073564       -4.2056329589        0.8358916510
H         -2.1146473035       -4.2226945592        0.8336545677
H         -2.1213150470       -6.6381126433        1.3007614366
H         -1.4729932751        1.8921482594       -0.3115259704
H         -3.6247851438        3.1066966161       -0.5384787282
H         -5.7454872696       -0.5419721131        0.1081108056
H         -3.5884225674       -1.7521283300        0.3280720881
H          3.5914997161       -1.7262323911        0.2849779211
H          5.7366330562       -0.5071044805        0.0234666285
H          3.5872825933        3.1231393930       -0.6321442568
H          1.4440133823        1.8980761456       -0.3626861140
H         -1.7097714117       -7.8227631553        3.0905044752
H          9.5608577791        3.9816611756        1.6952005008
H          8.8710288121        3.0258085138        3.8739779980
H          6.7774513755        1.6955483407        3.9918607633
H          5.4680306220        1.2876394820        1.9851942314
H          4.9190578242        1.0959185958       -2.6458111033
H          5.5995517405        1.4776131361       -4.9516579019
H          7.5530450999        2.9245748326       -5.4565972660
H          8.7856610593        3.9732029412       -3.5813504952
H         -4.6620625685        1.8008797598       -2.5928136719
H         -5.3115856200        2.5349528931       -4.8164495685
H         -7.5157751580        3.6173822069       -5.1858116701
H         -9.0612232409        3.8710946943       -3.2665245002
H         -9.6042251773        3.6453088050        2.0324177031
H         -8.4270828668        3.3137310928        4.1864142828
H         -6.1232310680        2.3883170573        4.1677278831
H         -5.0449909242        1.8238149644        2.0591465783
