84
-140.94979647
C         -1.2545058178       -6.1886445321        0.6027080375
C         -1.2396687277       -4.8183771797        0.4558371004
C         -0.0306726483       -4.1341706911        0.3399970035
C          1.1675308552       -4.8454648760        0.3938730258
C          1.1559880474       -6.2126637157        0.5578360628
C         -0.0548871211       -6.9056986131        0.6521018435
C         -0.0199608263       -2.6774004948        0.1725703588
N          1.1533441547       -2.0784513968        0.0233815091
C          1.1222253493       -0.7488175248       -0.1271630495
N         -0.0110912498       -0.0391956833       -0.1447947936
C         -1.1363088557       -0.7234941554        0.0132656625
N         -1.1927868887       -2.0457086972        0.1809966712
C         -2.3987596947        0.0177647916        0.0049822789
C         -3.5935731084       -0.6286783985        0.3190071066
C         -4.7830100962        0.0704981787        0.3178071154
C         -4.7916304096        1.4247579385       -0.0056715720
C         -3.6026876208        2.0743832523       -0.3191324291
C         -2.4127424063        1.3750126990       -0.3117915770
C          2.3766158494       -0.0444660659       -0.2773911704
C          3.5929722938       -0.7337062607       -0.2667529924
C          4.7840635894       -0.0680759216       -0.4160561500
C          4.8146979040        1.3247889531       -0.5959468882
C          3.5941070512        2.0188871804       -0.5536619380
C          2.4062176017        1.3476638612       -0.4044680967
C         -0.0293950102       -8.3481156600        0.8460036610
S          1.1349743886       -9.0898900704        1.7377474006
S         -1.2784808969       -9.3323074994        0.1248306034
N          6.0056042339        1.9941942488       -0.7423120750
C          7.2619447998        1.3501736457       -0.6841494163
C          8.2127534727        1.7876744727        0.2352974614
S          7.8320676521        3.1688871701        1.2846091903
C          6.9009107662        4.0884093521        0.0838729602
C          6.0917913967        3.4025206018       -0.8192673655
C          6.9994672985        5.4702675234        0.0377178914
C          6.3003375213        6.1747705389       -0.9250720084
C          5.5333789281        5.4969941580       -1.8600912536
C          5.4377655884        4.1178636217       -1.8168588144
C          7.5976987101        0.3295183499       -1.5674234228
C          8.8319077853       -0.2884771348       -1.4791791401
C          9.7524305465        0.1201889194       -0.5265562452
C          9.4510431708        1.1706646056        0.3206277567
N         -6.0075205710        2.1663513081       -0.0070886206
C         -6.9132260521        1.9510670931       -1.0436555265
C         -8.0785272027        2.7081704263       -1.1950698532
S         -8.4555763652        4.1002249260       -0.1620436411
C         -7.3498339291        3.8290886670        1.1967900774
C         -6.2771869075        2.9375572529        1.1218910434
C         -6.6667480804        0.9644650165       -2.0009818122
C         -7.5557080065        0.7160504535       -3.0313454256
C         -8.7259572235        1.4436399820       -3.1378860825
C         -8.9760961765        2.4450285114       -2.2164253581
C         -7.5859736707        4.5700945914        2.3428398724
C         -6.7529478170        4.4574017994        3.4418474422
C         -5.6881115965        3.5776366246        3.3869150197
C         -5.4611896340        2.8234329932        2.2499052020
H         -2.1978005213       -6.6992461782        0.7271826181
H         -2.1595220336       -4.2571378854        0.4286568493
H          2.0976313574       -4.3074086590        0.3084918752
H          2.0800933060       -6.7687047103        0.6018156814
H         -3.5689814059       -1.6766066975        0.5704742073
H         -5.7103361336       -0.4219429227        0.5691440587
H         -3.6218731660        3.1257091094       -0.5622665366
H         -1.4824059543        1.8626317938       -0.5541207591
H          3.5818590229       -1.8037022238       -0.1329625792
H          5.7056752216       -0.6255633062       -0.3708148748
H          3.5844791955        3.0951138516       -0.6155562030
H          1.4749964927        1.8906191500       -0.3751384497
H         -1.8547822548       -8.3822571625       -0.6157400325
H          7.6208828913        5.9782027268        0.7584044086
H          6.3692545197        7.2505322083       -0.9553818497
H          5.0104311709        6.0429383843       -2.6293915351
H          4.8534709903        3.5838210608       -2.5502929429
H          6.8824798957        0.0248821436       -2.3158951661
H          9.0763236090       -1.0887987301       -2.1597151366
H         10.7120510210       -0.3664476621       -0.4539961753
H         10.1636613215        1.5187698783        1.0517723858
H         -5.7570910246        0.3887256111       -1.9464884092
H         -7.3241572480       -0.0537423632       -3.7510653006
H         -9.4294836428        1.2509544776       -3.9317646397
H         -9.8663334133        3.0515373569       -2.2870283561
H         -8.4272536711        5.2464388743        2.3536038844
H         -6.9391543751        5.0483013607        4.3241893338
H         -5.0270426293        3.4667808235        4.2324525011
H         -4.6320578246        2.1340253260        2.2343792309
