84
-140.95594665
C         -1.2451110489       -6.2749873260       -0.0760306162
C         -1.2394141415       -4.8990749427       -0.0696025698
C         -0.0335360367       -4.2007894882       -0.0109897735
C          1.1665682048       -4.9092925658        0.0415029153
C          1.1626303207       -6.2858531152        0.0359258623
C         -0.0439604871       -6.9941453604       -0.0231896849
C         -0.0259411350       -2.7328810688       -0.0042925180
N          1.1546227444       -2.1242436061       -0.0211504231
C          1.1197017879       -0.7855014560       -0.0028478970
N         -0.0090319515       -0.0774088002        0.0132972951
C         -1.1466337541       -0.7713194471        0.0170047438
N         -1.1988982398       -2.1097703308        0.0178303601
C         -2.3968219385       -0.0362072159        0.0163128120
C         -3.6216450202       -0.6961156802        0.1390052111
C         -4.8057893879        0.0002147159        0.1194279559
C         -4.8194865640        1.3940058360       -0.0467767344
C         -3.5843166561        2.0581784038       -0.1150449036
C         -2.4040929894        1.3571116698       -0.0867584999
C          2.3798213895       -0.0678700421        0.0017049050
C          3.5930166305       -0.7427408879       -0.1517494089
C          4.7874683532       -0.0644422585       -0.1331163707
C          4.8240539518        1.3248830926        0.0640208343
C          3.5999830989        2.0051670899        0.1657360992
C          2.4090318777        1.3223638698        0.1369166310
C         -0.0687779143       -8.4433033277       -0.0306988924
S         -1.4522067262       -9.3308866141       -0.1209901820
S          1.4818661583       -9.2502013752        0.0633838396
N          6.0164676961        2.0108980025        0.0898399076
C          6.0881953342        3.4151631979        0.2235440442
C          6.7769631201        4.1605595222       -0.7305341355
S          7.5709936828        3.3176376372       -2.0770394624
C          8.0937413400        1.8958501255       -1.1500243252
C          7.2665532031        1.3968748038       -0.1458672114
C          9.3220525785        1.3100336539       -1.4126847209
C          9.7396311798        0.2280860470       -0.6596241667
C          8.9480034809       -0.2413235781        0.3769397251
C          7.7243278433        0.3463389967        0.6426158722
C          5.5415013651        4.0684143938        1.3233490106
C          5.6219782156        5.4452598153        1.4253500574
C          6.2684980590        6.1827915799        0.4455053707
C          6.8617164849        5.5400795029       -0.6255415960
N         -6.0012455420        2.0981263037       -0.0745045095
C         -6.0508169800        3.5060344412       -0.1773908263
C         -6.7463813234        4.2392282755        0.7811860178
S         -7.5773639132        3.3767523299        2.0926938187
C         -8.1035797461        1.9856902830        1.1222596548
C         -7.2642988686        1.4974821004        0.1228007658
C         -5.4756351437        4.1763634433       -1.2521142268
C         -5.5350030787        5.5562121157       -1.3235532824
C         -6.1884951129        6.2803588578       -0.3383740193
C         -6.8099444368        5.6218642524        0.7067694829
C         -9.3458539875        1.4136468564        1.3466851040
C         -9.7650864360        0.3566206509        0.5598935772
C         -8.9600993132       -0.1010466957       -0.4716235358
C         -7.7223420553        0.4729961574       -0.6990993002
H         -2.1782763084       -6.8156524254       -0.1214468593
H         -2.1614992023       -4.3419122602       -0.1107549970
H          2.0922881400       -4.3587552763        0.0876828242
H          2.0992730037       -6.8216507614        0.0767948095
H         -3.6238292669       -1.7680034378        0.2593976667
H         -5.7310627476       -0.5363672748        0.2544008654
H         -3.5537786435        3.1345794112       -0.1690521059
H         -1.4606556840        1.8764287290       -0.1450326408
H          3.5773142107       -1.8113798742       -0.2967023187
H          5.7026615344       -0.6111010023       -0.2934277136
H          3.5862804960        3.0803234742        0.2457445362
H          1.4743032958        1.8539885389        0.2198865300
H          0.9958195515      -10.4894784488        0.0271295464
H          9.9355649134        1.7068689812       -2.2062337053
H         10.6904330858       -0.2349706214       -0.8704953173
H          9.2855143641       -1.0655300870        0.9853760195
H          7.1123824661       -0.0043513549        1.4593330418
H          5.0498342106        3.4874682847        2.0885370490
H          5.1819235151        5.9423408379        2.2754784547
H          6.3258249568        7.2568712768        0.5229342879
H          7.3885221943        6.0947390820       -1.3860319354
H         -4.9788575578        3.6060926849       -2.0220135282
H         -5.0729634728        6.0661745044       -2.1541531653
H         -6.2293663370        7.3566346973       -0.3918908201
H         -7.3427929809        6.1663576765        1.4703622664
H         -9.9689812290        1.8014750469        2.1371898171
H        -10.7271163216       -0.0958787416        0.7406537363
H         -9.2980726381       -0.9052512237       -1.1060694185
H         -7.0996584953        0.1315968612       -1.5116590202
