84
-140.95102246
C         -1.2272567228       -6.1304805830       -1.1006032280
C         -1.2199599567       -4.7757445197       -0.8557302296
C         -0.0138922602       -4.0761960886       -0.8058624719
C          1.1857143785       -4.7597465161       -1.0075227374
C          1.1787764162       -6.1135798767       -1.2533501304
C         -0.0276856535       -6.8236878934       -1.3037755245
C         -0.0074518522       -2.6355630745       -0.5445580914
N          1.1699833727       -2.0264833345       -0.4394867744
C          1.1304854794       -0.7137016934       -0.2148948340
N          0.0036289066       -0.0165027324       -0.0898483533
C         -1.1287606973       -0.7076536196       -0.1928736295
N         -1.1795687910       -2.0186797594       -0.4247203000
C         -2.3913265038        0.0113580706       -0.0362067092
C         -2.3892203662        1.3674348683        0.2917727017
C         -3.5804857981        2.0442232134        0.4519679645
C         -4.7888230483        1.3723504553        0.2841327439
C         -4.7964422959        0.0205420039       -0.0432789842
C         -3.6042959218       -0.6561253506       -0.2029174413
C          2.3988029866        0.0005816775       -0.0955724394
C          2.4175077744        1.3939317589       -0.0338133101
C          3.6161336788        2.0672066180        0.0788571098
C          4.8118792913        1.3568120604        0.1354347262
C          4.7973903883       -0.0354975565        0.0856310192
C          3.5990027012       -0.7078532555       -0.0343033013
C         -0.0153383608       -8.2509734951       -1.5638620370
S          1.3576491301       -9.1096816390       -1.8593192920
S         -1.5682248223       -9.0583221451       -1.5506222931
N          6.0326239541        2.0733462146        0.2634644730
C          6.3188269406        2.6059438902        1.5208028351
C          7.3706866354        3.4950821555        1.7507938259
S          8.4327938937        4.0606490249        0.4500351465
C          8.0776356169        2.8722275998       -0.8177809972
C          6.9269036054        2.0781239169       -0.8065793197
C          8.9716137690        2.8245984052       -1.8747393253
C          8.7296992630        2.0151975574       -2.9702053180
C          7.5677885052        1.2673298716       -3.0024994065
C          6.6836354430        1.2978895918       -1.9390783162
C          5.5460237182        2.2314770279        2.6226361170
C          5.7860607880        2.7462871144        3.8835454577
C          6.8244688954        3.6354543070        4.0900482420
C          7.6212367398        3.9954758469        3.0180635378
N         -6.0280313808        2.0518006794        0.4583471694
C         -6.6678778634        1.8927787998        1.6861571730
C         -7.9458437005        2.3908588281        1.9503042107
S         -8.9053612866        3.2502391107        0.7321854729
C         -7.6800810251        3.5809686380       -0.5070911208
C         -6.4400310214        2.9366402314       -0.5357149977
C         -6.0172491182        1.2204870188        2.7235264028
C         -6.6191535916        1.0318473988        3.9544774984
C         -7.8866171746        1.5274910320        4.1964316651
C         -8.5400335676        2.2150512622        3.1891412946
C         -8.0433034054        4.4784028216       -1.4975693574
C         -7.1985400377        4.7386666656       -2.5620165722
C         -5.9869784468        4.0770560527       -2.6295726671
C         -5.6144735171        3.1933060449       -1.6326861314
H         -2.1671313922       -6.6604215785       -1.1377901535
H         -2.1410869117       -4.2387448838       -0.6982513723
H          2.1126054820       -4.2108213115       -0.9696706163
H          2.1057509960       -6.6439049677       -1.4091332201
H         -1.4453456788        1.8704518970        0.4257331040
H         -3.5870045135        3.0919804417        0.7117778772
H         -5.7396160091       -0.4891559734       -0.1662160342
H         -3.5933013352       -1.7027222313       -0.4599555902
H          1.4844762340        1.9312232344       -0.0838994519
H          3.6390617267        3.1450934423        0.1277861517
H          5.7271496360       -0.5803512867        0.1499379227
H          3.5719301296       -1.7849766889       -0.0693655873
H         -1.0961527558      -10.2737379767       -1.8197841916
H          9.8511632629        3.4490466848       -1.8322236587
H          9.4305798330        1.9885081789       -3.7889554034
H          7.3389423053        0.6514076261       -3.8583275749
H          5.7794187436        0.7146008407       -1.9988841865
H          4.7414421017        1.5261457288        2.4883544134
H          5.1575507486        2.4406636723        4.7055041846
H          7.0197561071        4.0420328369        5.0692692074
H          8.4443426261        4.6819611054        3.1462438639
H         -5.0226443228        0.8364350500        2.5623532695
H         -6.0852506149        0.4979119707        4.7251909907
H         -8.3640417386        1.3871924991        5.1528494787
H         -9.5292821545        2.6176048702        3.3462887437
H         -9.0082400484        4.9574375042       -1.4279439182
H         -7.4943143876        5.4358037029       -3.3293849015
H         -5.3197699971        4.2434521345       -3.4610334633
H         -4.6681786374        2.6836391756       -1.7145459823
