84
-140.95603331
C         -1.2340113867       -6.1955680909       -0.0014792471
C         -1.2241530965       -4.8190155308       -0.0056231416
C         -0.0158210657       -4.1228337675        0.0034430944
C          1.1841789401       -4.8334896402        0.0165370500
C          1.1762091640       -6.2093162327        0.0211681681
C         -0.0333462030       -6.9161523408        0.0123571577
C         -0.0075635234       -2.6549445488       -0.0004132530
N          1.1713746629       -2.0450008861        0.0437596302
C          1.1356194772       -0.7061329541        0.0279551123
N          0.0070082393        0.0017533502       -0.0095771718
C         -1.1295449804       -0.6939124874       -0.0402675222
N         -1.1797443606       -2.0324423715       -0.0470958846
C         -2.3831952666        0.0345359798       -0.0664971509
C         -3.6024456699       -0.6407367697       -0.1617117631
C         -4.7909048602        0.0463704946       -0.1980308410
C         -4.8148304565        1.4492322666       -0.1474361604
C         -3.5912862125        2.1205175664        0.0048082260
C         -2.4056668164        1.4276758650        0.0345953981
C          2.3970376655        0.0091897871        0.0536193434
C          2.4350585998        1.4003478290       -0.0674467468
C          3.6275396377        2.0812225757       -0.0363233135
C          4.8423358129        1.3995937618        0.1380938391
C          4.8033045785       -0.0019772836        0.2091672801
C          3.6080428914       -0.6772355651        0.1705921490
C         -0.0227979637       -8.3654620775        0.0182435870
S          1.3541076840       -9.2667945161        0.0579704046
S         -1.5837595767       -9.1568217785       -0.0198343323
N          6.0400368754        2.0761330922        0.1706043423
C          6.1427163694        3.4713956686       -0.0251946005
C          6.9768635159        3.9612422775       -1.0279126227
S          7.9200501082        2.8171916056       -2.0057697187
C          8.2640981465        1.6650638923       -0.6989623952
C          7.2880891556        1.4214915302        0.2647270181
C          9.4971663478        1.0354879499       -0.6332754419
C          9.7677039026        0.1670255804        0.4081974284
C          8.8207288128       -0.0445254818        1.3983457760
C          7.5920260244        0.5872222907        1.3355469739
C          5.4818262368        4.3741485790        0.8013020088
C          5.5936428051        5.7342850241        0.5760414709
C          6.3846894919        6.2097083582       -0.4582674744
C          7.0924039921        5.3243875026       -1.2503722610
N         -6.0059313234        2.1374416742       -0.1781774385
C         -6.0928485156        3.5361817271       -0.0010667516
C         -6.9133393078        4.0486650769        1.0016822997
S         -7.8602051692        2.9290140976        2.0036498839
C         -8.2258331275        1.7601684588        0.7176142807
C         -7.2609218038        1.4933143960       -0.2510164734
C         -5.4295249274        4.4206092857       -0.8452955175
C         -5.5245184772        5.7848055695       -0.6374849667
C         -6.3015560693        6.2827600802        0.3968326659
C         -7.0123081457        5.4159043076        1.2064473902
C         -9.4645714774        1.1398339248        0.6731785865
C         -9.7517973622        0.2570940858       -0.3516954874
C         -8.8159713531        0.0223598825       -1.3472182517
C         -7.5818056473        0.6451343004       -1.3058889245
H         -2.1769532019       -6.7217677961       -0.0075762808
H         -2.1453897794       -4.2592216617       -0.0148322391
H          2.1128072154       -4.2858249785        0.0219893708
H          2.1049295944       -6.7593660223        0.0308729904
H         -3.5963424785       -1.7183200526       -0.2039789730
H         -5.7151255688       -0.5070392210       -0.2428068608
H         -3.5748565623        3.1919854686        0.1226910443
H         -1.4706120289        1.9534152060        0.1467611646
H          1.5066826696        1.9339676428       -0.1964617629
H          3.6237865566        3.1509197782       -0.1702024302
H          5.7211995849       -0.5641992883        0.2719730574
H          3.5903473040       -1.7540394838        0.2288947682
H         -1.1089161009      -10.4008275933       -0.0019252573
H         10.2297081867        1.2305284429       -1.4006814853
H         10.7233410321       -0.3304916965        0.4549322886
H          9.0400410765       -0.7004939408        2.2260449143
H          6.8554571885        0.4362675414        2.1097515759
H          4.8800518402        3.9992971644        1.6148687126
H          5.0644575761        6.4243196822        1.2141676715
H          6.4661089400        7.2699640529       -0.6374894965
H          7.7334259387        5.6757151280       -2.0435847165
H         -4.8389084722        4.0285031092       -1.6589119296
H         -4.9931157761        6.4603622142       -1.2891522786
H         -6.3697313245        7.3461566430        0.5625542646
H         -7.6428214347        5.7849545666        2.0000665332
H        -10.1882453892        1.3530117984        1.4441687187
H        -10.7116584871       -0.2335349932       -0.3813885957
H         -9.0482109545       -0.6448524247       -2.1622898253
H         -6.8538044808        0.4762016043       -2.0844632076
