84
-140.95186594
C          1.1668631233       -6.2436128181       -0.0695550662
C          1.1714598146       -4.8655011990       -0.0607641962
C         -0.0263973305       -4.1556975009        0.0010902955
C         -1.2317905054       -4.8523700215        0.0748385429
C         -1.2388773556       -6.2293135664        0.0831487049
C         -0.0408607698       -6.9456713722       -0.0017046677
C         -0.0175956651       -2.6875883192       -0.0003162172
N          1.1610647209       -2.0785655075       -0.0641701383
C          1.1257888727       -0.7395686420       -0.0597620442
N         -0.0014868899       -0.0314072267        0.0037978726
C         -1.1372819062       -0.7260920977        0.0629413184
N         -1.1886767546       -2.0644087541        0.0627234342
C         -2.3880749410        0.0049176329        0.1317642470
C         -2.4029989487        1.4017834794        0.1215088849
C         -3.5843084756        2.0976344770        0.2019607401
C         -4.8115171582        1.4244897999        0.3104592731
C         -4.7957763674        0.0214977662        0.2649428955
C         -3.6108660557       -0.6683304347        0.1841354641
C          2.3848228070       -0.0230296789       -0.1292156113
C          3.5998503689       -0.7097142497       -0.1882899387
C          4.7922521685       -0.0329624849       -0.2695660521
C          4.8237623044        1.3699919081       -0.3086880769
C          3.6045496449        2.0563759698       -0.1930547105
C          2.4156852977        1.3735641941       -0.1123503430
C         -0.0849281926       -8.3996411177        0.0301676668
S         -1.1989748198       -9.2232232490        0.9145882337
S          1.0863707548       -9.3142137431       -0.8868689807
N          6.0167249378        2.0508961477       -0.3896122384
C          7.2718520889        1.4031868878       -0.4071919997
C          8.2332606694        1.7477152804        0.5403779632
S          7.8644968885        3.0188549073        1.7246861984
C          6.9236773003        4.0530220351        0.6293564835
C          6.1040294043        3.4593468940       -0.3280952375
C          7.0255759217        5.4324710554        0.7177444200
C          6.3179450465        6.2291090879       -0.1635878388
C          5.5398078455        5.6471057528       -1.1522767546
C          5.4419650736        4.2705096479       -1.2439227951
C          7.5976781015        0.4741426134       -1.3899316281
C          8.8319893711       -0.1497181984       -1.3758242593
C          9.7633227105        0.1635826436       -0.3979548379
C          9.4719849386        1.1259896042        0.5512666959
N         -5.9970616160        2.1183684165        0.3901243589
C         -7.2593582385        1.4846822478        0.4001541890
C         -8.2127999498        1.8435887645       -0.5501638369
S         -7.8248925650        3.1153561192       -1.7273047877
C         -6.8772427999        4.1347383686       -0.6239403192
C         -6.0683737838        3.5280136847        0.3344635086
C         -7.5997051454        0.5553902048        1.3776965989
C         -8.8407155503       -0.0548454885        1.3556227559
C         -9.7641581374        0.2724771417        0.3748704523
C         -9.4581444279        1.2354748927       -0.5691201801
C         -6.9632751153        5.5155956698       -0.7070389091
C         -6.2505238758        6.3005431832        0.1806432883
C         -5.4831847069        5.7057809946        1.1701814497
C         -5.4011055651        4.3277967137        1.2564665930
H          2.1055997766       -6.7773227489       -0.0802393425
H          2.0982783857       -4.3162720935       -0.0992042517
H         -2.1528802346       -4.2947835744        0.1273221202
H         -2.1693988113       -6.7734903045        0.1404395885
H         -1.4651984849        1.9287122165        0.0436173067
H         -3.5622466288        3.1746614558        0.1587517175
H         -5.7229782225       -0.5286894998        0.2712759571
H         -3.6111901546       -1.7464627219        0.1550885306
H          3.5877483493       -1.7877454858       -0.1634467231
H          5.7133248649       -0.5931800973       -0.2807123981
H          3.5946541343        3.1333664466       -0.1443836061
H          1.4841478753        1.9107161204       -0.0292508652
H          1.6294920001       -8.2959096829       -1.5582422635
H          7.6558026769        5.8662015896        1.4781927744
H          6.3888587877        7.3025803097       -0.0889327547
H          5.0098985556        6.2662743744       -1.8588732500
H          4.8493869443        3.8119313834       -2.0205657466
H          6.8743049908        0.2449214341       -2.1572529559
H          9.0681368148       -0.8792839047       -2.1343720689
H         10.7232224878       -0.3276812834       -0.3839421668
H         10.1925588471        1.4010322546        1.3054018390
H         -6.8822677073        0.3146330920        2.1471142706
H         -9.0879482855       -0.7850531202        2.1100625967
H        -10.7291485169       -0.2084946256        0.3546435901
H        -10.1723347213        1.5212519611       -1.3253268196
H         -7.5853317742        5.9594176911       -1.4683468899
H         -6.3090856134        7.3750302881        0.1102376084
H         -4.9494761623        6.3159641319        1.8817068351
H         -4.8170755184        3.8592224913        2.0336308624
