84
-140.95391401
C          1.1853911953       -6.2120190883        0.4686576644
C          1.1923227171       -4.8392553012        0.3761272614
C         -0.0073151749       -4.1274890275        0.3903591100
C         -1.2138577882       -4.8187326278        0.4994472777
C         -1.2219592323       -6.1922926305        0.5923565025
C         -0.0220406301       -6.9139356459        0.5785851499
C         -0.0004999763       -2.6643998788        0.2942976006
N          1.1742194470       -2.0513888026        0.2476450590
C          1.1403077162       -0.7154937008        0.1703072204
N          0.0040624165       -0.0103108100        0.1568941798
C         -1.1223678353       -0.7098630737        0.1965674449
N         -1.1772258438       -2.0412797873        0.2595188852
C         -2.3886637681        0.0234997606        0.1668857734
C         -3.5898846563       -0.6583386949       -0.0197737955
C         -4.7828155684        0.0344456746       -0.0590486708
C         -4.7892450659        1.4168406472        0.0953500315
C         -3.5931286760        2.1014090088        0.2959251402
C         -2.4002667646        1.4087425164        0.3251007001
C          2.3951832436       -0.0003352737        0.0938440232
C          3.6135881592       -0.6860379496        0.1052022593
C          4.8060300150       -0.0100723993        0.0340634118
C          4.8371477035        1.3923891098       -0.0404532360
C          3.6101214355        2.0736670367       -0.1020643332
C          2.4208546248        1.3921678802       -0.0301352633
C         -0.0100674857       -8.3606690064        0.6760498797
S          1.3663131388       -9.2633205372        0.6549255973
S         -1.5681252236       -9.1448740874        0.8233395927
N          6.0291515088        2.0711928165       -0.1178144106
C          7.2825365036        1.4206547228       -0.1680778577
C          8.1460812381        1.6810909980       -1.2298222721
S          7.6623765948        2.8537755192       -2.4725185457
C          6.8283338800        3.9785470859       -1.3800750095
C          6.1069343441        3.4700328083       -0.3022192730
C          6.9160420225        5.3457449914       -1.5909588996
C          6.2946978906        6.2151166943       -0.7133599947
C          5.6177846270        5.7200550178        0.3905343214
C          5.5332802680        4.3560548595        0.6035852683
C          7.7035692436        0.5731275289        0.8512629398
C          8.9318992686       -0.0572610370        0.7686137572
C          9.7626755355        0.1689700114       -0.3178995869
C          9.3786668509        1.0520881203       -1.3102048754
N         -6.0312486268        2.1106840199        0.0578828951
C         -6.3139148683        2.9119586496       -1.0468847836
C         -7.5562881046        3.5254651848       -1.2330634165
S         -8.9384416312        3.2343651438       -0.1601612056
C         -8.1336625903        2.5280301692        1.2522293563
C         -6.8224407326        2.0495450774        1.2040375146
C         -5.3520870399        3.1117929211       -2.0397212097
C         -5.5978508613        3.9190126463       -3.1358871844
C         -6.8149371025        4.5586143478       -3.2766393883
C         -7.7935552701        4.3484050174       -2.3215535831
C         -8.8815740409        2.4512083153        2.4155832571
C         -8.3513859553        1.8840088099        3.5606871208
C         -7.0519639175        1.4128841455        3.5341192497
C         -6.2976561706        1.5048525677        2.3785025263
H          2.1131237791       -6.7635349513        0.4579029999
H          2.1194765575       -4.2958415815        0.2913501559
H         -2.1349655368       -4.2589257431        0.5119610686
H         -2.1629133868       -6.7151381799        0.6765558185
H         -3.5683356593       -1.7291336775       -0.1421253448
H         -5.7166952690       -0.4862630920       -0.2059290676
H         -3.6092340468        3.1725880283        0.4298447647
H         -1.4653214011        1.9231018160        0.4789777306
H          3.6022049938       -1.7626882135        0.1652449235
H          5.7263431240       -0.5710873618        0.0122043763
H          3.5946206342        3.1438167529       -0.2313432897
H          1.4847062985        1.9252763017       -0.0778897698
H         -1.0933680139      -10.3876668686        0.8793157982
H          7.4680360975        5.7129095776       -2.4418511259
H          6.3547418823        7.2784896607       -0.8823393124
H          5.1569558522        6.3978163726        1.0916895760
H          5.0196190814        3.9651712615        1.4683936991
H          7.0585876599        0.4113550867        1.7012047182
H          9.2421830256       -0.7238906701        1.5577415961
H         10.7174100402       -0.3279589348       -0.3849016709
H         10.0220052964        1.2595696340       -2.1508199054
H         -4.3979601602        2.6165257536       -1.9617524785
H         -4.8264337943        4.0431826032       -3.8800088709
H         -7.0120590603        5.1979076800       -4.1220552938
H         -8.7663352566        4.8066867914       -2.4165625707
H         -9.8912864267        2.8327778505        2.4036013572
H         -8.9472803549        1.8173458784        4.4566765576
H         -6.6120433443        0.9741011699        4.4162089108
H         -5.2813603835        1.1441687392        2.3847015610
