84
-140.95110773
C          1.2314213889       -6.0957722632        1.1947161649
C          1.2285105047       -4.7486733710        0.9141016568
C          0.0218357862       -4.0576868811        0.7985186335
C         -1.1812345759       -4.7434394169        0.9687231265
C         -1.1788108016       -6.0911093500        1.2497536862
C          0.0279623977       -6.7913910788        1.3683223157
C          0.0164791251       -2.6234167662        0.5042119310
N          1.1883236345       -2.0092732723        0.3687903117
C          1.1368993419       -0.7039564046        0.1066559647
N          0.0040827208       -0.0176697231       -0.0214132576
C         -1.1225791517       -0.7103454410        0.1281441093
N         -1.1609171581       -2.0156594193        0.3919523770
C         -2.3922575495        0.0007789612       -0.0015402734
C         -2.4058828275        1.3749366872       -0.2425198697
C         -3.6046012769        2.0469124724       -0.3619578222
C         -4.8057832043        1.3515078321       -0.2439740095
C         -4.7974234866       -0.0178998689        0.0008018301
C         -3.5979928819       -0.6894619978        0.1203305982
C          2.3996769951        0.0156775512       -0.0465930236
C          3.6121890800       -0.6644639411        0.0701427959
C          4.8048981205        0.0140171136       -0.0705311920
C          4.7990239467        1.3826406116       -0.3285419596
C          3.5930016805        2.0645409035       -0.4512602047
C          2.4000581571        1.3850596180       -0.3102371120
C          0.0506381688       -8.2112383505        1.6659430400
S          1.4363502455       -9.0873917693        1.8142811416
S         -1.5040067278       -8.9889866393        1.8698711395
N          6.0204116580        2.0987638879       -0.4797471087
C          6.4505529827        2.3472110944       -1.7818344711
C          7.5544835592        3.1493529491       -2.0799318431
S          8.5016311614        3.9707052814       -0.8264423145
C          7.9349462223        3.1420332762        0.6359264675
C          6.7745840929        2.3631480373        0.6616669437
C          8.6767220161        3.3596735107        1.7851666613
C          8.2708226509        2.8360564779        2.9998423495
C          7.1022216689        2.1000019758        3.0519640393
C          6.3688464462        1.8666653126        1.9024691394
C          5.7728688010        1.7674659615       -2.8569687864
C          6.1609768773        1.9944257286       -4.1650194118
C          7.2542177255        2.7939147137       -4.4414250180
C          7.9518090046        3.3612482445       -3.3898218604
N         -6.0542287951        2.0252160431       -0.3560440541
C         -6.4619471075        2.4663284721       -1.6136574407
C         -7.7247947269        3.0203304907       -1.8426544046
S         -8.9783382819        3.0947269812       -0.5897156349
C         -8.0121958121        2.8424867858        0.8749166628
C         -6.7105233811        2.3380660070        0.8334865615
C         -5.6131146265        2.3405157298       -2.7154828644
C         -5.9854340232        2.7845229879       -3.9715932554
C         -7.2196624329        3.3744463322       -4.1690414166
C         -8.0878162143        3.4816477518       -3.0971172813
C         -8.6226694902        3.1491887319        2.0798397484
C         -7.9614813407        2.9483542350        3.2784821526
C         -6.6705988973        2.4541504394        3.2563956409
C         -6.0525914015        2.1646293238        2.0533999817
H          2.1639155597       -6.6316054215        1.2848579380
H          2.1533701284       -4.2114649197        0.7807430316
H         -2.1079845521       -4.2008230425        0.8777084881
H         -2.1165143973       -6.6100843907        1.3799104560
H         -1.4679939382        1.8994072047       -0.3265376002
H         -3.6219955924        3.1114172450       -0.5407606770
H         -5.7347180133       -0.5439220668        0.0973265213
H         -3.5754838002       -1.7510464622        0.3047789078
H          3.5996853912       -1.7241268700        0.2670555653
H          5.7468054260       -0.5064205803        0.0151971335
H          3.6024317171        3.1236453169       -0.6580019415
H          1.4573408978        1.8999362650       -0.3979246248
H         -1.0209323363      -10.2055118342        2.1133726229
H          9.5700078309        3.9616224425        1.7137254863
H          8.8538755255        3.0163393648        3.8885919871
H          6.7504134186        1.6999262349        3.9902423935
H          5.4564788596        1.2970051677        1.9731647929
H          4.9252183005        1.1292137731       -2.6648142599
H          5.6035774560        1.5353986109       -4.9667158208
H          7.5661668296        2.9753705515       -5.4573509290
H          8.8113775385        3.9886541943       -3.5710228574
H         -4.6488798585        1.8748733928       -2.5923853373
H         -5.2997199858        2.6647852754       -4.7959888243
H         -7.5149119849        3.7323090092       -5.1422290625
H         -9.0709848914        3.9094144055       -3.2226894581
H         -9.6302657449        3.5361043607        2.0620417293
H         -8.4511745403        3.1787587838        4.2109446369
H         -6.1310211444        2.2955281879        4.1771616414
H         -5.0399893185        1.7938758428        2.0594489249
