82
-137.23888592
C         -0.0053936879        4.6086768125       -0.5996708462
C          1.1979362525        5.3054080647       -0.7156256468
C          1.2047612792        6.6776921847       -0.8403574433
C          0.0004899274        7.3754488683       -0.8511092255
C         -1.2062153013        6.6886821751       -0.7372771914
C         -1.2079897527        5.3174475913       -0.6128451392
S         -0.0536053254        9.1288816140       -1.0076343068
C         -0.0062141303        3.1558012093       -0.4699711412
N         -1.1814226913        2.5370190002       -0.3597986098
C         -1.1368045274        1.2085117457       -0.2788110974
N         -0.0105680412        0.4979750313       -0.3076743379
C          1.1199965527        1.1988338417       -0.3762334102
N          1.1689373758        2.5269757127       -0.4609126876
C          2.3800950164        0.4628818739       -0.3342760396
C          2.3853197177       -0.9279327157       -0.4440310904
C          3.5699177674       -1.6280030422       -0.3714135123
C          4.7734989520       -0.9508736719       -0.1743004279
C          4.7720398721        0.4402630893       -0.0723720909
C          3.5871882353        1.1393223298       -0.1574029839
C         -2.3948904091        0.4835069217       -0.1277823949
C         -2.4209335652       -0.9075561774       -0.2313882789
C         -3.6009464833       -1.5971750649       -0.0564650632
C         -4.7779535342       -0.9090752448        0.2387453036
C         -4.7563035590        0.4823040286        0.3349676555
C         -3.5770665910        1.1708816542        0.1477619673
N         -5.9761457745       -1.6176546218        0.4484002434
C         -7.0987247522       -1.3779828836       -0.3503221975
C         -8.2837806054       -2.0831124273       -0.1030047431
O         -8.3863115999       -3.0318820041        0.8882584536
C         -7.2709359131       -3.2613440378        1.6605814435
C         -6.0694498532       -2.5656819069        1.4731256807
N          5.9789652067       -1.6701771199       -0.0684251499
C          7.0320741624       -1.4374356078       -0.9585794520
C          8.2271942508       -2.1541811547       -0.8147780356
O          8.4044120353       -3.1079161043        0.1611006708
C          7.3562816087       -3.3305053360        1.0242660261
C          6.1497297957       -2.6233701595        0.9413971356
C          7.5528985569       -4.2826032628        2.0075739774
C          6.5607269845       -4.5389514176        2.9419919437
C          5.3841924328       -3.8184293071        2.8961154116
C          5.1825196861       -2.8649127108        1.9102372717
C         -7.0728048221       -0.4983406901       -1.4263142831
C         -8.2045242820       -0.2837224328       -2.1977072651
C         -9.3789349668       -0.9531277397       -1.9178146775
C         -9.4113454312       -1.8642038487       -0.8726893985
C          6.9234172005       -0.5531510097       -2.0255554010
C          7.9877700164       -0.3455527154       -2.8892461334
C          9.1753714620       -1.0266252587       -2.7119867485
C          9.2876009557       -1.9422371055       -1.6763896420
C         -7.3921622710       -4.2083764543        2.6608275022
C         -6.3268250957       -4.4708452260        3.5090100866
C         -5.1520204360       -3.7613422643        3.3609362134
C         -5.0259490526       -2.8129737564        2.3576758304
H          2.1226151809        4.7509854393       -0.7077136166
H          2.1415031839        7.2068157322       -0.9296681202
H         -2.1339376682        7.2403563850       -0.7481420035
H         -2.1349121073        4.7738244267       -0.5259662217
H          1.2618250067        9.3121876445       -1.0814492637
H          1.4493781755       -1.4416803376       -0.5932703845
H          3.5756434943       -2.7030201902       -0.4689392397
H          5.7030768887        0.9621047826        0.0889923170
H          3.5730538704        2.2136207086       -0.0669304708
H         -1.5052129482       -1.4298152579       -0.4569699084
H         -3.6238718778       -2.6723975590       -0.1490367681
H         -5.6659848315        1.0128158834        0.5721528530
H         -3.5466051442        2.2453672552        0.2325206048
H          8.4944522870       -4.8077662273        2.0268716582
H          6.7206976460       -5.2864124286        3.7021253240
H          4.6114687517       -3.9877976449        3.6293778521
H          4.2659258913       -2.2975110501        1.9012498134
H         -6.1579647809        0.0174006648       -1.6700410167
H         -8.1553168508        0.4103133092       -3.0219323779
H        -10.2641168815       -0.7854285061       -2.5097714453
H        -10.3033684885       -2.4234901922       -0.6398522466
H          5.9959888456       -0.0284279591       -2.1893358068
H          7.8754860131        0.3521507896       -3.7041306070
H         10.0088357188       -0.8645714554       -3.3761913044
H         10.1908488129       -2.5105413151       -1.5217858356
H         -8.3333703452       -4.7247272326        2.7617782786
H         -6.4286111767       -5.2142908962        4.2829656682
H         -4.3215912640       -3.9353943388        4.0269269701
H         -4.1084447500       -2.2539798769        2.2689439860
