82
-137.23897711
C          0.0065270743        4.5637787548        0.4818073299
C          1.2116306439        5.2660291926        0.5211714313
C          1.2204012154        6.6364449701        0.6645556587
C          0.0164063637        7.3267529843        0.7704741713
C         -1.1919411380        6.6344745187        0.7321748085
C         -1.1957203222        5.2650454943        0.5893688821
S         -0.0352040320        9.0774916050        0.9548299908
C          0.0041592065        3.1132523366        0.3298742535
N         -1.1694373486        2.4820424832        0.3518681427
C         -1.1257258646        1.1607665219        0.1935623616
N          0.0001041668        0.4643006561        0.0485345203
C          1.1286141698        1.1722435836        0.0552836368
N          1.1760433441        2.4973909906        0.1781512917
C          2.3909768267        0.4514287291       -0.0769634076
C          2.4258058945       -0.9370422685        0.0544413616
C          3.6201702037       -1.6168365727       -0.0499355934
C          4.8030212844       -0.9212658003       -0.3008507194
C          4.7687545564        0.4660250628       -0.4437303369
C          3.5753814849        1.1450740276       -0.3263515203
C         -2.3909950338        0.4305970680        0.1730846864
C         -2.4198165793       -0.9148348656       -0.1940386299
C         -3.6155537009       -1.6000775188       -0.2323764637
C         -4.8028931516       -0.9530245550        0.1060861551
C         -4.7763893389        0.3887374105        0.4830019353
C         -3.5810548732        1.0749794559        0.5108262508
N         -6.0267873934       -1.6523435835        0.0637527738
C         -6.5182542241       -2.1495027514       -1.1459956340
C         -7.7402350890       -2.8345378589       -1.1629834079
O         -8.4928176901       -3.0313030441       -0.0271776359
C         -7.9980682109       -2.5262504973        1.1540258806
C         -6.7764861864       -1.8442275638        1.2267883412
N          6.0244154719       -1.6130992944       -0.4059684068
C          6.2020967354       -2.6051173927       -1.3759667939
C          7.4240402681       -3.2864831545       -1.4489449446
O          8.4804623318       -3.0015719959       -0.6146768692
C          8.2932459773       -2.0163071804        0.3272683728
C          7.0832001598       -1.3230929243        0.4611537547
C          9.3597460905       -1.7474802414        1.1653151842
C          9.2396913367       -0.7967564683        2.1677850486
C          8.0383404939       -0.1381486383        2.3368728342
C          6.9678466142       -0.4029867363        1.4968008362
C         -5.8619547703       -1.9465262246       -2.3540733742
C         -6.3819874470       -2.4461772346       -3.5382450048
C         -7.5711496009       -3.1469994654       -3.5386368956
C         -8.2544584892       -3.3324276777       -2.3456370795
C          5.2254392654       -2.9109241053       -2.3166788162
C          5.4343369195       -3.9013916533       -3.2638878784
C          6.6270252039       -4.5955911947       -3.2985900796
C          7.6277020478       -4.2757715613       -2.3932613930
C         -8.7580521245       -2.7367346218        2.2893830851
C         -8.3117910500       -2.2863337799        3.5233184014
C         -7.0945117805       -1.6414810950        3.6114237033
C         -6.3300488445       -1.4266639602        2.4748614299
H          2.1361270616        4.7171673852        0.4401715335
H          2.1584424614        7.1699004586        0.6947155791
H         -2.1193373469        7.1805836421        0.8147809087
H         -2.1239013019        4.7176673217        0.5561789531
H          1.2812049993        9.2676571778        0.9364555287
H          1.5070137013       -1.4637965343        0.2569946386
H          3.6502755507       -2.6888132869        0.0732248090
H          5.6826581271        1.0006235156       -0.6538682345
H          3.5370246611        2.2166565771       -0.4390822862
H         -1.4935734425       -1.4053039099       -0.4470772160
H         -3.6411083583       -2.6409403339       -0.5173498014
H         -5.6990823045        0.8859166238        0.7413664668
H         -3.5487627094        2.1161444053        0.7889795440
H         10.2741893511       -2.2998172059        1.0189279542
H         10.0778888171       -0.5901676338        2.8134123792
H          7.9198517321        0.5864932321        3.1270037493
H          6.0306086079        0.1055876338        1.6553435710
H         -4.9411377243       -1.3857882455       -2.3709692355
H         -5.8482759558       -2.2765844862       -4.4601666150
H         -7.9788707373       -3.5406459943       -4.4556685576
H         -9.1955162140       -3.8577600969       -2.3113738290
H          4.2960357593       -2.3646731893       -2.3160496816
H          4.6545592829       -4.1206833943       -3.9761281938
H          6.7928310793       -5.3715375982       -4.0283235893
H          8.5812202160       -4.7791257904       -2.4058783569
H         -9.6946139154       -3.2610990439        2.1862489359
H         -8.9122821554       -2.4531279365        4.4029409932
H         -6.7245337520       -1.3025338055        4.5662932411
H         -5.3731766334       -0.9369449984        2.5601582942
