82
-137.23930965
C         -0.0018883965        4.6022856484        0.0026274761
C          1.2019484742        5.3089899037        0.0084723294
C          1.2007751101        6.6858317056        0.0115504113
C         -0.0067319433        7.3805615289        0.0081415773
C         -1.2123499153        6.6851158358        0.0020248957
C         -1.2060028124        5.3071780412       -0.0003578631
S          0.0481244438        9.1409194260        0.0117226166
C         -0.0015734627        3.1435869995       -0.0005993522
N         -1.1771714261        2.5167191323        0.0265349812
C         -1.1307185616        1.1856338537        0.0209063854
N         -0.0011451346        0.4802367252       -0.0095635244
C          1.1282312917        1.1861921785       -0.0334585499
N          1.1741216503        2.5172549009       -0.0302425251
C          2.3926136181        0.4564860562       -0.0634936521
C          2.4046891828       -0.9360703646        0.0223540300
C          3.5978005773       -1.6255148565       -0.0029224451
C          4.8036580000       -0.9342359995       -0.1167417721
C          4.7949164512        0.4575856850       -0.2045133108
C          3.6007320356        1.1450488391       -0.1769402636
C         -2.3945852232        0.4550632205        0.0498710802
C         -2.4067485041       -0.9360811335       -0.0563192270
C         -3.5991609275       -1.6266537981       -0.0292159938
C         -4.8042289839       -0.9381464610        0.1078033767
C         -4.7954182903        0.4523507235        0.2148513880
C         -3.6020053158        1.1410220797        0.1846030348
N         -6.0231464863       -1.6432053153        0.1387447251
C         -7.0041546825       -1.4125668524       -0.8304590153
C         -8.2116505221       -2.1204370706       -0.7704268617
O         -8.4704826834       -3.0593398106        0.2018500190
C         -7.4910458080       -3.2806281025        1.1428794666
C         -6.2744835183       -2.5858962581        1.1403536549
N          6.0236386138       -1.6377893796       -0.1424082342
C          6.2894692715       -2.5646951817       -1.1548288742
C          7.5063785648       -3.2587981276       -1.1511464136
O          8.4723614166       -3.0518204371       -0.1930661090
C          8.1997348008       -2.1275818017        0.7894384913
C          6.9911778904       -1.4210180338        0.8433534497
C          9.1753019447       -1.9346285361        1.7499689384
C          8.9628008186       -1.0474933352        2.7947566044
C          7.7606369025       -0.3743022724        2.8791807141
C          6.7808694610       -0.5633058757        1.9167099565
C         -6.8088759595       -0.5390238010       -1.8938564383
C         -7.8018983729       -0.3362073764       -2.8397876501
C         -9.0026658587       -1.0110374847       -2.7487283117
C         -9.2004633861       -1.9136977331       -1.7144154593
C          5.4092131929       -2.7906318819       -2.2065269420
C          5.7057000596       -3.7147380521       -3.1965464205
C          6.8914709281       -4.4206177555       -3.1616438505
C          7.7973846705       -4.1813260295       -2.1389915770
C         -7.7679598903       -4.2185345919        2.1202577168
C         -6.8478807470       -4.4731576556        3.1264050392
C         -5.6621064162       -3.7670444731        3.1558552242
C         -5.3798073474       -2.8274726598        2.1763155425
H          2.1294611760        4.7595642846        0.0119496833
H          2.1295505752        7.2358047353        0.0166523036
H         -2.1498022000        7.2204666855       -0.0010026647
H         -2.1319480319        4.7549297894       -0.0061724530
H         -1.2684604383        9.3306525712        0.0073229903
H          1.4671492117       -1.4592182802        0.1199826982
H          3.6085851183       -2.7021144596        0.0749988330
H          5.7292010922        0.9891707365       -0.3034340501
H          3.5814708020        2.2203226321       -0.2527326588
H         -1.4699442374       -1.4571436720       -0.1707376358
H         -3.6099998661       -2.7019948544       -0.1229547671
H         -5.7289704240        0.9816091923        0.3313910034
H         -3.5824195753        2.2150386165        0.2757669842
H         10.0926955541       -2.4947479165        1.6641151997
H          9.7304992378       -0.9006963922        3.5371794000
H          7.5704807659        0.3023758990        3.6973780330
H          5.8399602976       -0.0446949033        2.0069306557
H         -5.8692884652       -0.0190267896       -1.9895164884
H         -7.6232409629        0.3524562454       -3.6505315960
H         -9.7806127380       -0.8536522747       -3.4782062343
H        -10.1164014113       -2.4755220706       -1.6242191011
H          4.4876412446       -2.2334468356       -2.2579066563
H          5.0001765690       -3.8725088916       -3.9970638015
H          7.1252866243       -5.1442973400       -3.9256633589
H          8.7430390467       -4.6972874656       -2.0916922414
H         -8.7139908601       -4.7342536804        2.0780830685
H         -7.0707176834       -5.2088227114        3.8822197051
H         -4.9454284251       -3.9367602704        3.9439290125
H         -4.4578666205       -2.2705890915        2.2238967625
