82
-137.23908610
C          0.0091756931        4.5704454008        0.5584376648
C          1.2152812457        5.2683315249        0.6307155460
C          1.2253112124        6.6363895622        0.7950510529
C          0.0215618753        7.3286229642        0.8905562288
C         -1.1878017594        6.6407122026        0.8197483925
C         -1.1928088551        5.2737785138        0.6547643477
S         -0.0284875836        9.0764153010        1.1015221551
C          0.0054938443        3.1223954928        0.3839145483
N         -1.1712298865        2.5076367988        0.2673120956
C         -1.1279873795        1.1846645016        0.1228845115
N         -0.0006618530        0.4776066398        0.0692471492
C          1.1302832826        1.1729564516        0.1788862626
N          1.1794594997        2.4928440124        0.3490351516
C          2.3924842673        0.4433974168        0.1053598767
C          3.5925954073        1.0759849926        0.4304983395
C          4.7848317474        0.3886805933        0.3562531434
C          4.8010312945       -0.9439881774       -0.0555306132
C          3.6025351124       -1.5782706410       -0.3827189761
C          2.4103830918       -0.8921195853       -0.2979151904
C         -2.3940622370        0.4633090181        0.0193034803
C         -3.5962270415        1.1620005288       -0.0917092602
C         -4.7911777683        0.4809999190       -0.1858506371
C         -4.8049251124       -0.9127774642       -0.1618933046
C         -3.6055147143       -1.6142332410       -0.0491209347
C         -2.4109877547       -0.9315188779        0.0364373522
N         -6.0270283783       -1.6104039252       -0.2496478425
C         -6.4606717509       -2.4182890279        0.8047566478
C         -7.6757616284       -3.1061914458        0.6903313561
O         -8.4772319296       -3.0096668288       -0.4246842092
C         -8.0368986935       -2.2057838062       -1.4517146097
C         -6.8241959953       -1.5067901475       -1.3924329920
N          6.0196072228       -1.6436463389       -0.1423140022
C          6.2310656293       -2.8029701773        0.6109726307
C          7.4449651095       -3.4917278079        0.4898203938
O          8.4615575325       -3.0592065191       -0.3303994128
C          8.2424801925       -1.9105168233       -1.0555477676
C          7.0381307828       -1.1976690193       -0.9909776761
C          9.2694596464       -1.4918923942       -1.8813636567
C          9.1140476260       -0.3655202276       -2.6753901528
C          7.9166030878        0.3208493019       -2.6512769561
C          6.8856457504       -0.0942865949       -1.8226165469
C         -5.7532555648       -2.5282187839        1.9959633508
C         -6.2162119283       -3.3324991439        3.0260575114
C         -7.3985222962       -4.0316681029        2.8895399910
C         -8.1329236655       -3.9085104560        1.7191052320
C          5.2980858124       -3.2769785501        1.5259267808
C          5.5398100123       -4.4299336796        2.2567654899
C          6.7227576617       -5.1234954115        2.0978855335
C          7.6813521905       -4.6428717408        1.2184097456
C         -8.8434358535       -2.1272727678       -2.5716967639
C         -8.4537449702       -1.3636336255       -3.6623116594
C         -7.2456518629       -0.6967976582       -3.6275372812
C         -6.4345730615       -0.7715442339       -2.5055587605
H          2.1395462478        4.7186344158        0.5529692491
H          2.1641389528        7.1666006552        0.8488008423
H         -2.1150089498        7.1881242909        0.8955528592
H         -2.1217553486        4.7294431768        0.6002288451
H          1.2885752183        9.2626348799        1.1113776736
H          3.5679116110        2.1045418452        0.7528132826
H          5.7117840506        0.8729174902        0.6235359359
H          3.6185071052       -2.6059103544       -0.7127728375
H          1.4792002347       -1.3698010093       -0.5572490921
H         -3.5732743265        2.2398844171       -0.0985646816
H         -5.7229774308        1.0197105404       -0.2684983289
H         -3.6210933125       -2.6935348646       -0.0372850523
H         -1.4759894291       -1.4622966068        0.1167095973
H         10.1812180211       -2.0674841480       -1.8919213118
H          9.9216698384       -0.0438959849       -3.3128833619
H          7.7702178396        1.1848763774       -3.2801572200
H          5.9499191137        0.4410299495       -1.8307895300
H         -4.8372057623       -1.9738935810        2.1231711676
H         -5.6434410689       -3.4018223359        3.9374638530
H         -7.7617435638       -4.6614721430        3.6855024828
H         -9.0705130282       -4.4240948907        1.5855690470
H          4.3775586386       -2.7362803600        1.6760359269
H          4.7935373503       -4.7766457208        2.9541228863
H          6.9137570375       -6.0242712143        2.6584408232
H          8.6267433208       -5.1442964717        1.0860094101
H         -9.7709536123       -2.6772311997       -2.5717258292
H         -9.0902767336       -1.3065175182       -4.5304705980
H         -6.9191005006       -0.1148185549       -4.4750063941
H         -5.4853955151       -0.2600257858       -2.4988678327
