82
-137.23881666
C         -0.0067047186        4.6143041308       -0.6104108536
C         -1.2096359565        5.3211818987       -0.6237519310
C         -1.2154339060        6.6936210169       -0.7468252021
C         -0.0105607292        7.3813209979       -0.8590770041
C          1.1956325363        6.6843800438       -0.8480105114
C          1.1964020239        5.3130221995       -0.7248989528
S          0.0448833573        9.1344138460       -1.0189014537
C         -0.0072227028        3.1612978036       -0.4823959666
N         -1.1826353270        2.5425341904       -0.3724011066
C         -1.1381374045        1.2137742442       -0.2957979547
N         -0.0121851004        0.5030259104       -0.3290512987
C          1.1185437675        1.2039881813       -0.3935424142
N          1.1677663056        2.5323325924       -0.4739353018
C          2.3781322784        0.4672816636       -0.3499077195
C          2.3833102712       -0.9225684844       -0.4712075043
C          3.5666811194       -1.6241191042       -0.3939727879
C          4.7688892834       -0.9496811070       -0.1797649212
C          4.7676043112        0.4406462131       -0.0671521224
C          3.5841191324        1.1414093096       -0.1576054320
C         -2.3955537129        0.4880358100       -0.1429081342
C         -2.4233692522       -0.9016658843       -0.2627729606
C         -3.6017299787       -1.5928707990       -0.0831429132
C         -4.7749468980       -0.9080485062        0.2340684929
C         -4.7517337622        0.4821591212        0.3457255449
C         -3.5744335098        1.1725534315        0.1529580317
N         -5.9703497569       -1.6190479822        0.4510714317
C         -7.1036514893       -1.3699442098       -0.3294349659
C         -8.2850797521       -2.0786153066       -0.0750078630
O         -8.3738577648       -3.0402223971        0.9051739709
C         -7.2480721805       -3.2790282493        1.6593031054
C         -6.0495446726       -2.5802025741        1.4647655487
N          5.9721919892       -1.6713773933       -0.0666832069
C          7.0361321822       -1.4318235026       -0.9420448306
C          8.2288860404       -2.1508493813       -0.7901382938
O          8.3935550708       -3.1133237554        0.1792864605
C          7.3351807286       -3.3421387351        1.0281842793
C          6.1304226962       -2.6329488159        0.9373431045
C          7.5193753836       -4.3029078485        2.0054691783
C          6.5162014655       -4.5661250318        2.9261063125
C          5.3411648219       -3.8436654700        2.8729493940
C          5.1519609620       -2.8814793327        1.8930450911
C         -7.0925793302       -0.4767606250       -1.3944809377
C         -8.2348068616       -0.2526627178       -2.1474656701
C         -9.4052372923       -0.9258089501       -1.8599613568
C         -9.4231575274       -1.8501989550       -0.8262465582
C          6.9409619497       -0.5383976781       -2.0026714862
C          8.0158324711       -0.3241725722       -2.8515914816
C          9.2007689343       -1.0076235265       -2.6658296552
C          9.2998005395       -1.9322934852       -1.6369713525
C         -7.3554336347       -4.2390498325        2.6487025480
C         -6.2787714822       -4.5117427006        3.4791601257
C         -5.1065174363       -3.7993695524        3.3247927049
C         -4.9943610809       -2.8380018156        2.3323209984
H         -2.1349577933        4.7744454216       -0.5379887583
H         -2.1518977826        7.2306224621       -0.7563689326
H          2.1237149373        7.2283234324       -0.9370105434
H          2.1227417614        4.7615678630       -0.7170790918
H         -1.2704847781        9.3288553573       -0.9813282052
H          1.4483285205       -1.4343644304       -0.6326697166
H          3.5725714539       -2.6982797336       -0.5004423654
H          5.6973670834        0.9606324377        0.1071303606
H          3.5701983424        2.2150601194       -0.0588453954
H         -1.5104023701       -1.4215845378       -0.5043751555
H         -3.6261128951       -2.6669051310       -0.1883006389
H         -5.6583905823        1.0099914190        0.5997778039
H         -3.5423969757        2.2459084930        0.2499970198
H          8.4600932854       -4.8292841739        2.0310966449
H          6.6665092628       -5.3203388267        3.6815186153
H          4.5598639608       -4.0182472347        3.5958164285
H          4.2362631111       -2.3127631603        1.8785665819
H         -6.1811185938        0.0419782531       -1.6443434415
H         -8.1970117129        0.4516527174       -2.9635186832
H        -10.2985284309       -0.7508501391       -2.4374649318
H        -10.3117837950       -2.4127718590       -0.5883710559
H          6.0159894837       -0.0114524943       -2.1731493293
H          7.9138657661        0.3807271057       -3.6616347994
H         10.0423366648       -0.8403286518       -3.3184066552
H         10.2007201506       -2.5026143231       -1.4763569531
H         -8.2949127988       -4.7573861098        2.7554542206
H         -6.3697667332       -5.2653358491        4.2446048638
H         -4.2672055780       -3.9813522165        3.9774022320
H         -4.0784010489       -2.2772546911        2.2388687109
