82
-137.23867778
C         -0.0416489534        4.5161492257       -1.1329175654
C          1.1563470233        5.2044150841       -1.3282793773
C          1.1528362108        6.5550576204       -1.6011526394
C         -0.0564846021        7.2393490509       -1.6827713825
C         -1.2578807213        6.5607238869       -1.4905327168
C         -1.2493994341        5.2110871958       -1.2183430311
S         -0.1237920115        8.9650135295       -2.0280202976
C         -0.0314222488        3.0861658880       -0.8463793693
N         -1.2019666575        2.4728684043       -0.6726920772
C         -1.1476753071        1.1603300847       -0.4560211717
N         -0.0165044492        0.4591192729       -0.4114134641
C          1.1092344819        1.1596538551       -0.5407743680
N          1.1484651197        2.4719268877       -0.7629061636
C          2.3743180924        0.4441041409       -0.4057465574
C          2.3957149390       -0.9508060059       -0.3977348082
C          3.5839117809       -1.6280555377       -0.2299951683
C          4.7741565766       -0.9225174394       -0.0518584277
C          4.7568649126        0.4721799367       -0.0698113997
C          3.5691179415        1.1473916924       -0.2515390301
C         -2.4017740809        0.4463757686       -0.2280720102
C         -3.5936433827        1.1520034391       -0.0640019310
C         -4.7684872843        0.4809107828        0.2010014175
C         -4.7728503905       -0.9097762397        0.2957012711
C         -3.5875183560       -1.6195887266        0.1114980572
C         -2.4118857306       -0.9459246714       -0.1420437053
N         -5.9705507292       -1.5937468239        0.5900214208
C         -6.6059500428       -1.4071987775        1.8204485257
C         -7.7858057087       -2.1093408307        2.0991291872
O         -8.3471688427       -2.9942743853        1.2064442152
C         -7.6962176928       -3.1811755731        0.0078093655
C         -6.5201390665       -2.4958530512       -0.3236587787
N          5.9810176765       -1.6161039492        0.1571499445
C          7.0659651293       -1.4432526542       -0.7081654512
C          8.2625158947       -2.1278329058       -0.4585850482
O          8.4114552239       -2.9946457671        0.5995872116
C          7.3331491622       -3.1583811708        1.4383060776
C          6.1231805159       -2.4776463854        1.2505165172
C          7.5019700429       -4.0213379259        2.5055133925
C          6.4774887164       -4.2117062601        3.4205927072
C          5.2961738923       -3.5136228272        3.2700336892
C          5.1224069726       -2.6495975506        2.1999670201
C         -6.0829265660       -0.5825609611        2.8093092813
C         -6.7345587285       -0.4267579877        4.0231462912
C         -7.9129506949       -1.0998625747        4.2751646981
C         -8.4329775154       -1.9502547691        3.3102854323
C          6.9896279466       -0.6532167982       -1.8493309612
C          8.0851897517       -0.5024743493       -2.6853308662
C          9.2727649786       -1.1481751089       -2.4052231457
C          9.3540903932       -1.9725229990       -1.2929403778
C         -8.2668227538       -4.0742485277       -0.8796608619
C         -7.6877889808       -4.2929143530       -2.1212861711
C         -6.5465225968       -3.5993965858       -2.4705257729
C         -5.9697038062       -2.7043489053       -1.5825228784
H          2.0850037368        4.6603729006       -1.2640546087
H          2.0854245252        7.0777688935       -1.7510357711
H         -2.1895746589        7.1016476278       -1.5574471317
H         -2.1721670549        4.6739757467       -1.0692922850
H          1.1900706525        9.1484022787       -2.1258456847
H          1.4698759217       -1.4865433474       -0.5320126565
H          3.6027548427       -2.7073093939       -0.2365514052
H          5.6772041924        1.0169326165        0.0764040024
H          3.5422543970        2.2252839257       -0.2530753475
H         -3.5774755449        2.2271936458       -0.1424554013
H         -5.6913494496        1.0245764818        0.3351523177
H         -3.5964444544       -2.6964922483        0.1855419247
H         -1.4846284151       -1.4816416581       -0.2657670303
H          8.4476468116       -4.5298569570        2.6044524873
H          6.6159760293       -4.8902094908        4.2467541524
H          4.4977605935       -3.6309187416        3.9857572807
H          4.2009609092       -2.0974770531        2.1092497722
H         -5.1540751925       -0.0641558868        2.6329008607
H         -6.3067938970        0.2233065917        4.7701537427
H         -8.4256768303       -0.9805013671        5.2159081683
H         -9.3408327890       -2.5066596709        3.4803712674
H          6.0633258258       -0.1582846812       -2.0927762033
H          7.9974354417        0.1228548632       -3.5597906964
H         10.1302893059       -1.0293995184       -3.0475863876
H         10.2569738304       -2.5123674994       -1.0560970922
H         -9.1687136965       -4.5843135143       -0.5810352566
H         -8.1389442570       -4.9926535407       -2.8061055351
H         -6.0953894664       -3.7441729306       -3.4395697392
H         -5.0880592763       -2.1560585522       -1.8737815197
