82
-137.23870358
C         -0.0069988595        4.6449098527        0.4689867092
C         -1.2124665830        5.3420900664        0.5568282574
C         -1.2213482843        6.7050436087        0.7594626849
C         -0.0170873543        7.3928690338        0.8774194895
C          1.1916756508        6.7058581786        0.7898314475
C          1.1955539164        5.3439827504        0.5872093831
S          0.0344635665        9.1340887230        1.1371262248
C         -0.0040255211        3.2025860377        0.2516189567
N         -1.1792651557        2.5819201266        0.1498418667
C         -1.1292148919        1.2729606205       -0.0897861640
N          0.0019672651        0.5845690066       -0.2328554647
C          1.1293390719        1.2735082685       -0.0645163277
N          1.1733567498        2.5824723714        0.1761347406
C          2.3887988940        0.5376653131       -0.1230934152
C          3.5748095537        1.1314438046        0.3087275390
C          4.7535970535        0.4169432691        0.3048645396
C          4.7709375313       -0.9035540648       -0.1442391333
C          3.5905042220       -1.4914123312       -0.5993819921
C          2.4108494763       -0.7797848924       -0.5816217379
C         -2.3866620819        0.5364582312       -0.1764593562
C         -2.3980617790       -0.7803408392       -0.6372326289
C         -3.5765964056       -1.4927250280       -0.6810518239
C         -4.7668338590       -0.9063850504       -0.2501132086
C         -4.7599630513        0.4135148808        0.2010093614
C         -3.5820339215        1.1288084064        0.2308224729
N         -5.9624278192       -1.6492761377       -0.2593254356
C         -7.0700996698       -1.2161683420       -0.9949233109
C         -8.2520300537       -1.9678699522       -0.9679086484
O         -8.3648362399       -3.1431109823       -0.2612213735
C         -7.2640472094       -3.5595187266        0.4514592857
C         -6.0672359901       -2.8319196328        0.4811544855
N          5.9669826988       -1.6455653512       -0.1274292354
C          6.0574706675       -2.8265962121        0.6175159112
C          7.2555363439       -3.5527147369        0.6146882867
O          8.3707154474       -3.1363079374       -0.0752775799
C          8.2715994507       -1.9625109916       -0.7863543778
C          7.0896219527       -1.2122992456       -0.8398660306
C          9.3994131043       -1.5565108120       -1.4755171229
C          9.3702087572       -0.4057334982       -2.2489565841
C          8.1985385825        0.3180927979       -2.3436244034
C          7.0666151624       -0.0841641918       -1.6516415451
C         -7.0312004702       -0.0865667420       -1.8040617253
C         -8.1486296067        0.3155640193       -2.5192824509
C         -9.3211872159       -0.4097739052       -2.4508011308
C         -9.3654357310       -1.5619525458       -1.6801669637
C          5.0147843260       -3.2892048099        1.4121082932
C          5.1376700780       -4.4655656156        2.1352001317
C          6.3086469485       -5.1951297439        2.0901400838
C          7.3736081566       -4.7270499893        1.3351970150
C         -7.3959164688       -4.7353814297        1.1670624848
C         -6.3466870326       -5.2035622380        1.9436610573
C         -5.1778898117       -4.4726058619        2.0150667583
C         -5.0411495063       -3.2947189912        1.2969705178
H         -2.1371529498        4.7958737912        0.4613607555
H         -2.1597122223        7.2347007766        0.8254903966
H          2.1193175098        7.2501065642        0.8815116034
H          2.1239934288        4.8007291931        0.5153957563
H         -1.2823626704        9.3218730143        1.1482593455
H          3.5476030197        2.1482246971        0.6667058200
H          5.6658941393        0.8681507236        0.6644896024
H          3.6102842280       -2.5065960442       -0.9657141650
H          1.4921688640       -1.2263798959       -0.9262504950
H         -1.4719802450       -1.2258590061       -0.9629345028
H         -3.5877974045       -2.5073979894       -1.0491673883
H         -5.6800379969        0.8633861641        0.5419503307
H         -3.5629858564        2.1449866828        0.5908393868
H         10.2890078534       -2.1608616969       -1.3974085939
H         10.2556082530       -0.0941417149       -2.7791045422
H          8.1516707924        1.2019751219       -2.9600647122
H          6.1538370103        0.4807118268       -1.7518818589
H         -6.1170941038        0.4793656983       -1.8840235974
H         -8.0897422428        1.2004662842       -3.1332110789
H        -10.1955042115       -0.0983834428       -2.9991562586
H        -10.2557228938       -2.1675501638       -1.6221123906
H          4.1002613079       -2.7218797428        1.4747812324
H          4.3077258787       -4.8019069678        2.7364598794
H          6.4077977914       -6.1142552547        2.6446260374
H          8.3121640980       -5.2564169962        1.2957279223
H         -8.3327024417       -5.2659075949        1.1065923998
H         -6.4564201979       -6.1238885536        2.4941558552
H         -4.3605159361       -4.8090772947        2.6332468455
H         -4.1288503915       -2.7264518089        1.3801934618
