82
-137.23903328
C          0.0041769316        4.6267495135       -0.1152701608
C          1.2087226149        5.3298825228       -0.1542091323
C          1.2158345162        6.7060739519       -0.2233704551
C          0.0105773972        7.4015686176       -0.2537454535
C         -1.1973402563        6.7086193881       -0.2142677376
C         -1.1993554733        5.3334781817       -0.1458866879
S         -0.0433209472        9.1597755176       -0.3409315357
C          0.0025944369        3.1701231754       -0.0395181371
N         -1.1740005166        2.5445678875       -0.0293687689
C         -1.1295048717        1.2173947410        0.0702571197
N         -0.0015477230        0.5149414190        0.1639617371
C          1.1292869251        1.2165076359        0.1109708661
N          1.1778426935        2.5434686990        0.0095710983
C          2.3915083821        0.4826104059        0.1524253347
C          3.6032899781        1.1544972531       -0.0092053326
C          4.7926624666        0.4576799323        0.0014459049
C          4.7915742319       -0.9248418709        0.1813374844
C          3.5832538315       -1.5981183954        0.3550809124
C          2.3946956929       -0.9003320867        0.3366544414
C         -2.3916600913        0.4839465347        0.0623796957
C         -2.4141992060       -0.8810523164        0.3500070244
C         -3.6014849556       -1.5798335525        0.3196956043
C         -4.7900580061       -0.9283138417       -0.0099015384
C         -4.7712354203        0.4374800334       -0.2925127437
C         -3.5840750995        1.1364063094       -0.2517053542
N         -5.9987369811       -1.6481089903       -0.0642982511
C         -7.0780908629       -1.2956316995        0.7519917531
C         -8.2757269765       -2.0167132210        0.6603154549
O         -8.4315032440       -3.0858491153       -0.1917748336
C         -7.3581220465       -3.4240847132       -0.9834307052
C         -6.1467539216       -2.7211574012       -0.9495400761
N          6.0070354328       -1.6388311618        0.1801112522
C          6.4193194277       -2.3459112933        1.3124813744
C          7.6229102701       -3.0620270732        1.2768246730
O          8.4336332486       -3.0894473282        0.1647010091
C          8.0107919520       -2.3899618094       -0.9428314935
C          6.8095890161       -1.6692705733       -0.9636455839
C          8.8230394197       -2.4419484432       -2.0603208082
C          8.4504650544       -1.7906439095       -3.2270664654
C          7.2529729460       -1.1053941244       -3.2692654594
C          6.4363220656       -1.0494279180       -2.1502741589
C         -6.9947356979       -0.2825596541        1.7001052328
C         -8.0843668389        0.0409474609        2.4938033665
C         -9.2727923409       -0.6495373272        2.3651858336
C         -9.3612363521       -1.6892782895        1.4516460005
C          5.7024466835       -2.3247518088        2.5029182348
C          6.1443304665       -3.0307174128        3.6113372419
C          7.3147257838       -3.7603571613        3.5543012465
C          8.0588776541       -3.7663649947        2.3835840006
C         -7.5330689598       -4.4919493238       -1.8442612370
C         -6.5133020051       -4.8724219321       -2.7037096454
C         -5.3302452331       -4.1611771395       -2.7085583432
C         -5.1502656364       -3.0915762330       -1.8451843243
H          2.1343678577        4.7777025711       -0.1287033718
H          2.1535849100        7.2400688816       -0.2532847329
H         -2.1257689012        7.2587256099       -0.2372477440
H         -2.1271412419        4.7854323813       -0.1126882685
H          1.2733549269        9.3484423289       -0.3547369645
H          3.5914433873        2.2243051963       -0.1416902675
H          5.7315151640        0.9754803951       -0.1237233008
H          3.5868482674       -2.6691279007        0.4900540538
H          1.4528525925       -1.4115740500        0.4534999230
H         -1.4901162708       -1.3746736045        0.6041970993
H         -3.6213275666       -2.6331912256        0.5547288324
H         -5.6903908979        0.9381058015       -0.5566153514
H         -3.5562642540        2.1898158066       -0.4800291597
H          9.7413112708       -3.0036920833       -1.9974773295
H          9.0914137335       -1.8346174481       -4.0927346962
H          6.9389475505       -0.6107396458       -4.1749412277
H          5.4952822228       -0.5258301917       -2.2035069371
H         -6.0676671469        0.2530976075        1.8263668748
H         -7.9911474150        0.8366604734        3.2160286806
H        -10.1255759646       -0.3983296044        2.9748933617
H        -10.2651858414       -2.2665299303        1.3404247360
H          4.7957803092       -1.7446953751        2.5668955313
H          5.5647488096       -2.9994887636        4.5205304985
H          7.6613918643       -4.3144918688        4.4115660789
H          8.9879183987       -4.3086982013        2.3094053205
H         -8.4796313542       -5.0081748240       -1.8294800616
H         -6.6568007634       -5.7090261240       -3.3682301241
H         -4.5355020014       -4.4284551145       -3.3870993366
H         -4.2277568912       -2.5345901368       -1.8759325841
