82
-137.23923144
C          0.0002690852        4.6166523861        0.1854700768
C         -1.2047368180        5.3192525630        0.2206550021
C         -1.2127545558        6.6954898844        0.2886680398
C         -0.0079435038        7.3915411071        0.3231192719
C          1.2003958506        6.6991073616        0.2887650188
C          1.2032599849        5.3239515859        0.2201888243
S          0.0447300468        9.1498561543        0.4094735907
C          0.0016309193        3.1599030985        0.1100405510
N         -1.1739423047        2.5321240431        0.1087761552
C         -1.1273106852        1.2041640118        0.0192020406
N          0.0017789698        0.5028610998       -0.0666446334
C          1.1315428414        1.2078720176       -0.0373373283
N          1.1776146190        2.5361352422        0.0487048960
C          2.3947185116        0.4776056992       -0.0961318239
C          3.6090615301        1.1640368420       -0.0761884290
C          4.8009706592        0.4728334546       -0.1177124756
C          4.8002081804       -0.9201338620       -0.1816428815
C          3.5880820347       -1.6090861509       -0.2073934785
C          2.3977356264       -0.9160954545       -0.1637935987
C         -2.3893126692        0.4701488252        0.0206076897
C         -2.4060381235       -0.9009215990       -0.2371882794
C         -3.5952537865       -1.5972563163       -0.2282459409
C         -4.7921120096       -0.9360411586        0.0468594053
C         -4.7785315284        0.4347324888        0.3043014984
C         -3.5889370310        1.1304193473        0.2874684579
N         -6.0062659455       -1.6488743791        0.0672177342
C         -6.1979404902       -2.7026116382        0.9666190900
C         -7.4143634262       -3.3976462242        0.9641114441
O         -8.4507029874       -3.0710239628        0.1198396998
C         -8.2503560510       -2.0240976663       -0.7504217260
C         -7.0457935657       -1.3108741753       -0.8048908013
N          6.0172353448       -1.6290298381       -0.2171330313
C          6.9189908711       -1.5488434821        0.8481337874
C          8.1149397672       -2.2766192494        0.7937961293
O          8.4373051865       -3.0909211512       -0.2679287938
C          7.5347894515       -3.1646385073       -1.3043109771
C          6.3332203454       -2.4444243796       -1.3076139506
C          7.8746797084       -3.9774224902       -2.3698170081
C          7.0345696692       -4.0777528749       -3.4689667241
C          5.8658026676       -3.3438268298       -3.4992687131
C          5.5202451948       -2.5295750739       -2.4317425068
C         -5.2417893833       -3.0600416639        1.9101141128
C         -5.4653436648       -4.1093490188        2.7881269306
C         -6.6525631460       -4.8125878215        2.7495960678
C         -7.6327651531       -4.4450782484        1.8398812649
C          6.6526941192       -0.8100070871        1.9948831050
C          7.5674275109       -0.7566434287        3.0353323266
C          8.7586024082       -1.4495371625        2.9552712447
C          9.0253660870       -2.2193091587        1.8326844963
C         -9.2968224619       -1.7112357090       -1.5982090765
C         -9.1612486945       -0.6941169688       -2.5312753530
C         -7.9647891615       -0.0114883517       -2.6214174364
C         -6.9141754123       -0.3205508013       -1.7713704467
H         -2.1299748692        4.7665219059        0.1913143855
H         -2.1508596850        7.2290840188        0.3144743725
H          2.1284892434        7.2495889371        0.3159852308
H          2.1314916110        4.7764339088        0.1928627912
H         -1.2721018217        9.3377688657        0.4172272383
H          3.5972180105        2.2412522563       -0.0338672782
H          5.7410345129        1.0033498813       -0.1092035426
H          3.5915704024       -2.6877165535       -0.2502126399
H          1.4546531971       -1.4382706357       -0.1698124087
H         -1.4757991607       -1.4008558240       -0.4539041600
H         -3.6101262581       -2.6553968681       -0.4411643429
H         -5.7048192455        0.9421061171        0.5273716503
H         -3.5655080483        2.1881729389        0.4946882999
H          8.8056850147       -4.5192222954       -2.3209177504
H          7.3061323444       -4.7165508637       -4.2937675412
H          5.2122568657       -3.3937790128       -4.3559296780
H          4.6133735521       -1.9481615454       -2.4771964406
H         -4.3171866033       -2.5085072200        1.9665013420
H         -4.7014717790       -4.3671186760        3.5047173882
H         -6.8299604909       -5.6330984136        3.4259039903
H         -8.5814223305       -4.9558508437        1.7965857156
H          5.7184430556       -0.2787297636        2.0805365303
H          7.3349343433       -0.1703433930        3.9103950409
H          9.4756764360       -1.4084765529        3.7591515652
H          9.9352820162       -2.7912184044        1.7449352353
H        -10.2079996249       -2.2817788898       -1.5147862705
H         -9.9838900247       -0.4542940601       -3.1853885381
H         -7.8346465833        0.7665204393       -3.3570934856
H         -5.9796308210        0.2083613316       -1.8673698894
