62
-97.61482281
C          3.9551553392        0.0003306280       -0.0023822443
C          4.6577444664        1.1981857588       -0.1177850860
C          6.0369956260        1.1987211931       -0.1135537151
C          6.7415395269       -0.0001968118        0.0004701265
C          6.0363363461       -1.1988662811        0.1128206682
C          4.6570924124       -1.1977881203        0.1141473668
C          8.1567201150       -0.0002495997        0.0029990450
C          9.3575831338        0.0017305346        0.0049796344
N          2.5538679711        0.0005610574       -0.0030196940
C          1.7615679776       -0.9918826171       -0.5012607679
C          0.4481142393       -0.6332302503       -0.3308496401
C          0.4481937654        0.6335357017        0.3268868354
C          1.7616710268        0.9926843352        0.4960245894
N         -0.6890717091       -1.3575145944       -0.6909408748
C         -1.8023430358       -0.8243158008       -1.3061127715
C         -2.8581779826       -1.7631268889       -1.2632903267
C         -2.3440324159       -2.9218777724       -0.5890302562
C         -1.0046958683       -2.6250594457       -0.2466623243
N         -0.6888472654        1.3572915423        0.6884775107
C         -1.0053676380        2.6249530129        0.2452208618
C         -2.3440338536        2.9216211051        0.5903211678
C         -2.8567891718        1.7626743820        1.2652921010
C         -1.8008403078        0.8238762180        1.3057393381
C         -4.0910713206       -1.4423825443       -1.8151241420
C         -4.2507024061       -0.2037466991       -2.4037952490
C         -3.1931017663        0.7007295831       -2.4710700120
C         -1.9555248598        0.4014854126       -1.9370405842
C         -0.2219629638       -3.5325125541        0.4514418748
C         -0.7881470985       -4.7467968894        0.7887980594
C         -2.1025332686       -5.0553500661        0.4437636271
C         -2.8897562088       -4.1503625426       -0.2405808842
C         -2.8904740463        4.1502010090        0.2433276784
C         -2.1046107131        5.0554269854       -0.4422555734
C         -0.7908830210        4.7470324534       -0.7899476870
C         -0.2240118094        3.5326538955       -0.4541086628
C         -1.9527225304       -0.4020702074        1.9367020282
C         -3.1891764102       -0.7014346614        2.4732611875
C         -4.2469039941        0.2030661523        2.4084405402
C         -4.0885046678        1.4418237663        1.8196864904
H          4.1223826224        2.1281160551       -0.2270777493
H          6.5796237859        2.1272011693       -0.2054902997
H          6.5783814256       -2.1275735126        0.2059497855
H          4.1211422729       -2.1275047874        0.2222334374
H         10.4066124523        0.0022986524        0.0069542910
H          2.1680687708       -1.8581120386       -0.9813422817
H          2.1682686574        1.8591111206        0.9756654243
H         -4.9064062277       -2.1494897172       -1.7811742661
H         -5.2050895929        0.0685423944       -2.8295515479
H         -3.3422505807        1.6559288102       -2.9526208362
H         -1.1377370279        1.1017455767       -2.0129945433
H          0.7924295954       -3.2926628462        0.7315298592
H         -0.2014630010       -5.4720978499        1.3329983035
H         -2.5091927672       -6.0160788217        0.7228637156
H         -3.9112337469       -4.3871132860       -0.4982098793
H         -3.9114465966        4.3868420599        0.5030425967
H         -2.5118262457        6.0162430838       -0.7202279847
H         -0.2052700105        5.4725560748       -1.3350045973
H          0.7898427307        3.2929153373       -0.7362308678
H         -1.1347837625       -1.1023472235        2.0108590968
H         -3.3373033976       -1.6567519612        2.9548938863
H         -5.2003716217       -0.0692693656        2.8362244269
H         -4.9038848480        2.1489723105        1.7876831602
