62
-104.73795695
C          2.3957861768       -0.0075424061       -0.4230361868
C          3.0615471231        1.1857546316       -0.6990877314
C          4.4178246335        1.1866071554       -0.9450923205
C          5.1427800730       -0.0084596052       -0.9058150876
C          4.4742667640       -1.1996833199       -0.6077443540
C          3.1161650899       -1.2007789668       -0.3788105613
C          6.5828843829       -0.0413988643       -1.1188768223
S          7.5642007534       -1.0667530203       -0.2903202589
S          7.3035281188        1.0480813419       -2.2771169865
C          0.9524534315       -0.0056275393       -0.1696610440
N          0.3672779508        1.1653028379        0.0481711935
C         -0.9498768357        1.1211636314        0.2612373603
N         -1.6645590679       -0.0011636935        0.2946919324
C         -0.9857887224       -1.1257986815        0.0797022322
N          0.3239546064       -1.1741799209       -0.1738374351
N         -1.6705303375       -2.3021560864        0.1200091892
C         -2.9261538120       -2.5069351224        0.7044310852
C         -3.3086458607       -3.8502826787        0.5135225155
C         -2.2448066675       -4.4910021089       -0.2166029460
C         -1.2491157200       -3.5171038417       -0.4333294158
N         -1.6027656139        2.3002267032        0.4555145420
C         -1.0128105991        3.5132452918        0.8301991547
C         -2.0182245979        4.4923271785        0.9618156983
C         -3.2698910013        3.8564944742        0.6386020751
C         -2.9813853608        2.5108383748        0.3330680237
C         -4.5140708071       -4.3170336101        1.0165051183
C         -5.3217247376       -3.4397041553        1.7156080684
C         -4.9250549912       -2.1239799947        1.9252900386
C         -3.7249045366       -1.6403683963        1.4308071886
C         -0.1001432823       -3.8246846680       -1.1416361978
C          0.0479730246       -5.1207906264       -1.6071989709
C         -0.9227225124       -6.0904192489       -1.3828075472
C         -2.0794545343       -5.7838963042       -0.6910824458
C         -1.6952945525        5.7846984822        1.3486245226
C         -0.3709773319        6.0853521804        1.6060748372
C          0.6134229743        5.1103906857        1.4910571856
C          0.3096937853        3.8147637890        1.1067495743
C         -3.9834592945        1.6475460375       -0.0756782119
C         -5.2780047251        2.1369419448       -0.1339915131
C         -5.5736322616        3.4550857782        0.1940243118
C         -4.5723669848        4.3290240741        0.5741049377
H          2.4991079770        2.1053358595       -0.7234460515
H          4.9237854818        2.1237595362       -1.1227185073
H          5.0374585689       -2.1196933895       -0.5714718865
H          2.5984165073       -2.1189385118       -0.1520435162
H          6.1742447653        1.5242799242       -2.8074598446
H         -4.8063680801       -5.3446298113        0.8671663073
H         -6.2657739695       -3.7796499086        2.1129864533
H         -5.5623979947       -1.4596570075        2.4885386714
H         -3.4257129109       -0.6222316441        1.6111073621
H          0.6540491926       -3.0789525055       -1.3256107995
H          0.9392630004       -5.3801931019       -2.1579677138
H         -0.7709826089       -7.0906881715       -1.7585993769
H         -2.8418160670       -6.5284801106       -0.5234715962
H         -2.4657191784        6.5331911403        1.4480753885
H         -0.0959654875        7.0850278764        1.9057023096
H          1.6396389398        5.3650347804        1.7077980523
H          1.0771352570        3.0639856800        1.0285034364
H         -3.7681129989        0.6274557253       -0.3434654186
H         -6.0720101373        1.4752373642       -0.4446432776
H         -6.5950390796        3.7994498244        0.1405348054
H         -4.7918862893        5.3582782870        0.8110558386
