62
-104.74217743
C          2.4301365429       -0.0423895330       -0.0005862376
C          3.1478218646        1.1135172058        0.3064398555
C          4.5246838716        1.0978561045        0.3030208529
C          5.2227056851       -0.0753887840       -0.0075651244
C          4.4942672921       -1.2319482509       -0.3134158434
C          3.1181560366       -1.2157311542       -0.3101320415
C          6.6730392338       -0.1113120990       -0.0178264730
S          7.5467996297       -1.4597897705       -0.3745333064
S          7.4917544198        1.3843715908        0.3762223265
C          0.9648819755       -0.0233903218        0.0004958878
N          0.3645079746        1.1595318865        0.0282456918
C         -0.9702169662        1.1292480781        0.0408476741
N         -1.6929654449        0.0120986980       -0.0010364606
C         -1.0002365968       -1.1237119981       -0.0414100770
N          0.3331661724       -1.1898538144       -0.0272365805
N         -1.6943186751       -2.2936301118       -0.1014276652
C         -1.1968845907       -3.5609829257        0.2247395722
C         -2.2251253149       -4.5125054449        0.0691375095
C         -3.3917666157       -3.8009878681       -0.3870609118
C         -3.0337537782       -2.4407668208       -0.4814501218
N         -1.6326280457        2.3171059187        0.1005985404
C         -1.0997954509        3.5713369884       -0.2212229904
C         -2.1016859627        4.5503327924       -0.0647028464
C         -3.2884933552        3.8699175067        0.3870025829
C         -2.9684185971        2.5000473484        0.4781538774
C         -1.9943081772       -5.8505200595        0.3528194184
C         -0.7393378805       -6.2247470606        0.7949591202
C          0.2654593927       -5.2785947239        0.9621143668
C          0.0532118532       -3.9382596972        0.6844949581
C         -3.9359809870       -1.5027529286       -0.9532871870
C         -5.2081393590       -1.9367855031       -1.2880159953
C         -5.5767065224       -3.2719092189       -1.1694411735
C         -4.6703855181       -4.2173235904       -0.7272184713
C         -1.8336296293        5.8823379424       -0.3439575041
C         -0.5679924107        6.2231136331       -0.7827458058
C          0.4105770713        5.2500951936       -0.9511911263
C          0.1609529666        3.9152729448       -0.6780081400
C         -3.8974545185        1.5859988379        0.9448938861
C         -5.1579603059        2.0540924487        1.2779262064
C         -5.4891423947        3.3992395069        1.1626165764
C         -4.5558845066        4.3204931530        0.7254160801
H          2.6091203203        2.0142298921        0.5535990643
H          5.0675257386        1.9996046695        0.5434053157
H          5.0269124992       -2.1392196427       -0.5541958540
H          2.5576571628       -2.1038961757       -0.5545239774
H          8.7273653789        0.9052330491        0.2470808332
H         -2.7818203172       -6.5777901189        0.2321930805
H         -0.5357173005       -7.2606571226        1.0189745648
H          1.2352613551       -5.5917307127        1.3178205218
H          0.8356460555       -3.2119997926        0.8232177253
H         -3.6612340508       -0.4676392952       -1.0613589631
H         -5.9256297579       -1.2172195969       -1.6515700377
H         -6.5784275849       -3.5721389066       -1.4360765482
H         -4.9434266093       -5.2581983026       -0.6517980090
H         -2.6012024952        6.6305084734       -0.2225951437
H         -0.3356763218        7.2536991343       -1.0032865613
H          1.3890296761        5.5374896938       -1.3046527719
H          0.9227817528        3.1677944861       -0.8182525787
H         -3.6519255668        0.5433033296        1.0504002149
H         -5.8959741049        1.3535016673        1.6374909937
H         -6.4828561257        3.7262149283        1.4277842959
H         -4.7998844318        5.3687251473        0.6524276680
