84
-133.84672223
C          6.1631929904        0.1249479970        0.1200482235
C          6.8973755892       -0.7678741180       -0.6588070756
C          8.2760431441       -0.7383820804       -0.6380543537
C          8.9488964070        0.1891395477        0.1581730914
C          8.2125166348        1.0840099067        0.9352910503
C          6.8338977141        1.0499723774        0.9183124887
N          4.7644429214        0.0930311472        0.1004180873
C          3.9956094207       -1.0165943267       -0.0848931079
C          2.6694631146       -0.6623283064       -0.0360647494
C          2.6337187203        0.7522021252        0.1754655584
C          3.9410160384        1.1662557518        0.2620463595
C          1.5441684729       -1.5838706776       -0.1250670712
C          1.5820642717       -2.6518759356       -1.0211620368
C          0.5221805390       -3.5318847117       -1.1151507773
C         -0.5955448072       -3.3578369644       -0.3088207698
C         -0.6400443557       -2.3077687487        0.5992613827
C          0.4231314162       -1.4312367420        0.6907832818
C          1.4664138359        1.6223997600        0.2242795748
C          1.4453644671        2.7204885377        1.0843456156
C          0.3509643099        3.5610750544        1.1298615851
C         -0.7465280606        3.3137696598        0.3147862775
C         -0.7360995839        2.2288743523       -0.5523434966
C          0.3639098362        1.3953780352       -0.5997336910
N         -1.7010785851       -4.2572824523       -0.4189907068
C         -1.6534095644       -5.4257096368        0.3311511030
C         -2.6497943714       -6.4051138671        0.2920349723
S         -4.1123501971       -6.2570454440       -0.7025103795
C         -3.8048815448       -4.7472089361       -1.5825500437
C         -2.6869487044       -3.9422704840       -1.3460509282
N         -1.8842988952        4.1774468424        0.3673523271
C         -2.8340618824        3.9231529473        1.3490147566
C         -3.9778245913        4.7053526731        1.5327030121
S         -4.3770223357        6.0912866551        0.4989843798
C         -2.9461330029        6.1918043838       -0.5461683433
C         -1.9042271373        5.2611873459       -0.5020692626
C         -4.7541887410       -4.3935836432       -2.5265193447
C         -4.6274316747       -3.2257093958       -3.2580996366
C         -3.5336543083       -2.4121489724       -3.0314416874
C         -2.5808066160       -2.7664877321       -2.0939278496
C         -0.5672811209       -5.6567159958        1.1796287566
C         -0.4729994560       -6.8058710642        1.9433304940
C         -1.4630387448       -7.7681805611        1.8834679076
C         -2.5503314829       -7.5573145107        1.0535345957
C         -2.9175180961        7.2563508320       -1.4312291569
C         -1.8563863485        7.4263812512       -2.3032874905
C         -0.8175791061        6.5154280568       -2.2752427214
C         -0.8412196651        5.4543621476       -1.3885137136
C         -2.6644890877        2.8339376090        2.2080296453
C         -3.5758635467        2.5472497344        3.2079491066
C         -4.6915550494        3.3430447729        3.3858280414
C         -4.8853481189        4.4203952243        2.5389865789
C         10.3635892955        0.2222415653        0.1769737550
C         11.5640200099        0.2494681796        0.1938778645
H          6.3856506733       -1.4739291926       -1.2938620447
H          8.8432692467       -1.4287614217       -1.2437848563
H          8.7305775714        1.7994456902        1.5558089268
H          6.2730200676        1.7313749893        1.5386268970
H          4.4288317394       -1.9930683824       -0.1664690323
H          4.3276502436        2.1611530202        0.3542515107
H          2.4430200214       -2.7796363218       -1.6590914264
H          0.5484872857       -4.3542211063       -1.8148210897
H         -1.5095106061       -2.1857195023        1.2278389888
H          0.3903876782       -0.6221463447        1.4041490455
H          2.2898006442        2.9059427388        1.7300520969
H          0.3343030637        4.4087587693        1.7989310291
H         -1.5899714941        2.0494629987       -1.1885442780
H          0.3750696734        0.5635338624       -1.2869928539
H         -5.5985601183       -5.0498229824       -2.6760282402
H         -5.3750685816       -2.9617053734       -3.9887630942
H         -3.4121464109       -1.4940523746       -3.5852118027
H         -1.7344480243       -2.1178951052       -1.9347582961
H          0.2160745028       -4.9184745252        1.2423141431
H          0.3830584689       -6.9423376533        2.5858887215
H         -1.3991425503       -8.6693187005        2.4720047120
H         -3.3441234201       -8.2863045492        0.9871129361
H         -3.7454957588        7.9494490864       -1.4269886457
H         -1.8486821957        8.2579168590       -2.9895748075
H          0.0222105081        6.6239665930       -2.9440556128
H         -0.0188901612        4.7570431171       -1.3822509355
H         -1.8015924365        2.1991379964        2.0862264205
H         -3.4049985252        1.6957572414        3.8484130023
H         -5.4064012434        3.1325676642        4.1651006689
H         -5.7512599788        5.0568322176        2.6444704252
H         12.6126881975        0.2729164576        0.2069823075
