84
-133.84725476
C          6.2390687524        0.0039449038       -0.0099545255
C          6.9385126808       -0.8146140845       -0.8951122342
C          8.3176229465       -0.8181678668       -0.8974908662
C          9.0256468316        0.0016553189       -0.0179457292
C          8.3240056980        0.8227834861        0.8654623512
C          6.9448484768        0.8215904355        0.8709461051
N          4.8398208882        0.0044998500       -0.0060176252
C          4.0429756633       -1.0635860220       -0.2913582815
C          2.7267128529       -0.6875813573       -0.1810717362
C          2.7277578269        0.6974295677        0.1760461613
C          4.0442422515        1.0729925609        0.2823435878
C          1.5716413310       -1.5625712134       -0.3312640153
C          0.4764691948       -1.4511301783        0.5266001225
C         -0.6161066571       -2.2820675719        0.3850683869
C         -0.6315049583       -3.2433001858       -0.6196757985
C          0.4575473527       -3.3744671545       -1.4694381364
C          1.5501802790       -2.5413546611       -1.3232846260
C          1.5724638612        1.5720164431        0.3299482113
C          1.5421485407        2.5344262022        1.3373985015
C          0.4468809206        3.3633313978        1.4886200773
C         -0.6346078313        3.2454829016        0.6272452052
C         -0.6088368345        2.3023599622       -0.3944081227
C          0.4852435440        1.4740655480       -0.5394756250
N         -1.7563109961       -4.1069236937       -0.7920386950
C         -2.8474335983       -3.6172465201       -1.5006948300
C         -3.9358591335       -4.4169499609       -1.8611282024
S         -3.9828434928       -6.1600681594       -1.5304318562
C         -2.7140596058       -6.3055594374       -0.2978144262
C         -1.7542450140       -5.3101170150       -0.0956974936
N         -1.7622036038        4.1044366800        0.8040197750
C         -2.8733773868        3.5912591971        1.4634033286
C         -3.9733008482        4.3784764371        1.8166759092
S         -4.0110810698        6.1323783289        1.5475676867
C         -2.7036199774        6.3218300137        0.3624287398
C         -1.7395046703        5.3323303948        0.1522416360
C         -2.6900075206       -7.4819778483        0.4314017010
C         -1.6960497358       -7.7132968544        1.3665111367
C         -0.7279332219       -6.7472529702        1.5673956629
C         -0.7611918707       -5.5631242699        0.8536949878
C         -2.8835976404       -2.2767507160       -1.8922769996
C         -3.9557555069       -1.7561960655       -2.5937511080
C         -5.0345800704       -2.5565122617       -2.9195989772
C         -5.0159486911       -3.8895639282       -2.5478594046
C         -2.6560866964        7.5246482859       -0.3211910214
C         -1.6345977972        7.7881210787       -1.2172546674
C         -0.6635217142        6.8269312955       -1.4268434760
C         -0.7199025270        5.6170464960       -0.7593085595
C         -2.9195061866        2.2391028895        1.8115997147
C         -4.0129707137        1.6953459997        2.4606730928
C         -5.1036057905        2.4835677370        2.7763256150
C         -5.0743549226        3.8282896695        2.4502120641
C         10.4408533020       -0.0002482050       -0.0217230620
C         11.6417202718       -0.0002917741       -0.0247965066
H          6.3992956724       -1.4357454698       -1.5930823919
H          8.8580022117       -1.4507632983       -1.5853132418
H          8.8693652942        1.4543746838        1.5502682797
H          6.4106153432        1.4437312629        1.5718379491
H          4.4524984304       -2.0350372420       -0.4821419525
H          4.4544331651        2.0442653196        0.4726700116
H          0.4900847599       -0.7132931532        1.3142469443
H         -1.4630891799       -2.1955105071        1.0499171871
H          0.4387143298       -4.1281311944       -2.2424972399
H          2.3904953274       -2.6366818588       -1.9936114369
H          2.3769276432        2.6192562044        2.0160543633
H          0.4203579166        4.1036356970        2.2742581614
H         -1.4494207484        2.2269627200       -1.0686725561
H          0.5065161405        0.7485624831       -1.3383836322
H         -3.4542745844       -8.2207730596        0.2424178838
H         -1.6812698610       -8.6376420558        1.9214526723
H          0.0607577597       -6.9068797695        2.2863371576
H         -0.0002152616       -4.8195366130        1.0293889907
H         -2.0526688069       -1.6346072771       -1.6480886598
H         -3.9421639933       -0.7164349329       -2.8822319404
H         -5.8771176344       -2.1585563923       -3.4621779929
H         -5.8349404302       -4.5457448744       -2.8016678627
H         -3.4246382195        8.2577555309       -0.1274767421
H         -1.6016815230        8.7327133449       -1.7361409364
H          0.1455294536        7.0105280608       -2.1168552326
H          0.0433667038        4.8775384970       -0.9421286363
H         -2.0796773402        1.6056538431        1.5754461200
H         -4.0067492154        0.6469169217        2.7162012637
H         -5.9630644637        2.0673736416        3.2771112784
H         -5.9017822611        4.4756067573        2.6993320177
H         12.6907174439       -0.0025202310       -0.0303040603
