84
-133.84935539
C          6.7144562431       -0.0000784195        0.0019555176
C          7.4146882105       -0.9295987692       -0.7655145764
C          8.7937454045       -0.9323918427       -0.7687358742
C          9.5020349846       -0.0009532577       -0.0086938995
C          8.8001361567        0.9308263712        0.7567918818
C          7.4210293713        0.9289589983        0.7641016687
N          5.3157269122        0.0004045672        0.0064603035
C          4.5194379288       -1.1004148759       -0.1383910230
C          3.2095382420       -0.7091462677       -0.0773755602
C          3.2102501182        0.7116879958        0.0943647256
C          4.5206032782        1.1019059153        0.1528961908
C          1.9771449234       -1.4932149689       -0.0973249958
C          1.0415398059       -1.2793857105        0.9146477882
C         -0.1972721533       -1.8816658196        0.8672732675
C         -0.5306919886       -2.6968457171       -0.2062707900
C          0.4093731751       -2.9556244720       -1.1964725000
C          1.6595892319       -2.3664889648       -1.1331653374
C          1.9780754331        1.4962481537        0.1133463042
C          1.6585769688        2.3697123815        1.1483678990
C          0.4081443803        2.9588458105        1.2092315721
C         -0.5301080381        2.6997781251        0.2174173190
C         -0.1946263952        1.8843048077       -0.8552968597
C          1.0442704187        1.2821720441       -0.9002861577
N         -1.8590285939       -3.2124451987       -0.2770663031
C         -2.8462078873       -2.3305455896       -0.7076975735
C         -4.2122138107       -2.6008144773       -0.5967740744
S         -4.8255932416       -4.0833612181        0.1581499203
C         -3.3612676891       -5.0875406484        0.1862154642
C         -2.0802880007       -4.5501005595        0.0279633129
N         -1.8587790777        3.2149473660        0.2848973598
C         -2.8472200935        2.3314835738        0.7093934908
C         -4.2129763440        2.5982965689        0.5877551942
S         -4.8241120335        4.0782218292       -0.1740671509
C         -3.3617946016        5.0855823126       -0.1935849879
C         -2.0808028515        4.5514356873       -0.0246557391
C         -3.5456762099       -6.4351244078        0.4443786235
C         -2.4610356287       -7.2829811149        0.5867558530
C         -1.1859821751       -6.7602503255        0.4790140786
C         -0.9997623268       -5.4183342979        0.2011026653
C         -2.4831549578       -1.1166076735       -1.2961625198
C         -3.4331745766       -0.2122056797       -1.7327427461
C         -4.7797001427       -0.4950577756       -1.6113906367
C         -5.1609752338       -1.6993505779       -1.0477138630
C         -3.5473135718        6.4321264642       -0.4563550773
C         -2.4635586096        7.2821272348       -0.5925221345
C         -1.1881595929        6.7626377641       -0.4737113465
C         -1.0009788061        5.4217910679       -0.1913319328
C         -2.4856120543        1.1194822328        1.3026913567
C         -3.4366912200        0.2133670343        1.7333828820
C         -4.7829489095        0.4926164683        1.6011035541
C         -5.1629156293        1.6951177811        1.0327408710
C         10.9172383882       -0.0017758401       -0.0143247433
C         12.1181025805       -0.0042500309       -0.0212777388
H          6.8758345003       -1.6397068246       -1.3730619391
H          9.3340011222       -1.6514623981       -1.3657654484
H          9.3453684584        1.6495777111        1.3496743644
H          6.8872474031        1.6395555300        1.3755587437
H          4.9298814630       -2.0874546956       -0.2078031694
H          4.9320698697        2.0885624975        0.2217343903
H          1.2911420698       -0.6286794405        1.7389917849
H         -0.9255834448       -1.7067559441        1.6444726572
H          0.1480740212       -3.5980622209       -2.0246098713
H          2.3813064870       -2.5509745688       -1.9147395746
H          2.3788171955        2.5544940776        1.9312386234
H          0.1453423764        3.6013715464        2.0368235786
H         -0.9214874068        1.7091815909       -1.6338283595
H          1.2954256982        0.6313699975       -1.7240824913
H         -4.5543338655       -6.8048699579        0.5515814882
H         -2.6166162525       -8.3296459621        0.7935491873
H         -0.3235327037       -7.3955048159        0.6093950237
H          0.0036345762       -5.0310473765        0.1286906783
H         -1.4372477273       -0.8777184009       -1.4043777290
H         -3.1165696935        0.7196804916       -2.1759448357
H         -5.5261158957        0.2074057592       -1.9462528965
H         -6.2050287033       -1.9512157466       -0.9369723229
H         -4.5559785356        6.7993057061       -0.5720021530
H         -2.6199716755        8.3279595487       -0.8028936335
H         -0.3262189839        7.3996590040       -0.5987507656
H          0.0026995547        5.0369536982       -0.1103277857
H         -1.4399248150        0.8835591071        1.4193037118
H         -3.1212037728       -0.7169837841        2.1805835442
H         -5.5301771190       -0.2112605913        1.9311538976
H         -6.2067186877        1.9441321743        0.9135271660
H         13.1670969741       -0.0046123241       -0.0265021445
