84
-133.84443234
C          6.4905633380       -0.1012386285        0.1284076895
C          7.2308533261        0.8571581454       -0.5626761707
C          8.6091291705        0.8118070013       -0.5557176448
C          9.2777905727       -0.1973173586        0.1380949705
C          8.5364284849       -1.1568363203        0.8283745806
C          7.1582482207       -1.1071601683        0.8257756062
N          5.0930859327       -0.0554860987        0.1193970296
C          4.2584182520       -1.1349743782        0.1780070019
C          2.9572310337       -0.7034546219        0.1298257790
C          3.0081364087        0.7241464765        0.0444945489
C          4.3317603778        1.0752847302        0.0408605315
C          1.7503776625       -1.5161523376        0.2117854716
C          0.6304704211       -1.0664219109        0.9087957698
C         -0.5255016021       -1.8134988207        0.9728287425
C         -0.6052246444       -3.0668428961        0.3607667144
C          0.5126086518       -3.5148646386       -0.3495159237
C          1.6624162335       -2.7561098965       -0.4162452021
C          1.8433335767        1.5979318030       -0.0635464015
C          1.6567894414        2.6702375156        0.8040262348
C          0.4839503688        3.4020129669        0.7725545169
C         -0.5077746318        3.0819369904       -0.1442130486
C         -0.2985148584        2.0616244957       -1.0660015907
C          0.8640789559        1.3213029874       -1.0176291679
N         -1.7787300020       -3.8126540502        0.3922548263
C         -2.9857845767       -3.3175765793        0.9245609646
C         -4.1335771107       -3.2975296870        0.1334011736
S         -4.0539780098       -3.9392104089       -1.5213830617
C         -2.9227689133       -5.2663636910       -1.1756612375
C         -1.8993801855       -5.0582696770       -0.2530554810
N         -1.7438416788        3.7942052500       -0.1144833597
C         -1.7834942624        5.0345301540       -0.7424865798
C         -2.8741820037        5.9022765365       -0.6473388129
S         -4.3004140002        5.5177146601        0.3348916179
C         -4.0959085104        3.7689604912        0.5578619598
C         -2.8675611618        3.1283511812        0.3671851400
C         -3.0692849925       -6.4880615283       -1.8122209418
C         -2.1925049986       -7.5189110880       -1.5264499289
C         -1.1933397756       -7.3356477704       -0.5832622586
C         -1.0544628891       -6.1194961259        0.0596609579
C         -3.0849813503       -2.9080850705        2.2515442727
C         -4.2787856024       -2.4111532230        2.7432319282
C         -5.3984833506       -2.3451162161        1.9287670642
C         -5.3320907557       -2.8089247623        0.6275723653
C         -5.2088414219        3.0725475549        0.9978255680
C         -5.1272878989        1.7232667336        1.2935203292
C         -3.9107510107        1.0823647327        1.1550529147
C         -2.8022354484        1.7721903836        0.6992829584
C         -0.6980059723        5.4545950986       -1.5150204293
C         -0.6922906534        6.6852870013       -2.1455381399
C         -1.7816937467        7.5301041180       -2.0413945725
C         -2.8748439917        7.1258597671       -1.2950389456
C         10.6920947211       -0.2474720007        0.1405741878
C         11.8922251580       -0.2902714808        0.1414858199
H          6.7233012650        1.6281489204       -1.1211025816
H          9.1791734750        1.5533778524       -1.0947982599
H          9.0503559411       -1.9358639743        1.3710336263
H          6.5945979153       -1.8412343953        1.3801206482
H          4.6369224263       -2.1353675200        0.2372557664
H          4.7713900751        2.0512379014       -0.0042574592
H          0.6636302016       -0.1151047830        1.4184891318
H         -1.3789068229       -1.4020882920        1.4879335823
H          0.4741416944       -4.4520529472       -0.8828861259
H          2.5025407081       -3.1231946317       -0.9875034744
H          2.4188062261        2.9030267746        1.5325813939
H          0.3224030050        4.2131692108        1.4669931996
H         -1.0611893543        1.8409509932       -1.7986257480
H          1.0155131973        0.5097974037       -1.7133339917
H         -3.8636076583       -6.6156307078       -2.5311705144
H         -2.2986473217       -8.4667555049       -2.0299258750
H         -0.5224077759       -8.1452385633       -0.3416175334
H         -0.2870539725       -5.9753733335        0.8048718546
H         -2.2189014248       -2.9815955233        2.8912361046
H         -4.3347859187       -2.0778471851        3.7679215378
H         -6.3268323066       -1.9503507512        2.3102756670
H         -6.1984163062       -2.7905738479       -0.0152243535
H         -6.1364296552        3.6110848596        1.1211049668
H         -5.9983061249        1.1898202119        1.6382114828
H         -3.8182998709        0.0342924269        1.3969937305
H         -1.8656455938        1.2467747935        0.6050287493
H          0.1558307699        4.8036029078       -1.6172840378
H          0.1706161150        6.9767651718       -2.7241469461
H         -1.7872756165        8.4908143113       -2.5308143596
H         -3.7405927989        7.7625554044       -1.1921225604
H         12.9405820703       -0.3268123196        0.1427096518
