84
-133.84330363
C          6.2567456479       -0.2129821654        0.2276273980
C          6.8994478854       -1.3989575002        0.5803022847
C          8.2758404962       -1.4525844123        0.6471562806
C          9.0398420998       -0.3188122419        0.3684635547
C          8.3959054644        0.8682704617        0.0177925837
C          7.0196697928        0.9193278228       -0.0546179063
N          4.8609959968       -0.1595332244        0.1592605037
C          4.0385302871       -1.1904953477       -0.1866093256
C          2.7346941108       -0.7659832452       -0.1332164361
C          2.7651141815        0.6057040176        0.2720335356
C          4.0886567465        0.9323893672        0.4324989820
C          1.5586046170       -1.5924375462       -0.3783724760
C          0.4654645041       -1.5420888727        0.4868898061
C         -0.6470133262       -2.3268766868        0.2617571452
C         -0.6901266878       -3.1691481335       -0.8441311758
C          0.3971237184       -3.2379865737       -1.7042901246
C          1.5146522705       -2.4605374563       -1.4672989962
C          1.6379190979        1.5184917566        0.4105953665
C          1.6284268656        2.5023415730        1.3969332876
C          0.5873766934        3.3993911122        1.5077998909
C         -0.4904704076        3.3621815185        0.6183364021
C         -0.5066835194        2.3434075455       -0.3386057035
C          0.5392573102        1.4519227500       -0.4437723412
N         -1.8364841119       -3.9780320989       -1.1078577710
C         -2.9787082471       -3.3606920019       -1.6065983288
C         -4.1010793301       -4.0801313373       -2.0286170150
S         -4.1255578110       -5.8535521334       -2.0909631190
C         -2.7558592704       -6.2488563900       -1.0351986871
C         -1.7861680579       -5.3039921412       -0.6901645394
N         -1.5461127738        4.2596548621        0.7325892879
C         -1.5999107658        5.2510506921        1.7312414561
C         -2.7232730971        5.3453858234        2.5509329780
S         -4.0690613722        4.2113465729        2.3009357140
C         -3.9578873746        4.1506618270        0.5282364229
C         -2.7002550631        4.1907359632       -0.0716672435
C         -2.6714029339       -7.5576670524       -0.5916954774
C         -1.6090470889       -7.9702185611        0.1934690847
C         -0.6386433829       -7.0499501319        0.5434606312
C         -0.7313956838       -5.7377803699        0.1169117813
C         -3.0376554415       -1.9692386761       -1.7187789708
C         -4.1676919594       -1.3270949508       -2.1914730812
C         -5.2826916696       -2.0537790307       -2.5643772452
C         -5.2379545494       -3.4345866546       -2.4839728722
C         -5.1109150125        4.0860289817       -0.2368519266
C         -5.0175341299        4.0712317848       -1.6167232914
C         -3.7757527196        4.1615639874       -2.2257240133
C         -2.6257704747        4.2360744761       -1.4611882656
C         -0.5858458620        6.1935842746        1.8779332370
C         -0.6635024813        7.1551653199        2.8685918023
C         -1.7655112053        7.2094594798        3.7075129604
C         -2.8065421213        6.3150078712        3.5367373004
C         10.4521417278       -0.3722845343        0.4412805124
C         11.6505581741       -0.4175583775        0.5036507344
H          6.3172398963       -2.2750683018        0.8197230531
H          8.7702746516       -2.3716269554        0.9234749712
H          8.9839364557        1.7461313259       -0.2036082353
H          6.5322544722        1.8360168575       -0.3477312678
H          4.4222374461       -2.1550040356       -0.4518748804
H          4.5209173954        1.8653868890        0.7327905769
H          0.4957904044       -0.8854948401        1.3432254940
H         -1.4892733290       -2.2915309780        0.9374266785
H          0.3588614130       -3.9026988904       -2.5546119556
H          2.3559250725       -2.5084581353       -2.1420132808
H          2.4440542657        2.5542260108        2.1031562650
H          0.6030087513        4.1198829075        2.3105483269
H         -1.3517397237        2.2327091583       -0.9996351695
H          0.5053435824        0.6935714364       -1.2119925341
H         -3.4448429773       -8.2514440198       -0.8849948063
H         -1.5462296266       -8.9951440321        0.5223015066
H          0.1981924232       -7.3462905427        1.1568749445
H          0.0299122148       -5.0324030157        0.4099552724
H         -2.1799244907       -1.3797197395       -1.4375931230
H         -4.1696936969       -0.2502138047       -2.2623098778
H         -6.1714048427       -1.5614162915       -2.9252277568
H         -6.0814278160       -4.0342338367       -2.7915992139
H         -6.0691199507        4.0415650114        0.2571611261
H         -5.9137423880        4.0075770328       -2.2134388934
H         -3.7010754554        4.1813661316       -3.3019425049
H         -1.6594294721        4.3279410349       -1.9329845595
H          0.2618776442        6.1602702638        1.2107712935
H          0.1373095903        7.8694225832        2.9806687502
H         -1.8234583406        7.9566510074        4.4830848788
H         -3.6831906881        6.3539038272        4.1645065657
H         12.6974049813       -0.4569809985        0.5579388168
