84
-133.84340589
C          6.3009307817        0.1360568352       -0.2724567304
C          6.9872897472       -0.7074610887       -1.1449393409
C          8.3650626133       -0.6814054754       -1.1998513859
C          9.0865975678        0.1935708507       -0.3870321339
C          8.3987819878        1.0406387874        0.4825326452
C          7.0213005531        1.0097740767        0.5409112559
N          4.9041127547        0.1045761767       -0.2112019573
C          4.1210929806       -0.9926672386       -0.4149761057
C          2.8027742053       -0.6413017230       -0.2652781988
C          2.7829455307        0.7552419636        0.0455227562
C          4.0922384642        1.1648633775        0.0728889556
C          1.6546367017       -1.5213351652       -0.4447327844
C          0.5256919009       -1.0826057921       -1.1376805898
C         -0.5710194850       -1.9060174145       -1.2893107616
C         -0.5580923373       -3.1860554225       -0.7458211253
C          0.5685278368       -3.6433193294       -0.0772393456
C          1.6670798015       -2.8172928577        0.0671127291
C          1.6211227077        1.5801413529        0.3525243724
C          0.5491750257        1.0781919311        1.0875012678
C         -0.5384650765        1.8653393244        1.3988412471
C         -0.5929670556        3.2054114288        1.0048343850
C          0.4635356795        3.6988664820        0.2338731323
C          1.5467696189        2.9035709045       -0.0751324405
N         -1.6945272697       -4.0436828184       -0.8616388449
C         -1.7313273778       -4.9155299477       -1.9438975287
C         -2.7027077600       -5.9099478867       -2.0859651384
S         -3.9447682769       -6.1993066192       -0.8522587196
C         -3.8627276664       -4.6867330488        0.0725011686
C         -2.7636070272       -3.8256854536        0.0005164307
N         -1.6953502804        3.9987838737        1.3025481667
C         -2.8328426667        3.5060493895        1.9714515952
C         -4.0937579073        3.6635892142        1.3985407628
S         -4.2340718458        4.5113220855       -0.1569796327
C         -2.9608162763        5.7135025419        0.1486175559
C         -1.8218608402        5.3273322060        0.8531585376
C         -4.9245204674       -4.4249668401        0.9212949684
C         -4.9126137389       -3.3136720283        1.7460844021
C         -3.8196928173       -2.4682128410        1.7123986509
C         -2.7661878509       -2.7178730261        0.8518957556
C         -0.7671036575       -4.8157604186       -2.9498191774
C         -0.7684991374       -5.6669012660       -4.0398026386
C         -1.7447305320       -6.6370523786       -4.1693911256
C         -2.7136259435       -6.7485702409       -3.1872915565
C         -3.1147403408        7.0156704822       -0.2981774196
C         -2.1295620772        7.9505942827       -0.0369492594
C         -1.0131009417        7.5898251985        0.7009283790
C         -0.8653903421        6.2924793246        1.1560714202
C         -2.7419603917        2.9240840063        3.2329005864
C         -3.8742006542        2.4409469747        3.8631563469
C         -5.1161134337        2.5573512226        3.2589617480
C         -5.2295746437        3.1882640593        2.0334229468
C         10.5004274264        0.2207869603       -0.4428444649
C         11.7002587439        0.2434935379       -0.4879113843
H          6.4379490285       -1.3724999183       -1.7929062327
H          8.8935643866       -1.3342427384       -1.8780373366
H          8.9537966581        1.7158071037        1.1162173422
H          6.4998894380        1.6524659606        1.2329187259
H          4.5410367063       -1.9502153794       -0.6486615328
H          4.4887804755        2.1412762277        0.2651305726
H          0.5127431748       -0.0884490698       -1.5578965518
H         -1.4457827907       -1.5631417398       -1.8226556690
H          0.5732972194       -4.6428627335        0.3315602512
H          2.5368555548       -3.1686298241        0.6011756043
H          0.5688590075        0.0533502596        1.4279240089
H         -1.3615140143        1.4238354710        1.9381731292
H          0.4286558632        4.7054970792       -0.1524058293
H          2.3436870525        3.3117775914       -0.6793672440
H         -5.7530811806       -5.1169575293        0.9373871119
H         -5.7414993553       -3.1233306528        2.4087855180
H         -3.7798410347       -1.6026458345        2.3556497880
H         -1.9244903780       -2.0440553387        0.8433062923
H         -0.0020767180       -4.0597748729       -2.8702783234
H         -0.0008244040       -5.5619676177       -4.7908536459
H         -1.7561288860       -7.3028644362       -5.0173916662
H         -3.4851020827       -7.5008504877       -3.2541340115
H         -4.0015321629        7.2807988494       -0.8526202381
H         -2.2422949553        8.9614940835       -0.3954561892
H         -0.2558606832        8.3234419640        0.9298311321
H         -0.0065282539        6.0125061468        1.7466773179
H         -1.7766573257        2.8530091222        3.7104093093
H         -3.7858826524        1.9773686005        4.8334840632
H         -5.9980571424        2.1744646050        3.7476945992
H         -6.1898947404        3.3117924404        1.5572770208
H         12.7483034861        0.2625014797       -0.5283163524
