84
-133.84713536
C          6.1885223867        0.1748661204       -0.4458820097
C          6.8168857427        1.2236964685       -1.1151704639
C          8.1922712060        1.2650572689       -1.2080727701
C          8.9675433196        0.2544412000       -0.6383715198
C          8.3369272537       -0.7967525407        0.0281961568
C          6.9617660161       -0.8341553148        0.1257865386
N          4.7932995962        0.1356910145       -0.3477677582
C          4.0292434506       -0.9916298858       -0.3022441506
C          2.7051382946       -0.6379591320       -0.2098125152
C          2.6674116939        0.7917517145       -0.1813347864
C          3.9692314679        1.2187675087       -0.2786771479
C          1.5780456097       -1.5611369852       -0.2114421190
C          0.4091178133       -1.2646239819       -0.9137462153
C         -0.6533869787       -2.1454941912       -0.9167021579
C         -0.5627958483       -3.3444925968       -0.2183788346
C          0.5991789436       -3.6577142189        0.4724559662
C          1.6599381815       -2.7725166970        0.4735382610
C          1.5029358094        1.6511564255       -0.0130840311
C          0.4706755860        1.2968811815        0.8566173907
C         -0.6279186070        2.1168147281        1.0165161264
C         -0.7109209094        3.3114304212        0.3097380246
C          0.3155125356        3.6822833077       -0.5472025457
C          1.4131825907        2.8581089046       -0.7046721104
N         -1.6535536158       -4.2672741198       -0.2014024825
C         -1.7081536124       -5.2164369861       -1.2152772007
C         -2.6404043677       -6.2575300430       -1.2330928956
S         -3.7985496592       -6.5191856503        0.0862687114
C         -3.7030078181       -4.9670936921        0.9416421640
C         -2.6598927280       -4.0599636341        0.7345296900
N         -1.8441951350        4.1699642321        0.4518018251
C         -2.9617290753        3.8963980140       -0.3279734771
C         -4.0749825907        4.7399475021       -0.3819158700
S         -4.1357532999        6.2912930155        0.4779744440
C         -2.7874317710        6.1064503901        1.6174865945
C         -1.8078465522        5.1214297901        1.4642751517
C         -4.6975032563       -4.7146468098        1.8710437214
C         -4.6721922166       -3.5636551617        2.6393056592
C         -3.6368081160       -2.6650989037        2.4633906963
C         -2.6513555205       -2.9072114831        1.5237711086
C         -0.8014717394       -5.1531858763       -2.2762686694
C         -0.8255111546       -6.0770270710       -3.3051698678
C         -1.7666877180       -7.0892639824       -3.3152158950
C         -2.6740842597       -7.1705380515       -2.2731657890
C         -2.7251299739        7.0229988721        2.6530985699
C         -1.6741957263        7.0021251561        3.5536312417
C         -0.6860159196        6.0469312708        3.4064286904
C         -0.7556611141        5.1189797004        2.3833109107
C         -3.0005018042        2.7387941126       -1.1091693877
C         -4.0957904037        2.4319028799       -1.8957847085
C         -5.1962478467        3.2678341400       -1.9202862445
C         -5.1771859085        4.4222553889       -1.1570014567
C         10.3788705623        0.2957060686       -0.7346268707
C         11.5763803475        0.3301838102       -0.8174564494
H          6.2248577800        1.9982258839       -1.5769996292
H          8.6773134963        2.0769898093       -1.7284522787
H          8.9344604731       -1.5776041460        0.4737439640
H          6.4840792644       -1.6392158941        0.6618539572
H          4.4594857807       -1.9667416397       -0.4109933981
H          4.3555963457        2.2167945010       -0.2292226454
H          0.3404329218       -0.3404511804       -1.4669900430
H         -1.5581968296       -1.9144144214       -1.4596294454
H          0.6615092864       -4.5932997133        1.0079857813
H          2.5572578620       -3.0124301782        1.0228270274
H          0.5379383731        0.3757689030        1.4151476403
H         -1.4271586847        1.8411010514        1.6888492073
H          0.2436855487        4.6140068302       -1.0882380963
H          2.2037146843        3.1420759324       -1.3821024183
H         -5.4843627478       -5.4437434894        1.9936650087
H         -5.4475602038       -3.3820955730        3.3662928203
H         -3.5897338057       -1.7649497810        3.0567317253
H         -1.8534318411       -2.1924961075        1.4015067120
H         -0.0620194034       -4.3684648042       -2.2896844191
H         -0.1026767775       -5.9963826819       -4.1022932343
H         -1.7967633892       -7.8115898138       -4.1151573527
H         -3.4144325311       -7.9558995805       -2.2447455806
H         -3.5067581726        7.7635658632        2.7326705489
H         -1.6315539313        7.7268985630        4.3507937889
H          0.1475391506        6.0145416832        4.0909274199
H          0.0231800609        4.3792368537        2.2886256849
H         -2.1531549153        2.0721445275       -1.1033307362
H         -4.0827513799        1.5306042184       -2.4891086576
H         -6.0567243311        3.0354229565       -2.5271099950
H         -6.0146468230        5.1036933190       -1.1645998637
H         12.6225047909        0.3603381786       -0.8892474699
