84
-133.84700973
C          6.2505760735        0.0062842399       -0.0310995153
C          6.9478431400       -0.7929989041       -0.9353291441
C          8.3270458582       -0.7940507119       -0.9434581784
C          9.0373931967        0.0092048539       -0.0506862332
C          8.3379602807        0.8108881237        0.8520070644
C          6.9587496058        0.8069937475        0.8632708125
N          4.8504619305        0.0050219942       -0.0220316527
C          4.0532708667       -1.0602691708       -0.3179895691
C          2.7377466328       -0.6852894380       -0.2041533052
C          2.7382068630        0.6926171258        0.1786859947
C          4.0547421886        1.0690070888        0.2813191215
C          1.5787074237       -1.5205262187       -0.4943135526
C          0.4961083951       -1.0070021270       -1.2093475956
C         -0.6017555565       -1.7955890554       -1.4869276161
C         -0.6377519279       -3.1145031244       -1.0473674650
C          0.4397728805       -3.6412165299       -0.3491741759
C          1.5404256499       -2.8502300927       -0.0797562380
C          1.5807207198        1.5257326597        0.4788236452
C          0.4882547331        1.0010380041        1.1708302245
C         -0.6075299789        1.7889712246        1.4581314646
C         -0.6295574836        3.1201870174        1.0567346427
C          0.4568171985        3.6578413947        0.3814313370
C          1.5534006290        2.8660090614        0.0980620349
N         -1.7686697485       -3.9458869736       -1.3095618164
C         -1.7169365021       -4.7543858040       -2.4399823197
C         -2.6717199838       -5.7365750369       -2.7156775651
S         -4.0075203308       -6.0921366413       -1.6028537103
C         -4.0086566781       -4.6272311738       -0.6007078510
C         -2.9074846781       -3.7684924959       -0.5315180593
N         -1.7578366719        3.9515449479        1.3331742894
C         -1.7519894690        4.6637853118        2.5271828659
C         -2.7143412677        5.6275359248        2.8401795376
S         -3.9907822050        6.0933037699        1.6983273700
C         -3.9519032577        4.7221980562        0.5719619803
C         -2.8586014384        3.8549783132        0.4894041511
C         -5.1406710652       -4.4047780871        0.1644081327
C         -5.2005683272       -3.3382284695        1.0443013335
C         -4.1078454099       -2.4987170902        1.1520061982
C         -2.9831387546       -2.7082003397        0.3749605074
C         -0.6776690774       -4.5969945884       -3.3601719541
C         -0.5903095628       -5.3842688519       -4.4937618252
C         -1.5499230464       -6.3444500624       -4.7550413890
C         -2.5933206519       -6.5103479580       -3.8609099694
C         -5.0427615888        4.5820115363       -0.2686674728
C         -5.0674465801        3.5915075920       -1.2350641715
C         -3.9833950608        2.7416229906       -1.3495249725
C         -2.9004359294        2.8684258104       -0.4987956480
C         -0.7530534650        4.4267076523        3.4744737021
C         -0.7160968816        5.1144750404        4.6737304577
C         -1.6865209402        6.0522628258        4.9733750543
C         -2.6867973296        6.3006743859        4.0494762695
C         10.4526139875        0.0104818565       -0.0605495215
C         11.6534440167        0.0116183940       -0.0696292406
H          6.4074080865       -1.4006307536       -1.6442001238
H          8.8654077639       -1.4117297140       -1.6462544398
H          8.8848592208        1.4296769693        1.5472020085
H          6.4270724197        1.4136330260        1.5795816886
H          4.4618618702       -2.0135393006       -0.5858739767
H          4.4651317401        2.0222380430        0.5465640079
H          0.5244748951        0.0146353714       -1.5567119804
H         -1.4372611394       -1.3984824493       -2.0447600145
H          0.4066213167       -4.6692875879       -0.0205029739
H          2.3726097592       -3.2583660102        0.4731653977
H          0.5067353130       -0.0289623042        1.4930003615
H         -1.4518113437        1.3823422250        1.9955262552
H          0.4332281796        4.6944543865        0.0799924058
H          2.3919260036        3.2831224679       -0.4382386902
H         -5.9677394140       -5.0926589654        0.0723663397
H         -6.0844068357       -3.1783873279        1.6409090022
H         -4.1245053959       -1.6695480622        1.8425084366
H         -2.1422665539       -2.0415053643        0.4781852556
H          0.0757892933       -3.8471207725       -3.1786557731
H          0.2334775606       -5.2373036397       -5.1750669471
H         -1.4922004226       -6.9607691051       -5.6378806433
H         -3.3551534833       -7.2559826166       -4.0318985520
H         -5.8652494161        5.2737356006       -0.1648046872
H         -5.9184481968        3.4970148963       -1.8904513103
H         -3.9742693737        1.9691430095       -2.1030363394
H         -2.0654941804        2.1947669112       -0.6058582953
H          0.0093449073        3.6941143735        3.2623067117
H          0.0770831521        4.9073771373        5.3754622348
H         -1.6688251948        6.5900308177        5.9077664252
H         -3.4532424457        7.0346645462        4.2480557130
H         12.7024182499        0.0122636375       -0.0786099051
