84
-133.84686637
C          6.2224749576       -0.0005771079        0.0350610984
C          6.9300822896       -0.7850318916       -0.8739798526
C          8.3093276736       -0.7866966712       -0.8654807203
C          9.0089949204        0.0010165755        0.0492627312
C          8.2990591043        0.7879360331        0.9567923389
C          6.9198313045        0.7847416608        0.9512533189
N          4.8222356807       -0.0012140703        0.0275871027
C          4.0280537082       -1.0620505372       -0.2894579644
C          2.7107176434       -0.6885110119       -0.1850383488
C          2.7077874958        0.6852073741        0.2135078345
C          4.0236925471        1.0591942224        0.3346653086
C          1.5605697227       -1.5278985185       -0.4966788073
C          1.5463105707       -2.8716197633       -0.1269453743
C          0.4605104448       -3.6735027761       -0.4227105257
C         -0.6287309548       -3.1418483908       -1.0982488331
C         -0.6209200032       -1.8067717917       -1.4867841082
C          0.4654866825       -1.0094800779       -1.1890710761
C          1.5536779415        1.5243372541        0.5104905032
C          1.5484890933        2.8705980901        0.1495552030
C          0.4604060793        3.6735350195        0.4337553820
C         -0.6410241141        3.1403706203        1.0879422042
C         -0.6436010573        1.8021801875        1.4656996231
C          0.4456058867        1.0040677670        1.1805522088
N         -1.7492114042       -3.9805861371       -1.3857034333
C         -1.7477160741       -4.6616268115       -2.5972769621
C         -2.7155823780       -5.6103299416       -2.9384330661
S         -4.0075789928       -6.0953082928       -1.8221861273
C         -3.9234293647       -4.7999874409       -0.6119302858
C         -2.8268514674       -3.9392479367       -0.5089709610
N         -1.7620638620        3.9817438521        1.3655241427
C         -1.7878532771        4.6345969294        2.5922860277
C         -2.7559519024        5.5852912357        2.9273590705
S         -4.0045135242        6.1145540067        1.7821277528
C         -3.9078500792        4.8375501959        0.5534963500
C         -2.8194941783        3.9650455297        0.4636807072
C         -4.9879792235       -4.7118517506        0.2687017457
C         -4.9834850247       -3.7816252633        1.2935289896
C         -3.8967669378       -2.9379092918        1.4255271589
C         -2.8400179393       -3.0126359114        0.5365594285
C         -0.7438543544       -4.4080937460       -3.5353002973
C         -0.7070632377       -5.0646855210       -4.7519359779
C         -1.6815261009       -5.9891210740       -5.0781135849
C         -2.6862649903       -6.2540667506       -4.1637104691
C         -4.9517538303        4.7758650930       -0.3536519054
C         -4.9336587102        3.8606607110       -1.3917647247
C         -3.8551999553        3.0042192455       -1.5093028126
C         -2.8194077785        3.0525837802       -0.5942296083
C         -0.8134366374        4.3500958405        3.5521115910
C         -0.8071134556        4.9765794437        4.7850510844
C         -1.7837391730        5.9006287741        5.1057743254
C         -2.7580970380        6.1979657379        4.1687443939
C         10.4242310993        0.0018598654        0.0572040989
C         11.6250747801        0.0031512331        0.0643853821
H          6.3977413731       -1.3804085348       -1.5992140171
H          8.8559446439       -1.3926897317       -1.5720635403
H          8.8378607790        1.3944153486        1.6689328371
H          6.3794784903        1.3796118948        1.6709502721
H          4.4399064810       -2.0117585482       -0.5649422293
H          4.4318281875        2.0088625377        0.6157482667
H          2.3865469334       -3.2836811209        0.4105289246
H          0.4469539328       -4.7127312043       -0.1297807747
H         -1.4688842315       -1.4044770644       -2.0215025196
H          0.4739556721        0.0236393228       -1.5013905744
H          2.3983262618        3.2842353036       -0.3713271254
H          0.4546030343        4.7149139321        0.1483103185
H         -1.5014293449        1.3982777981        1.9832243745
H          0.4459617364       -0.0311370628        1.4859749563
H         -5.8144693895       -5.3958582404        0.1469626959
H         -5.8146606250       -3.7279310501        1.9782936838
H         -3.8645158126       -2.2114467260        2.2228622273
H         -2.0028674761       -2.3440143747        0.6570250908
H          0.0230981268       -3.6868732481       -3.3020723124
H          0.0898137393       -4.8445046912       -5.4454076878
H         -1.6639048085       -6.5037923493       -6.0254111468
H         -3.4568596006       -6.9777507807       -4.3832461365
H         -5.7724003198        5.4685326046       -0.2418043008
H         -5.7483118490        3.8278185790       -2.0973906469
H         -3.8133056726        2.2881711804       -2.3155565485
H         -1.9884940513        2.3742170096       -0.7031584853
H         -0.0451377718        3.6289074691        3.3233313121
H         -0.0324076820        4.7329537305        5.4955910359
H         -1.7902702949        6.3910620515        6.0659815352
H         -3.5281028458        6.9238126662        4.3830775804
H         12.6740829495        0.0051082336        0.0693601489
