84
-133.84462220
C          6.5441428106       -0.1296518079        0.2191392019
C          7.2222901652       -1.2751200729        0.6340751242
C          8.6001802221       -1.2879973871        0.6895125085
C          9.3305955342       -0.1527022786        0.3368471818
C          8.6513509674        0.9942293727       -0.0754151449
C          7.2736801304        1.0041484156       -0.1363766890
N          5.1471763305       -0.1179888071        0.1601849118
C          4.3515681560       -1.1916753466       -0.1209856555
C          3.0407209382       -0.7971467070       -0.0850035153
C          3.0354989251        0.5971091629        0.2368896035
C          4.3475710415        0.9693075894        0.3738313974
C          1.8392658013       -1.6030963014       -0.2780841324
C          0.8102713259       -1.5269377187        0.6609472089
C         -0.3858060002       -2.1786506146        0.4471470104
C         -0.5779491612       -2.9049893577       -0.7232816426
C          0.4591836528       -3.0359880189       -1.6360751553
C          1.6640642966       -2.3964667867       -1.4080920048
C          1.8492882950        1.4406774531        0.3249478220
C          1.7021439846        2.4006972202        1.3218102010
C          0.5604992548        3.1702646113        1.4138104423
C         -0.4833143016        3.0207414514        0.4962841493
C         -0.3421487168        2.0464641112       -0.4956402602
C          0.8016239213        1.2836221709       -0.5806674959
N         -1.8439837811       -3.4985824505       -1.0091115226
C         -2.8916515043       -2.6510084151       -1.3588718407
C         -4.1418548364       -3.1292710015       -1.7634145739
S         -4.4654828268       -4.8581269112       -1.9992489490
C         -3.1364064402       -5.5792229547       -1.0714576679
C         -2.0023418618       -4.8476315824       -0.7103322333
N         -1.6549674891        3.7614264120        0.6084934034
C         -1.8859657455        4.6660355197        1.6630014532
C         -3.0204954775        4.5249120497        2.4602108687
S         -4.1585693753        3.2032567531        2.1150860104
C         -4.0140065976        3.2645804700        0.3454662433
C         -2.7724929051        3.5463459447       -0.2221253466
C         -3.2575652974       -6.9195790242       -0.7469245650
C         -2.2443985360       -7.5764064759       -0.0704880757
C         -1.1128385261       -6.8695331113        0.2918072742
C         -0.9987603053       -5.5258780609       -0.0144902719
C         -2.7218897901       -1.2638328732       -1.3335520315
C         -3.7541142341       -0.4008920805       -1.6526712474
C         -4.9962264169       -0.8930643615       -2.0056793266
C         -5.1794223518       -2.2633054376       -2.0647254219
C         -5.1296579074        3.0536949018       -0.4485471488
C         -5.0157110362        3.1326686454       -1.8246935373
C         -3.7968271588        3.4574749420       -2.3997796024
C         -2.6859024971        3.6771838401       -1.6056005646
C         -1.0400851957        5.7479069773        1.8900955896
C         -1.2869805396        6.6206255499        2.9340079754
C         -2.3952248160        6.4438393017        3.7474064629
C         -3.2741107192        5.4050357990        3.4994787186
C         10.7444820460       -0.1642846721        0.3965593143
C         11.9442694421       -0.1729983124        0.4474180379
H          6.6663884010       -2.1510045435        0.9301635706
H          9.1219003938       -2.1757582188        1.0138290032
H          9.2132162213        1.8729901980       -0.3539392731
H          6.7589459203        1.8887409014       -0.4775326214
H          4.7610643176       -2.1582446047       -0.3349642345
H          4.7558539632        1.9284878355        0.6205719212
H          0.9507316418       -0.9396542620        1.5557864858
H         -1.1870165223       -2.1093930617        1.1685713313
H          0.3085621738       -3.6242014890       -2.5291426468
H          2.4627454367       -2.4770891766       -2.1300926886
H          2.4857111474        2.5304539826        2.0541654633
H          0.4693377616        3.8713445864        2.2285998916
H         -1.1414510815        1.8624280393       -1.1961372792
H          0.8838578163        0.5524596638       -1.3713482626
H         -4.1529252388       -7.4431060944       -1.0464458600
H         -2.3434422544       -8.6236840910        0.1659849282
H         -0.3102812857       -7.3590707142        0.8215403550
H         -0.1138510864       -4.9875769440        0.2863171026
H         -1.7632891583       -0.8505115799       -1.0644456454
H         -3.5822087945        0.6641658944       -1.6180496646
H         -5.8082890856       -0.2256138880       -2.2446962860
H         -6.1284910251       -2.6824561590       -2.3633772515
H         -6.0732606222        2.8212531759        0.0200629479
H         -5.8799234748        2.9557141687       -2.4452489215
H         -3.7105631558        3.5442892355       -3.4717149907
H         -1.7398612099        3.9474703920       -2.0493066269
H         -0.1885603682        5.8926556039        1.2429384511
H         -0.6143535272        7.4459934113        3.1081142522
H         -2.5851185266        7.1220930632        4.5641506873
H         -4.1536212330        5.2620673082        4.1078800452
H         12.9922962990       -0.1816687348        0.4916045442
