84
-133.84460453
C          6.5375265467        0.0085464416        0.1451080536
C          7.2589969798        1.0101566488       -0.5032865033
C          8.6378933255        0.9925508715       -0.4955012789
C          9.3262034131       -0.0311972997        0.1563841567
C          8.6037290881       -1.0339852400        0.8038718685
C          7.2248209385       -1.0122343905        0.8006190604
N          5.1394361796        0.0262390148        0.1351912745
C          4.3269230039       -1.0722335214        0.1467937681
C          3.0183177412       -0.6650189704        0.1150382569
C          3.0393863186        0.7655525384        0.0895959144
C          4.3554490158        1.1438336997        0.1027165818
C          1.8206133112       -1.4952044351        0.1616418064
C          0.7206123348       -1.1109244374        0.9262469904
C         -0.4324329870       -1.8641077881        0.9559387631
C         -0.5310543725       -3.0550724385        0.2315174603
C          0.5663728866       -3.4354999009       -0.5462128115
C          1.7163092847       -2.6735248290       -0.5720016914
C          1.8504781500        1.6087609553        0.0110578682
C          0.8748886601        1.3231157636       -0.9444096425
C         -0.3118771298        2.0245971940       -0.9682210956
C         -0.5494375942        3.0143864426       -0.0203929774
C          0.4370042339        3.3460141624        0.8977682584
C          1.6339445443        2.6531815151        0.9051138405
N         -1.7088065256       -3.7945853021        0.2267943171
C         -2.8772443445       -3.3683739927        0.8887761140
C         -4.0683557955       -3.2374112583        0.1766522782
S         -4.0864892335       -3.6379631049       -1.5540913421
C         -2.9571369650       -5.0079486411       -1.4602401205
C         -1.8844651266       -4.9404833381       -0.5729024304
N         -1.8114621185        3.6785628377        0.0337770224
C         -2.9046595506        2.9536916881        0.5007095035
C         -4.1632445250        3.5321984767        0.6923685110
S         -4.4483459137        5.2723397096        0.4925172102
C         -3.0405960427        5.7344592556       -0.4829776416
C         -1.9092039711        4.9210940283       -0.5836630895
C         -3.1566848245       -6.1270878767       -2.2519202613
C         -2.2852096303       -7.1970050485       -2.1578914911
C         -1.2397459133       -7.1591277968       -1.2486491178
C         -1.0474702405       -6.0460145781       -0.4509898752
C         -2.8926388691       -3.1385152791        2.2619025215
C         -4.0513871365       -2.7147664618        2.8871788703
C         -5.2177911716       -2.5423536921        2.1580761684
C         -5.2319414523       -2.8220555159        0.8036310135
C         -3.0992402392        6.9623555799       -1.1197376674
C         -2.0255138360        7.4256891646       -1.8599060072
C         -0.8961633404        6.6356841311       -1.9686209986
C         -0.8435220188        5.4004746118       -1.3491652193
C         -2.7759089813        1.5982318269        0.8168444484
C         -3.8526905761        0.8503790665        1.2565478421
C         -5.0997782304        1.4297005656        1.3937100087
C         -5.2443097263        2.7773300731        1.1150684568
C         10.7412330291       -0.0525206991        0.1592828995
C         11.9420118077       -0.0693098630        0.1617027754
H          6.7365646589        1.7936628870       -1.0296415481
H          9.1932952441        1.7677345667       -1.0015645596
H          9.1327771646       -1.8246513164        1.3141966883
H          6.6756555660       -1.7804239929        1.3223104140
H          4.7251864135       -2.0665742831        0.1635710182
H          4.7754760829        2.1293889377        0.0987183708
H          0.7681381856       -0.2062098236        1.5142100185
H         -1.2710085811       -1.5054922752        1.5317541178
H          0.5122983501       -4.3180864984       -1.1641994525
H          2.5420636223       -2.9865860251       -1.1942824054
H          1.0490612864        0.5353314844       -1.6616553811
H         -1.0720831265        1.7954297730       -1.7008531219
H          0.2529215627        4.1342802062        1.6126132479
H          2.3922423688        2.8940156787        1.6349544689
H         -3.9883008126       -6.1446332129       -2.9391118765
H         -2.4325008262       -8.0637081021       -2.7826307688
H         -0.5741304031       -8.0029408057       -1.1542826356
H         -0.2455935954       -6.0193835648        0.2709299257
H         -1.9879129515       -3.2913135803        2.8302430231
H         -4.0436741247       -2.5223017159        3.9487499307
H         -6.1191636805       -2.2057833372        2.6454287380
H         -6.1341016427       -2.7143051006        0.2218149668
H         -3.9950440424        7.5553810891       -1.0133389853
H         -2.0766963709        8.3892665317       -2.3409750896
H         -0.0471657910        6.9738892917       -2.5423724014
H          0.0411798449        4.7926838668       -1.4549079264
H         -1.8146722921        1.1194439074        0.7225402501
H         -3.7112687432       -0.1946317005        1.4871401450
H         -5.9459252240        0.8497670162        1.7249087944
H         -6.1975174256        3.2688961069        1.2386997812
H         12.9908919602       -0.0845530854        0.1623878280
