84
-133.84726580
C          6.2971154015       -0.0003883725       -0.0010249645
C          6.9999644902       -1.0621581474        0.5657695248
C          8.3792013362       -1.0638365276        0.5633943099
C          9.0840172449       -0.0002935239       -0.0013236572
C          8.3790169008        1.0630948135       -0.5661113693
C          6.9997792402        1.0613006350       -0.5682120402
N          4.8970454489       -0.0002088242       -0.0005213309
C          4.1004467979       -1.1030446648       -0.0902416256
C          2.7853252171       -0.7121327752       -0.0598964473
C          2.7857190653        0.7125849826        0.0609141067
C          4.1009667392        1.1029743423        0.0900192553
C          1.6172540555       -1.5841792225       -0.0684900705
C          1.5490777872       -2.6809831794       -0.9247171360
C          0.4324740204       -3.4953038441       -0.9388308545
C         -0.6299822265       -3.2301412664       -0.0860158978
C         -0.5620715320       -2.1539994359        0.7922869649
C          0.5499639535       -1.3373885312        0.7958755761
C          1.6179971317        1.5851674960        0.0703401487
C          0.5519249064        1.3409145172       -0.7962170122
C         -0.5597552846        2.1579640477       -0.7921618973
C         -0.6286808748        3.2316734973        0.0890488104
C          0.4324926482        3.4941754772        0.9442843808
C          1.5489612111        2.6796337686        0.9294427657
N         -1.7763852727       -4.0801416356       -0.1182298334
C         -1.7170673141       -5.2541924342        0.6258787248
C         -2.6900011755       -6.2537484137        0.5464165828
S         -4.0648172144       -6.1425087335       -0.5697781338
C         -4.0596276328       -4.4050776071       -0.9324267380
C         -2.9350659554       -3.6014417470       -0.7208432318
N         -1.7751976451        4.0815386713        0.1213280605
C         -1.7137988782        5.2580479794       -0.6187832415
C         -2.6894308582        6.2552486553       -0.5427637541
S         -4.0723077221        6.1374829266        0.5627165884
C         -4.0638121562        4.3997183673        0.9235558519
C         -2.9358432245        3.5994295786        0.7174520900
C         -5.2124219080       -3.8908449864       -1.5007504601
C         -5.2713503782       -2.5689396958       -1.9061031244
C         -4.1555764193       -1.7697775880       -1.7423845104
C         -3.0094166271       -2.2763204839       -1.1571702886
C         -0.6517566585       -5.4677584397        1.5040088438
C         -0.5551338764       -6.6245334952        2.2556249058
C         -1.5314357863       -7.5994659744        2.1690941274
C         -2.6020897371       -7.4021278133        1.3145526275
C         -5.2183194891        3.8816975101        1.4849472866
C         -5.2758479979        2.5593118262        1.8888952173
C         -4.1567698900        1.7635906690        1.7311838095
C         -3.0088079899        2.2738854187        1.1528111600
C         -0.6431984664        5.4767802363       -1.4892048342
C         -0.5439194026        6.6362366138       -2.2363225594
C         -1.5227334259        7.6089129090       -2.1530526030
C         -2.5986983226        7.4063909638       -1.3064493337
C         10.4992792529       -0.0000872033       -0.0010965995
C         11.7001415273        0.0003552464       -0.0008112375
H          6.4638310768       -1.8783554997        1.0242415773
H          8.9219373203       -1.8856184162        1.0054487102
H          8.9215995382        1.8848829056       -1.0083433963
H          6.4634866444        1.8774187756       -1.0266420147
H          4.5097359310       -2.0894418745       -0.1736531579
H          4.5106781138        2.0892234705        0.1731157475
H          2.3699487710       -2.8829005107       -1.5957833200
H          0.3755796007       -4.3401653957       -1.6089371236
H         -1.3838934089       -1.9663292693        1.4678545202
H          0.6020769013       -0.5056281468        1.4819411909
H          0.6047447802        0.5107853040       -1.4842054233
H         -1.3807094082        1.9723915245       -1.4693503653
H          0.3747952170        4.3371282607        1.6167144557
H          2.3689933912        2.8794600902        1.6021665086
H         -6.0570106261       -4.5493637017       -1.6375749179
H         -6.1720052817       -2.1798733728       -2.3534145694
H         -4.1710712401       -0.7407691453       -2.0671372062
H         -2.1510338262       -1.6339804309       -1.0440889522
H          0.1146442736       -4.7144142028        1.5937029452
H          0.2890677715       -6.7554249070        2.9148259167
H         -1.4662625569       -8.5033251610        2.7533646504
H         -3.3787184457       -8.1460356484        1.2196416445
H         -6.0655708594        4.5376845858        1.6174034797
H         -6.1779631062        2.1672882228        2.3306372195
H         -4.1710082197        0.7344019282        2.0554139539
H         -2.1479166068        1.6341031647        1.0444340571
H          0.1253203905        4.7253272717       -1.5764773230
H          0.3043820375        6.7709824451       -2.8894516493
H         -1.4555280898        8.5148594752       -2.7338468488
H         -3.3776318111        8.1482513294       -1.2144220011
H         12.7491604213        0.0006070209       -0.0002729796
