84
-133.84347535
C          6.2582542338       -0.0834638731        0.2883101999
C          6.9303660819        0.7990547738        1.1329361942
C          8.3072863333        0.7811497798        1.2060838291
C          9.0421533277       -0.1244416157        0.4399949513
C          8.3685919019       -1.0098639459       -0.4022382914
C          6.9919649728       -0.9871663647       -0.4792217658
N          4.8629868981       -0.0612562703        0.2104342298
C          4.0606690025       -1.1327859109       -0.0447590426
C          2.7478790869       -0.7284406311       -0.0355461734
C          2.7555964930        0.6796800906        0.2203665081
C          4.0712708236        1.0390115224        0.3731576542
C          1.5920534231       -1.5993488615       -0.2001875620
C          1.6239170085       -2.6472185228       -1.1191578841
C          0.5302720687       -3.4751000513       -1.2855830817
C         -0.6155332876       -3.2675133522       -0.5312931737
C         -0.6548358780       -2.2373089684        0.4019352041
C          0.4407899481       -1.4148742543        0.5670020013
C          1.6193167914        1.5914690938        0.2513034015
C          1.5760945947        2.6458686615        1.1606162623
C          0.5205093786        3.5322604835        1.1839363334
C         -0.5386219267        3.4112800087        0.2796575808
C         -0.5161394676        2.3298374354       -0.6059745024
C          0.5444915595        1.4496572182       -0.6237931566
N         -1.7455710212       -4.1183496438       -0.7338966798
C         -1.8874408433       -5.2171691329        0.1051390328
C         -2.8701548592       -6.1930079947       -0.0837591995
S         -3.9697558847       -6.1715061505       -1.4767760535
C         -3.7919002723       -4.4928618573       -2.0244826129
C         -2.7185849817       -3.6894450569       -1.6294547216
N         -1.6135822379        4.2924625561        0.3147137016
C         -1.7055690787        5.3424536815        1.2488513730
C         -2.8374533619        5.4553487003        2.0542176353
S         -4.1484746272        4.2694420991        1.8692122484
C         -4.0199431108        4.0937976740        0.1054500398
C         -2.7595460841        4.1333302865       -0.4886005129
C         -4.7502504383       -4.0249597829       -2.9070879837
C         -4.6574696021       -2.7513504110       -3.4409388481
C         -3.5935391707       -1.9482797785       -3.0750837904
C         -2.6442167267       -2.4078158094       -2.1805517197
C         -1.0219797623       -5.3839738142        1.1889209084
C         -1.1386911523       -6.4610197613        2.0485970402
C         -2.1333597889       -7.4024080424        1.8610288248
C         -2.9974998920       -7.2597079929        0.7892071107
C         -5.1641378084        3.9395046556       -0.6600765094
C         -5.0592722787        3.8321568336       -2.0349824191
C         -3.8162431557        3.9204616766       -2.6415553255
C         -2.6754289010        4.0853282405       -1.8773874827
C         -0.7188011592        6.3199296996        1.3436551351
C         -0.8307812171        7.3383112406        2.2723393940
C         -1.9406622753        7.4133902206        3.0992260780
C         -2.9551749390        6.4812480262        2.9776776542
C         10.4551168264       -0.1444330767        0.5159014873
C         11.6542198228       -0.1608128166        0.5795774784
H          6.3696274661        1.4883311979        1.7447196661
H          8.8249663941        1.4640383295        1.8626795715
H          8.9342610704       -1.7087557454       -0.9997423201
H          6.4813892764       -1.6607268226       -1.1496068749
H          4.4593459722       -2.1227601827       -0.1408796470
H          4.4896827502        2.0145775967        0.5185322049
H          2.5078947893       -2.8003473250       -1.7191083800
H          0.5531260855       -4.2806102139       -2.0044867569
H         -1.5473420470       -2.0880743510        0.9921901787
H          0.4091994638       -0.6203263612        1.2967380315
H          2.3751149718        2.7608778853        1.8782338261
H          0.5085357777        4.3094722992        1.9319234003
H         -1.3439477243        2.1592927652       -1.2760095918
H          0.5399290006        0.6370022382       -1.3352460653
H         -5.5619307977       -4.6819470212       -3.1812658678
H         -5.4042066827       -2.4011122830       -4.1353869893
H         -3.4955030380       -0.9534951632       -3.4817483548
H         -1.8240035655       -1.7641620743       -1.9052882502
H         -0.2413179488       -4.6586866370        1.3544966045
H         -0.4457406406       -6.5559359022        2.8703587148
H         -2.2361970271       -8.2418717583        2.5298302990
H         -3.7749127647       -7.9859067228        0.6051332135
H         -6.1243678633        3.8980250770       -0.1696895005
H         -5.9482564837        3.6981200554       -2.6307836548
H         -3.7337470354        3.8684467025       -3.7160951237
H         -1.7086426373        4.1759646269       -2.3485213466
H          0.1354921821        6.2680032714        0.6860900185
H         -0.0505574961        8.0798581992        2.3455644934
H         -2.0252939342        8.2048400646        3.8269754031
H         -3.8372553043        6.5337859316        3.5967953503
H         12.7016436574       -0.1758550361        0.6349321476
