84
-133.84855769
C          6.5530939072       -0.0001359372       -0.0013947680
C          7.2547189485        0.7313007091        0.9555725720
C          8.6339077932        0.7339879909        0.9566621691
C          9.3407490065       -0.0004808558        0.0039496241
C          8.6373731310       -0.7346518067       -0.9515518077
C          7.2581706824       -0.7316438523       -0.9557433774
N          5.1533363664       -0.0001463919       -0.0037313133
C          4.3577772080       -1.0396658137       -0.3912486781
C          3.0454305753       -0.6712124916       -0.2538527321
C          3.0447557519        0.6701062802        0.2426885555
C          4.3566986930        1.0390643629        0.3823408969
C          1.8390411601       -1.4180268402       -0.5942832382
C          0.8346040327       -0.7854438188       -1.3282949064
C         -0.3559008609       -1.4287112249       -1.5914721447
C         -0.5682376664       -2.7160062735       -1.1102741650
C          0.4388944155       -3.3706405064       -0.4148917348
C          1.6379370039       -2.7272351121       -0.1668672935
C          1.8380069448        1.4164710927        0.5828950138
C          1.6367021370        2.7258198120        0.1560713856
C          0.4383061250        3.3696420610        0.4061841030
C         -0.5679277323        2.7152822984        1.1030946418
C         -0.3556276461        1.4274476787        1.5828989171
C          0.8341517147        0.7837490210        1.3175691635
N         -1.8219262041       -3.3647757758       -1.3220011513
C         -1.9089425350       -4.2486384245       -2.3932130078
C         -3.0482836466       -5.0108665581       -2.6635350940
S         -4.4968866830       -4.9485848796       -1.6409523903
C         -4.1872708034       -3.4781500202       -0.6973800815
C         -2.9169637813       -2.9019611430       -0.5979912258
N         -1.8200882988        3.3656351451        1.3189036954
C         -1.9028014668        4.2472689124        2.3923882311
C         -3.0397310346        5.0117985299        2.6662920962
S         -4.4892659946        4.9561611600        1.6446694767
C         -4.1873637283        3.4828626789        0.7030632672
C         -2.9186906537        2.9037733613        0.5996589305
C         -5.2666537339       -2.9595525212       -0.0023746179
C         -5.1100627959       -1.8744886015        0.8419908516
C         -3.8513530727       -1.3258184137        0.9948322876
C         -2.7756069357       -1.8293121561        0.2866179836
C         -0.8220689280       -4.3983151971       -3.2583719476
C         -0.8603189310       -5.2776662097       -4.3249721424
C         -1.9956302100       -6.0255400248       -4.5749906957
C         -3.0906966366       -5.8785585512       -3.7417390201
C         -5.2706560871        2.9652766789        0.0134453596
C         -5.1196384485        1.8784626442       -0.8296976541
C         -3.8626340058        1.3270766195       -0.9868632504
C         -2.7829974446        1.8294944063       -0.2838186252
C         -0.8141217047        4.3921797945        3.2560733411
C         -0.8485069696        5.2690464296        4.3248444133
C         -1.9816643179        6.0189084899        4.5786852340
C         -3.0784327767        5.8767313953        3.7468410654
C         10.7559959172       -0.0008417346        0.0069598873
C         11.9568591499       -0.0010692703        0.0098748930
H          6.7177413831        1.2844353193        1.7101858418
H          9.1750975657        1.2992826830        1.7002359797
H          9.1812647764       -1.3000944331       -1.6930376647
H          6.7239248260       -1.2846828243       -1.7123682340
H          4.7679016168       -1.9693684643       -0.7299800581
H          4.7658087519        1.9689535559        0.7217765859
H          0.9943743790        0.2175235405       -1.6941136319
H         -1.1347284219       -0.9364484577       -2.1556565171
H          0.2720835206       -4.3780429628       -0.0638254644
H          2.4141063663       -3.2303294415        0.3896713286
H          2.4123483407        3.2288844857       -0.4012238897
H          0.2714997178        4.3773596809        0.0560312622
H         -1.1337105066        0.9353510578        2.1482547576
H          0.9940338986       -0.2194788288        1.6826406832
H         -6.2299926219       -3.4322943766       -0.1218948702
H         -5.9569578710       -1.4783154891        1.3788704605
H         -3.6997126672       -0.4926203939        1.6637142362
H         -1.8045490761       -1.3830581824        0.4271367377
H          0.0693021530       -3.8158572922       -3.0881193529
H          0.0051552364       -5.3699193065       -4.9627295666
H         -2.0360684994       -6.7133260462       -5.4043375304
H         -3.9936238608       -6.4461210516       -3.9096838615
H         -6.2325330256        3.4401980785        0.1360422687
H         -5.9695143590        1.4830810382       -1.3624380362
H         -3.7153355844        0.4925385110       -1.6550499908
H         -1.8133975525        1.3811182076       -0.4276223931
H          0.0755943406        3.8080500261        3.0829306192
H          0.0182917774        5.3577549871        4.9613060071
H         -2.0190614174        6.7046846771        5.4098377557
H         -3.9796659915        6.4461319132        3.9176076260
H         13.0058706627       -0.0012746940        0.0121532590
