84
-133.84538023
C          6.3766872378       -0.1300623309        0.1942848563
C          7.1111587668        0.8119324999       -0.5249474862
C          8.4888527017        0.8139238465       -0.4662968993
C          9.1627946753       -0.1305209392        0.3088640298
C          8.4271698790       -1.0736905150        1.0273796050
C          7.0492921691       -1.0712137050        0.9727500273
N          4.9805212622       -0.1326706642        0.1330827501
C          4.1810353150       -1.2340530064        0.2312610312
C          2.8712637459       -0.8499693231        0.1026059496
C          2.8710155798        0.5722486046       -0.0579320955
C          4.1858426791        0.9639716030       -0.0436255276
C          1.6953695109       -1.7115575816        0.0901587428
C          1.5247715982       -2.7068600444        1.0493610878
C          0.3636034744       -3.4559693377        1.0869693745
C         -0.6369525445       -3.2263143896        0.1531594906
C         -0.4536312612       -2.2751708652       -0.8441545222
C          0.7024812132       -1.5236757158       -0.8721014184
C          1.6974183128        1.4291450275       -0.1575950283
C          1.6921878016        2.5627869936       -0.9661280752
C          0.5652103792        3.3475591871       -1.0965609102
C         -0.6196163744        3.0170599630       -0.4332035695
C         -0.5905542825        1.9265363814        0.4417138620
C          0.5418159756        1.1537383706        0.5725238616
N         -1.8654782189       -3.9502327959        0.2384576487
C         -2.9427278658       -3.3028434566        0.8328432420
C         -4.1862411383       -3.9117127871        1.0261648956
S         -4.5023921319       -5.6072374840        0.6072007894
C         -3.0440559782       -6.0288493326       -0.3118019904
C         -1.9272955738       -5.1916727498       -0.3815445841
N         -1.7669560021        3.7901571557       -0.5651358890
C         -1.8087515380        4.9866257850       -1.3069760943
C         -2.2798917633        6.1530401538       -0.7061802934
S         -2.8492034891        6.0866868344        0.9761309010
C         -3.5894264832        4.4739120892        0.8776959811
C         -2.9645805777        3.4908769425        0.1123959979
C         -3.0575245341       -7.2575435192       -0.9498703971
C         -1.9576661058       -7.6958538298       -1.6667584138
C         -0.8436249121       -6.8815821380       -1.7459654432
C         -0.8322374772       -5.6489352436       -1.1191432954
C         -2.8041712045       -1.9857731130        1.2801986267
C         -3.8519144474       -1.3053059039        1.8731053092
C         -5.0825579976       -1.9146207994        2.0291502967
C         -5.2393578334       -3.2221122289        1.6031909033
C         -4.7760742477        4.2119496064        1.5426892495
C         -5.3579048974        2.9614181435        1.4385451880
C         -4.7691735082        1.9887048079        0.6456274961
C         -3.5866540718        2.2524116889       -0.0207208109
C         -1.4599428768        5.0256983485       -2.6541473126
C         -1.4999334279        6.2187588885       -3.3524944948
C         -1.9179451672        7.3829533498       -2.7275984123
C         -2.3297788592        7.3463707502       -1.4077397020
C         10.5768298212       -0.1321184906        0.3648339859
C         11.7767806221       -0.1362519435        0.4123206367
H          6.5995564975        1.5321761954       -1.1441120280
H          9.0549969887        1.5423836048       -1.0269184824
H          8.9451475387       -1.8022896671        1.6326174789
H          6.4886853092       -1.7911692457        1.5482662837
H          4.5895443464       -2.2214124205        0.3114580852
H          4.5961916611        1.9530767328       -0.0787495352
H          2.2940047197       -2.8683493605        1.7893150997
H          0.2181764261       -4.2096584854        1.8466121867
H         -1.2294976089       -2.1212170746       -1.5796690931
H          0.8404148514       -0.7751545993       -1.6372658678
H          2.5846999760        2.8297913313       -1.5126357961
H          0.6160748472        4.2341299916       -1.7085116184
H         -1.4544922681        1.6934379106        1.0447145105
H          0.5350586229        0.3287143039        1.2694368558
H         -3.9430628057       -7.8698237676       -0.8675649925
H         -1.9777453014       -8.6584046855       -2.1521663245
H          0.0264293300       -7.1989371811       -2.2997564693
H          0.0437280384       -5.0248162727       -1.1981279408
H         -1.8551511399       -1.4866708234        1.1680771916
H         -3.6964449265       -0.2921797432        2.2114304652
H         -5.9083346496       -1.3912860436        2.4841195571
H         -6.1823025513       -3.7337528974        1.7252621845
H         -5.2281186959        4.9888862868        2.1394808945
H         -6.2768160079        2.7532209075        1.9634230845
H         -5.2332823758        1.0203746031        0.5390547447
H         -3.1315493330        1.4991248342       -0.6455010218
H         -1.1584739657        4.1136712242       -3.1459724512
H         -1.2101831215        6.2366145631       -4.3916343040
H         -1.9426127471        8.3143954479       -3.2706849421
H         -2.6848918021        8.2353026713       -0.9099777152
H         12.8250119258       -0.1371281369        0.4523021916
