84
-133.84376733
C          6.3165105019        0.0324914807       -0.1710919545
C          7.0344205855       -0.9750429317        0.4719906366
C          8.4130853257       -0.9737605722        0.4454756416
C          9.1043503671        0.0390687966       -0.2204673729
C          8.3852376432        1.0486701689       -0.8611588750
C          7.0064069487        1.0434564609       -0.8389006530
N          4.9191789919        0.0283659652       -0.1466172226
C          4.1246466716       -1.0811428421       -0.1024306076
C          2.8074616235       -0.6961849747       -0.0904719599
C          2.8043320666        0.7346403749       -0.1122077626
C          4.1173674382        1.1311635071       -0.1610883547
C          1.6529486585       -1.5839288795       -0.1257925362
C          1.6477210304       -2.7849427652        0.5797556259
C          0.5683791234       -3.6416081539        0.5326532693
C         -0.5558060580       -3.3388088705       -0.2411251528
C         -0.5684295300       -2.1149118065       -0.9163154789
C          0.5163459554       -1.2664309726       -0.8668027059
C          1.6424956537        1.6111877913       -0.0398962670
C          0.5922230486        1.3229238795        0.8325996250
C         -0.5220424513        2.1346245843        0.8848048373
C         -0.6070817983        3.2501708461        0.0586659330
C          0.4428769558        3.5632378749       -0.7928758660
C          1.5605633265        2.7515409852       -0.8363581112
N         -1.6537449368       -4.1912449249       -0.2749117985
C         -2.8540321411       -3.8661395466       -0.9364057913
C         -4.0612613703       -3.9142092718       -0.2411546826
S         -4.0553605099       -4.4120775828        1.4647536740
C         -2.7733865000       -5.6346177016        1.3183559308
C         -1.7054819307       -5.3940630079        0.4556761902
N         -1.7669905698        4.0833605821        0.0703179633
C         -2.8994637475        3.6314052113       -0.5984799362
C         -4.0418311354        4.4199190125       -0.7659623628
S         -4.1128676047        6.1126816180       -0.2376712653
C         -2.7447690470        6.1743008640        0.8903929236
C         -1.7439778902        5.1991958095        0.8994171292
C         -2.8512149651       -6.8119156072        2.0443318412
C         -1.8611287807       -7.7679246196        1.9075586634
C         -0.8179185470       -7.5599360194        1.0189206693
C         -0.7464823621       -6.3890392615        0.2868526113
C         -2.8792347842       -3.5641636423       -2.2952502746
C         -4.0710260136       -3.2400523479       -2.9175302624
C         -5.2581802622       -3.2420230583       -2.2022747184
C         -5.2568460057       -3.5996845933       -0.8662570804
C         -2.6915035498        7.2634743031        1.7432107718
C         -1.6293056662        7.4261227556        2.6155253576
C         -0.6244351398        6.4769007275        2.6312205631
C         -0.6856083568        5.3782512913        1.7935708149
C         -2.9264844097        2.3476705407       -1.1494892842
C         -4.0423381105        1.8656297199       -1.8091866977
C         -5.1745262215        2.6483097010       -1.9353861974
C         -5.1640269873        3.9290866278       -1.4111347413
C         10.5192780466        0.0415855458       -0.2455539827
C         11.7200221467        0.0444941473       -0.2651866943
H          6.5087327717       -1.7502899201        1.0072309438
H          8.9665023670       -1.7534888490        0.9466761641
H          8.9167662868        1.8311840659       -1.3813470401
H          6.4588379173        1.8164654249       -1.3550994880
H          4.5376882215       -2.0685606943       -0.1507856614
H          4.5230694776        2.1224703723       -0.1297178459
H          2.4976091680       -3.0435073668        1.1941710082
H          0.5909557355       -4.5420127437        1.1263990513
H         -1.4410418913       -1.8097989282       -1.4718903188
H          0.4818474699       -0.3398687766       -1.4206106306
H          0.6547194577        0.4548534271        1.4710488202
H         -1.3358471057        1.9079275790        1.5582378599
H          0.3729448006        4.4388600004       -1.4210663770
H          2.3698048594        2.9870990638       -1.5106966036
H         -3.6829890396       -6.9631653429        2.7147066987
H         -1.9138697563       -8.6791662804        2.4820318824
H         -0.0588935476       -8.3156434544        0.8893528504
H          0.0544554143       -6.2308242996       -0.4190981713
H         -1.9567836958       -3.5841573106       -2.8552035143
H         -4.0723594534       -2.9916965089       -3.9675783030
H         -6.1866537571       -2.9834997971       -2.6864144218
H         -6.1730981222       -3.6319756860       -0.2973643517
H         -3.4889701413        7.9899996299        1.7010976463
H         -1.5921159968        8.2842365631        3.2672940866
H          0.2151649232        6.5823197846        3.3008382993
H          0.1034076511        4.6437686502        1.8268563259
H         -2.0551142534        1.7183603248       -1.0647515118
H         -4.0196322227        0.8687006853       -2.2218976279
H         -6.0514964497        2.2785329657       -2.4419571556
H         -6.0236930577        4.5745938250       -1.5106978061
H         12.7688438908        0.0445858553       -0.2844461386
