84
-133.84694137
C          6.2366307822        0.0048039093       -0.0111208475
C          6.9385154181        1.1414573407       -0.4084807685
C          8.3177706949        1.1430561278       -0.4079286562
C          9.0233937336        0.0052741451       -0.0150549296
C          8.3192674608       -1.1327671730        0.3797597567
C          6.9400234841       -1.1316377252        0.3841831640
N          4.8364238379        0.0045467012       -0.0091053766
C          4.0399193171       -1.0706877530       -0.2667623345
C          2.7235240529       -0.6906446981       -0.1758667330
C          2.7237714667        0.6986109917        0.1639926235
C          4.0400645788        1.0794125886        0.2510473738
C          1.5686133208       -1.5668504456       -0.3268378924
C          0.4726872419       -1.4546746562        0.5298180840
C         -0.6185166112       -2.2877504663        0.3896886159
C         -0.6312718514       -3.2519840632       -0.6122011656
C          0.4581217960       -3.3829981935       -1.4614716270
C          1.5493414406       -2.5475338593       -1.3168449971
C          1.5683432518        1.5735779382        0.3193327327
C          1.5456753860        2.5454038286        1.3178922040
C          0.4521732826        3.3767981653        1.4685981958
C         -0.6352824046        3.2516394317        0.6157766882
C         -0.6177198195        2.2981732537       -0.3963152580
C          0.4748620638        1.4677225307       -0.5411175446
N         -1.7543149004       -4.1187220668       -0.7815700242
C         -2.8404780016       -3.6375202077       -1.5034371864
C         -3.9292027764       -4.4395494131       -1.8574991814
S         -3.9840898346       -6.1768648731       -1.4983573623
C         -2.7202268814       -6.3071659016       -0.2588935700
C         -1.7580513223       -5.3117543479       -0.0680036590
N         -1.7610683063        4.1135349801        0.7904463595
C         -2.8665101175        3.6088621211        1.4656805987
C         -3.9682860729        4.3974024561        1.8100877846
S         -4.0182860209        6.1454068240        1.5071077123
C         -2.7072606088        6.3243090326        0.3242526710
C         -1.7407925213        5.3346042914        0.1260569921
C         -2.7024865366       -7.4727712286        0.4876721691
C         -1.7125617416       -7.6935476268        1.4295635876
C         -0.7414989255       -6.7281597053        1.6188310419
C         -0.7683561803       -5.5546559993        0.8875208697
C         -2.8710956899       -2.3028445367       -1.9148722219
C         -3.9379083409       -1.7900548329       -2.6300892771
C         -5.0169167665       -2.5924381127       -2.9501655675
C         -5.0039885050       -3.9197636788       -2.5582025114
C         -2.6607558944        7.5201691767       -0.3716040740
C         -1.6385751317        7.7764948570       -1.2689257851
C         -0.6655594817        6.8149381185       -1.4673070104
C         -0.7206078799        5.6120279113       -0.7871751541
C         -2.9043555676        2.2633513312        1.8398248374
C         -3.9915467843        1.7267042095        2.5051445205
C         -5.0841665149        2.5156173806        2.8119913060
C         -5.0630209902        3.8540371900        2.4603184321
C         10.4386528151        0.0055330407       -0.0168857778
C         11.6395054893        0.0042465640       -0.0170558975
H          6.4017235996        2.0184487325       -0.7348859763
H          8.8598493108        2.0233082986       -0.7187164210
H          8.8625253786       -2.0128076268        0.6890786291
H          6.4044884544       -2.0088544553        0.7120437153
H          4.4495791920       -2.0325201732       -0.5002089743
H          4.4497495248        2.0414770338        0.4835180695
H          0.4846577791       -0.7146095840        1.3154255500
H         -1.4661918336       -2.2008346741        1.0536049333
H          0.4409565628       -4.1382911042       -2.2329671004
H          2.3901963099       -2.6427829757       -1.9866120486
H          2.3852315914        2.6360934322        1.9899424953
H          0.4319677489        4.1248489864        2.2470565956
H         -1.4633445524        2.2164843779       -1.0634885679
H          0.4899766695        0.7346190854       -1.3331964198
H         -3.4686897973       -8.2116646143        0.3070968161
H         -1.7030436946       -8.6094167602        1.9984955033
H          0.0445522569       -6.8799915532        2.3423373045
H         -0.0047915232       -4.8116494444        1.0540083972
H         -2.0400235753       -1.6592502710       -1.6749844064
H         -3.9200677957       -0.7546811877       -2.9337305717
H         -5.8553859459       -2.2005139521       -3.5033690818
H         -5.8235255004       -4.5774266861       -2.8063096056
H         -3.4311806656        8.2536029178       -0.1867328509
H         -1.6068141319        8.7157549985       -1.7974678720
H          0.1439901713        6.9927773442       -2.1582288102
H          0.0442157903        4.8720904627       -0.9614291843
H         -2.0627845627        1.6295262521        1.6110334082
H         -3.9786389400        0.6833698348        2.7805055514
H         -5.9389351310        2.1050022063        3.3252453780
H         -5.8922920680        4.5020311639        2.7014791056
H         12.6885210534        0.0040778579       -0.0185928021
