84
-133.84494731
C          6.5508299283       -0.0789195387        0.1879046521
C          7.2142745320       -1.2564448945        0.5307909089
C          8.5920879414       -1.2932993165        0.5730170654
C          9.3372568459       -0.1508426413        0.2788876531
C          8.6727556490        1.0277937090       -0.0620179223
C          7.2950611855        1.0620617464       -0.1098649132
N          5.1546310176       -0.0424804198        0.1437231646
C          4.3379322724       -1.0885741711       -0.1823063575
C          3.0322541565       -0.6761083901       -0.1192754462
C          3.0588788213        0.6956367601        0.2877400952
C          4.3764035415        1.0449401228        0.4212840277
C          1.8330670320       -1.4331290241       -0.4568715584
C          0.7925207989       -0.8305949076       -1.1618008524
C         -0.3643474826       -1.5157615267       -1.4605435261
C         -0.5271809933       -2.8505248406       -1.0794882988
C          0.5092824501       -3.4522107279       -0.3601146809
C          1.6645315178       -2.7578596705       -0.0647101653
C          1.8695516584        1.5017318326        0.5406681043
C          1.7007014529        2.7581595709       -0.0340384530
C          0.5038954997        3.4373493794        0.1033838352
C         -0.5314466651        2.8747176135        0.8365476000
C         -0.3442708828        1.6563105087        1.4807223335
C          0.8433902399        0.9737846758        1.3249100047
N         -1.7122477159       -3.5286246380       -1.3431949273
C         -2.8189039557       -2.9126439050       -1.9603512684
C         -4.0607210527       -2.9241707837       -1.3273757324
S         -4.2190728297       -3.7373639783        0.2441627394
C         -3.1058266054       -5.0787462748       -0.1060267970
C         -1.9669949495       -4.8306352004       -0.8703800726
N         -1.7906309661        3.5433265819        0.9007605990
C         -1.9299059088        4.5602837692        1.8393431650
C         -3.0556910646        5.3847842060        1.9064192120
S         -4.3968963857        5.2404009153        0.7542367262
C         -4.0984643809        3.6208373941        0.0929748363
C         -2.8525802956        2.9929922995        0.1880577052
C         -3.3830913881       -6.3513541803        0.3657648021
C         -2.5239331541       -7.3940461034        0.0696925146
C         -1.4120569238       -7.1685866849       -0.7265211083
C         -1.1416236323       -5.9000200956       -1.2061019671
C         -2.7222308358       -2.3476432712       -3.2292440261
C         -3.8226623452       -1.7462109927       -3.8126663305
C         -5.0414173703       -1.7248008711       -3.1522956196
C         -5.1660944449       -2.3305716193       -1.9151251287
C         -5.1509823402        3.0302465107       -0.5857167563
C         -4.9874578198        1.8119027774       -1.2209427823
C         -3.7498659686        1.1984953068       -1.1784915359
C         -2.7027491466        1.7773901915       -0.4853989643
C         -0.9148818871        4.7868543912        2.7719400586
C         -1.0103416007        5.7949425149        3.7136843938
C         -2.1340810249        6.5985182732        3.7674389864
C         -3.1583245941        6.3807735953        2.8624510308
C         10.7511469039       -0.1869712763        0.3262891666
C         11.9509830091       -0.2175563077        0.3672855713
H          6.6463248856       -2.1389099145        0.7808582117
H          9.1027130526       -2.2057643297        0.8416681168
H          9.2461463076        1.9122656030       -0.2953129870
H          6.7911665358        1.9723080744       -0.3950939345
H          4.7337742657       -2.0321599447       -0.4999192160
H          4.7991968749        1.9685632163        0.7621899638
H          0.8908824336        0.1946737588       -1.4868975858
H         -1.1569553032       -0.9956840409       -1.9751230179
H          0.4018292423       -4.4625402185        0.0023058687
H          2.4421191239       -3.2463843845        0.5043092167
H          2.4972554171        3.1835530970       -0.6257530604
H          0.3577968682        4.3966793189       -0.3705220367
H         -1.1432558994        1.2413994262        2.0779474949
H          0.9794689920        0.0149056405        1.8016887836
H         -4.2653450680       -6.5097252365        0.9663240471
H         -2.7322148939       -8.3826764447        0.4470323252
H         -0.7550730285       -7.9853555848       -0.9819277624
H         -0.2875793497       -5.7238873855       -1.8420601355
H         -1.7765259770       -2.3813502266       -3.7483230663
H         -3.7284322723       -1.2963061064       -4.7887236659
H         -5.8973224226       -1.2503276510       -3.6056868503
H         -6.1099625513       -2.3417279175       -1.3926301984
H         -6.0959650086        3.5510898215       -0.6222515934
H         -5.8110106819        1.3599535905       -1.7497020737
H         -3.5930671461        0.2572855413       -1.6830511704
H         -1.7482615782        1.2764391658       -0.4723991719
H         -0.0359151412        4.1620513934        2.7524510140
H         -0.1994949639        5.9438823467        4.4098969633
H         -2.2186209612        7.3853243488        4.4997710789
H         -4.0479709891        6.9921630194        2.8758598076
H         12.9990075299       -0.2440357217        0.4032884203
