84
-133.84718457
C          6.2539683258        0.0001669415       -0.0007704857
C          6.9566873045        1.1366395535       -0.3975015207
C          8.3358950976        1.1383080551       -0.3950903708
C          9.0411684035        0.0006275910       -0.0013314051
C          8.3364638028       -1.1372818065        0.3927284329
C          6.9572341738       -1.1360589545        0.3956790287
N          4.8539877210       -0.0000063917       -0.0005444081
C          4.0574511718       -1.0778824417       -0.2509257397
C          2.7421508532       -0.6958468614       -0.1644095174
C          2.7421037449        0.6956699322        0.1633723435
C          4.0573604706        1.0778095117        0.2498556214
C          1.5775230222       -1.5633818504       -0.2905376849
C          0.5185620379       -1.4513982849        0.6109624974
C         -0.5800856232       -2.2803217342        0.5130552590
C         -0.6456587919       -3.2292756775       -0.5015259145
C          0.4046755553       -3.3537276594       -1.4007495056
C          1.5098329763       -2.5314520499       -1.2901598865
C          1.5774154338        1.5631494932        0.2894963966
C          1.5092309174        2.5305693397        1.2897039064
C          0.4039394530        3.3526516726        1.4003468985
C         -0.6460091068        3.2287144339        0.5005951585
C         -0.5798211346        2.2805645556       -0.5147009675
C          0.5189320381        1.4517717684       -0.6126299832
N         -1.7721986364       -4.0968791958       -0.6238113300
C         -2.9706147665       -3.5660649816       -1.0899087153
C         -4.0872580909       -4.3605341581       -1.3683301812
S         -4.0345120131       -6.1328044465       -1.2899510728
C         -2.5966395932       -6.3791706349       -0.2803360870
C         -1.6468492713       -5.3735850848       -0.0838898358
N         -1.7726426156        4.0960960617        0.6233349588
C         -2.9713271074        3.5650200769        1.0884599722
C         -4.0870704265        4.3598424050        1.3694856322
S         -4.0323259026        6.1322761614        1.2960943561
C         -2.5957753968        6.3795435455        0.2848168262
C         -1.6469830367        5.3736107866        0.0854037173
C         -2.4387935321       -7.6344443868        0.2820061233
C         -1.3206923698       -7.9326014376        1.0410386790
C         -0.3689934069       -6.9508540160        1.2448635264
C         -0.5348503349       -5.6905957802        0.7003070346
C         -3.0965130219       -2.1929678393       -1.3150955957
C         -4.2839767936       -1.6362665718       -1.7541917331
C         -5.3910004594       -2.4327872143       -1.9788070197
C         -5.2808207708       -3.7991119625       -1.7887046820
C         -2.4377525865        7.6356573754       -0.2755849122
C         -1.3204255333        7.9342359031       -1.0355954131
C         -0.3697374265        6.9521192702       -1.2423901713
C         -0.5357950313        5.6910616850       -0.6997497732
C         -3.0984947170        2.1914377988        1.3098944472
C         -4.2863543428        1.6347439838        1.7479303070
C         -5.3924927457        2.4317543086        1.9751733921
C         -5.2810411154        3.7984876753        1.7887742577
C         10.4564050927        0.0011427785       -0.0018896276
C         11.6572675058        0.0023036198       -0.0029878882
H          6.4206563430        2.0137416359       -0.7247875225
H          8.8782963476        2.0186348853       -0.7051371731
H          8.8792312129       -2.0174705019        0.7025276215
H          6.4216165294       -2.0133487999        0.7231449604
H          4.4663755732       -2.0416041716       -0.4776964863
H          4.4661967993        2.0415659345        0.4766382051
H          0.5689201002       -0.7191416366        1.4025128239
H         -1.3916345839       -2.2022890211        1.2217829868
H          0.3493822184       -4.0998378529       -2.1794637148
H          2.3229823282       -2.6266359801       -1.9935013012
H          2.3220645419        2.6253586597        1.9934654276
H          0.3481999253        4.0981900483        2.1795797104
H         -1.3909335957        2.2030607003       -1.2239852162
H          0.5697788822        0.7200980908       -1.4046919224
H         -3.1998712384       -8.3786947084        0.1019341745
H         -1.2011195662       -8.9176062732        1.4629949257
H          0.5100323998       -7.1578547776        1.8354640121
H          0.2134133472       -4.9355346842        0.8814747217
H         -2.2461021193       -1.5507401195       -1.1527069861
H         -4.3382486657       -0.5706600504       -1.9159002523
H         -6.3238459964       -2.0061124540       -2.3110055832
H         -6.1172607853       -4.4536502698       -1.9827711846
H         -3.1980036020        8.3801886936       -0.0932080944
H         -1.2006462364        8.9198765868       -1.4560059092
H          0.5086429144        7.1594940591       -1.8338195145
H          0.2116307012        4.9357045966       -0.8831640175
H         -2.2487906404        1.5488027202        1.1454359815
H         -4.3416475538        0.5687470945        1.9067096519
H         -6.3256283676        2.0050954452        2.3065812159
H         -6.1167396573        4.4533255148        1.9850100442
H         12.7062836348        0.0033262809       -0.0036450504
