84
-133.84500014
C          6.3542488399        0.0488955646       -0.1243136273
C          7.0798023051        1.1686203726       -0.5291584365
C          8.4586217663        1.1439613563       -0.5271214591
C          9.1425239601       -0.0040940123       -0.1258146556
C          8.4158393385       -1.1253120353        0.2761619973
C          7.0370300886       -1.0976363663        0.2796661579
N          4.9561222948        0.0758432281       -0.1239217075
C          4.1359149236       -0.9915195838       -0.3539720706
C          2.8283741093       -0.5823092985       -0.2813649483
C          2.8592774931        0.8165172524        0.0189412929
C          4.1798113750        1.1741331592        0.1055071378
C          1.6398293858       -1.4147135223       -0.4142531407
C          1.5870320106       -2.4643570265       -1.3276772100
C          0.4508763733       -3.2327670929       -1.4748609212
C         -0.6959610893       -2.9694966611       -0.7208810790
C         -0.6190704525       -1.9636834602        0.2474137914
C          0.5223058362       -1.2065877528        0.3929961935
C          1.6994597225        1.6894203026        0.1602306767
C          1.5959032648        2.5772966564        1.2282458365
C          0.4548187499        3.3377708157        1.4024732391
C         -0.5924180797        3.2294219293        0.4980515067
C         -0.4776929433        2.3874219738       -0.6021952866
C          0.6582191281        1.6222086857       -0.7658986498
N         -1.8486006133       -3.7333853897       -0.8615474931
C         -1.9281705254       -4.8568137473       -1.7072993532
C         -2.3537488286       -6.0796304448       -1.1906387313
S         -2.8161532671       -6.1773805681        0.5226305695
C         -3.5711117884       -4.5715727084        0.6224564633
C         -3.0030320402       -3.5139212462       -0.0855035904
N         -1.7975788921        3.9642587761        0.7164316359
C         -1.8387800033        5.2811710478        0.2763331790
C         -2.9296186606        6.1282775616        0.4894480808
S         -4.3867763518        5.6170819316        1.3635518079
C         -4.0934291632        3.8791851202        1.5725692286
C         -2.8705614385        3.2737038637        1.2685265129
C         -4.7143330843       -4.3874786403        1.3828124775
C         -5.3101408692       -3.1402058081        1.4327085778
C         -4.7801771332       -2.0909762850        0.6980402392
C         -3.6407828246       -2.2765078982       -0.0631790910
C         -1.6615693908       -4.7664208677       -3.0706543713
C         -1.7377096714       -5.8896208332       -3.8739686511
C         -2.1102986434       -7.1115604325       -3.3366861368
C         -2.4398362967       -7.2029717998       -1.9965237875
C         -5.1438582819        3.1467387463        2.0996578096
C         -5.0047702139        1.7952796145        2.3636393591
C         -3.7931853749        1.1855569300        2.0985960374
C         -2.7482080928        1.9113407387        1.5567648027
C         -0.7487031877        5.8088663500       -0.4206764993
C         -0.7373977889        7.1175118120       -0.8675607793
C         -1.8235365368        7.9422332702       -0.6429846485
C         -2.9199674813        7.4353393973        0.0326335970
C         10.5574506146       -0.0308761142       -0.1265719678
C         11.7581497904       -0.0531728427       -0.1277339632
H          6.5607192020        2.0536552182       -0.8624899238
H          9.0173829114        2.0117610195       -0.8436036540
H          8.9414230752       -2.0137887732        0.5921447757
H          6.4847396402       -1.9622412773        0.6133661796
H          4.5279520267       -1.9662048629       -0.5633646960
H          4.6065678119        2.1331160621        0.3201084163
H          2.4491787412       -2.6779598663       -1.9422664609
H          0.4659196297       -4.0561269755       -2.1712912036
H         -1.4505654925       -1.7874579243        0.9121272185
H          0.5537961866       -0.4499049940        1.1629680740
H          2.4024550966        2.6446394900        1.9426680938
H          0.3621668661        4.0075895956        2.2445571533
H         -1.2902076019        2.3269838196       -1.3112566967
H          0.7429266209        0.9570626539       -1.6116401845
H         -5.1219114457       -5.2221074345        1.9318347275
H         -6.1949521702       -2.9932933209        2.0316996463
H         -5.2577438814       -1.1233992892        0.7106330904
H         -3.2318030426       -1.4629262505       -0.6426926100
H         -1.3946194730       -3.8093243866       -3.4917586133
H         -1.5117748262       -5.8074803996       -4.9257713621
H         -2.1633737305       -7.9885136484       -3.9622123439
H         -2.7578572897       -8.1385941423       -1.5634386189
H         -6.0707475663        3.6585438622        2.3112920805
H         -5.8287947654        1.2380166078        2.7798457975
H         -3.6498045353        0.1371638629        2.3115192711
H         -1.8139033955        1.4111492258        1.3589486589
H          0.1052555307        5.1788064797       -0.6124125204
H          0.1282882013        7.4863044411       -1.3957170338
H         -1.8254422867        8.9643247675       -0.9862201175
H         -3.7854876086        8.0523565910        0.2224922016
H         12.8069603157       -0.0726622420       -0.1285408490
