84
-133.84032133
C          6.1989466382        0.1368489484        0.0777635382
C          6.8872234017        1.1866621736       -0.5302374476
C          8.2655711566        1.2179870825       -0.5168631817
C          8.9884132708        0.1961666345        0.0999548309
C          8.2999266063       -0.8555819733        0.7056662512
C          6.9214471449       -0.8828726982        0.6971437164
N          4.8033999202        0.1068018075        0.0659014887
C          4.0271480356       -1.0167037505        0.0623841987
C          2.7037034275       -0.6548888166        0.0399337161
C          2.6726894938        0.7767472485        0.0499327116
C          3.9792372792        1.1956619345        0.0534237036
C          1.5693442839       -1.5656235044       -0.0359882962
C          1.5773101931       -2.7820828015        0.6421447734
C          0.4989194323       -3.6406361180        0.5929647005
C         -0.6486690537       -3.3089209212       -0.1318425704
C         -0.6276427904       -2.1232991095       -0.8728108055
C          0.4549591139       -1.2728338710       -0.8200644445
C          1.4980455929        1.6370588573        0.0990868228
C          1.4623445454        2.8448623189       -0.5933520770
C          0.3441176958        3.6520526900       -0.5745666033
C         -0.8001666404        3.2750759651        0.1332799202
C         -0.7367153727        2.1018821936        0.8913858973
C          0.3850253037        1.3022261683        0.8680153367
N         -1.7429465086       -4.1660479417       -0.1859351213
C         -1.7608940101       -5.4282544083        0.4379763461
C         -2.0850281313       -6.5615234115       -0.3062965561
S         -2.4935766734       -6.3758956285       -2.0258800411
C         -3.3577937443       -4.8313060642       -1.8657318763
C         -2.8887190937       -3.8866840446       -0.9547079854
N         -1.9344724598        4.0799878441        0.1530111167
C         -3.0783781430        3.7644445811        0.9104829612
C         -3.6068680335        4.7077291733        1.7899258006
S         -2.8213677734        6.2963707996        1.9225799039
C         -2.3949028449        6.4580965270        0.2049294834
C         -2.0032580734        5.3235263519       -0.5039151465
C         -4.4874475286       -4.5855898282       -2.6290089844
C         -5.1660373942       -3.3894333995       -2.4826241087
C         -4.7349863451       -2.4602927873       -1.5486961085
C         -3.6140472342       -2.7111754033       -0.7790660211
C         -1.5344104116       -5.5714770940        1.8042439221
C         -1.5504860763       -6.8249199242        2.3882540048
C         -1.8231630915       -7.9498297263        1.6260537258
C         -2.1118059144       -7.8162168856        0.2800352404
C         -2.4736429790        7.6943397808       -0.4150057300
C         -2.1696088963        7.8072123747       -1.7595347738
C         -1.8286718242        6.6779852026       -2.4871602740
C         -1.7605496255        5.4424848111       -1.8697562871
C         -3.7448257072        2.5520759281        0.7530267408
C         -4.8647099047        2.2666212135        1.5121425672
C         -5.3540342222        3.1962930876        2.4163033869
C         -4.7356689180        4.4269323824        2.5422548824
C         10.4031176035        0.2257699035        0.1106157656
C         11.6037545462        0.2506729795        0.1190328513
H          6.3381250487        1.9703385577       -1.0284917351
H          8.7943760098        2.0310857267       -0.9910570843
H          8.8552237370       -1.6457661446        1.1882359775
H          6.3983464326       -1.6894669305        1.1867289827
H          4.4588821341       -1.9957451428        0.0031349414
H          4.3666685930        2.1925899647        0.1203985635
H          2.4414915719       -3.0572878615        1.2289618230
H          0.5616324127       -4.5855678364        1.1093467222
H         -1.4546412433       -1.8735168274       -1.5190743394
H          0.4421200624       -0.3676306481       -1.4088607334
H          2.3236207198        3.1533340086       -1.1677912161
H          0.3715850875        4.5925283743       -1.1021376147
H         -1.5621436819        1.8219584041        1.5271316813
H          0.4038164495        0.4039915418        1.4673124481
H         -4.8179358878       -5.3310291842       -3.3355194762
H         -6.0378533152       -3.1912209994       -3.0858212866
H         -5.2785133046       -1.5380531968       -1.4145332664
H         -3.2839847706       -1.9989736348       -0.0382401437
H         -1.3445813381       -4.6920172345        2.4002904895
H         -1.3562298657       -6.9215430559        3.4451618824
H         -1.8296869991       -8.9277791458        2.0807216537
H         -2.3517304192       -8.6757066926       -0.3264468987
H         -2.7655981905        8.5562943109        0.1645564420
H         -2.2168525135        8.7715000908       -2.2402253829
H         -1.6214136788        6.7568284784       -3.5430761549
H         -1.5164797448        4.5584512301       -2.4387196764
H         -3.3707369052        1.8391019760        0.0342276685
H         -5.3617552663        1.3165323447        1.3928331002
H         -6.2248607973        2.9712807510        3.0114748288
H         -5.1127416059        5.1729534682        3.2244050279
H         12.6524457636        0.2730338497        0.1283062739
