84
-133.84867017
C          6.4580235543       -0.0018083583        0.0022483080
C          7.1611412288       -0.9214789520       -0.7741717126
C          8.5402779934       -0.9205303591       -0.7757998356
C          9.2451405271        0.0046504446       -0.0050083542
C          8.5400552002        0.9260474313        0.7701463346
C          7.1609853725        0.9204867031        0.7757664589
N          5.0591237295       -0.0031558758        0.0042212575
C          4.2631503514       -1.1006851024       -0.1522275832
C          2.9500646570       -0.7120447685       -0.0885493765
C          2.9501674235        0.7058249583        0.0969747306
C          4.2631938202        1.0943932663        0.1605485695
C          1.7560157310       -1.5480920184       -0.1215675311
C          0.7395009301       -1.3286788450        0.8090019065
C         -0.4237274800       -2.0681400459        0.7687949721
C         -0.5982904113       -3.0321196519       -0.2183974806
C          0.4181140354       -3.2794257659       -1.1311648306
C          1.5900375232       -2.5479899927       -1.0761200472
C          1.7570528000        1.5431129505        0.1288494906
C          1.5920732364        2.5440765044        1.0824198957
C          0.4214649516        3.2777282001        1.1357360749
C         -0.5943733440        3.0314791957        0.2220921665
C         -0.4205654819        2.0665353795       -0.7643043162
C          0.7412396701        1.3248351864       -0.8027253253
N         -1.8118089273       -3.7774654214       -0.3019970409
C         -1.8077856710       -5.0580760976        0.2436343117
C         -2.8714473518       -5.9517817075        0.0967318486
S         -4.3201184225       -5.5463623840       -0.8434956172
C         -4.1741673816       -3.7802058949       -0.9378031083
C         -2.9618915187       -3.1164257021       -0.7236188458
N         -1.8072961292        3.7778970579        0.3042538904
C         -1.8020684864        5.0580574441       -0.2423945319
C         -2.8661798045        5.9517663710       -0.0989013419
S         -4.3179119409        5.5464666612        0.8366751276
C         -4.1715006192        3.7804685725        0.9333038428
C         -2.9582058642        3.1170390772        0.7239351010
C         -5.3157137801       -3.0893976474       -1.3072185774
C         -5.2792922141       -1.7212640654       -1.5119495082
C         -4.0779126001       -1.0558519900       -1.3579856609
C         -2.9412279778       -1.7408163593       -0.9686105004
C         -0.7056622858       -5.4941225646        0.9833157676
C         -0.6563489129       -6.7640547434        1.5283589339
C         -1.7179139917       -7.6354342999        1.3704353396
C         -2.8285623034       -7.2161721024        0.6593053448
C         -5.3139079208        3.0894901941        1.2997271325
C         -5.2773644705        1.7217013322        1.5067115991
C         -4.0749416685        1.0568960781        1.3585193750
C         -2.9374039502        1.7419238435        0.9718234705
C         -0.6980379134        5.4936547757       -0.9795366235
C         -0.6472707668        6.7632828627       -1.5251511381
C         -1.7091241040        7.6348481538       -1.3702214298
C         -2.8216644415        7.2159607008       -0.6617909408
C         10.6603395664        0.0089403579       -0.0096720201
C         11.8611913264        0.0138025735       -0.0133678335
H          6.6246461282       -1.6263845585       -1.3898158593
H          9.0831291732       -1.6315912785       -1.3799873097
H          9.0827620091        1.6393918553        1.3717644804
H          6.6244289808        1.6226172308        1.3945126978
H          4.6729731908       -2.0876138334       -0.2279880455
H          4.6729170612        2.0813722737        0.2360205006
H          0.8704190220       -0.5769263863        1.5725598570
H         -1.2065888638       -1.9006792227        1.4942967624
H          0.2808414613       -4.0430777802       -1.8822315700
H          2.3740869926       -2.7326790794       -1.7946351670
H          2.3758759730        2.7279657846        1.8014103826
H          0.2847693603        4.0421548496        1.8861064321
H         -1.2031776437        1.8998424893       -1.4902503694
H          0.8716120950        0.5722190951       -1.5655086086
H         -6.2299364884       -3.6457828981       -1.4499982246
H         -6.1731111093       -1.1923991958       -1.8015426849
H         -4.0187226324        0.0077530328       -1.5311021020
H         -2.0170259275       -1.1965458463       -0.8608093652
H          0.1276292413       -4.8253520429        1.1291716032
H          0.2186303992       -7.0653668483        2.0832763751
H         -1.6893807164       -8.6271533468        1.7926338128
H         -3.6748314736       -7.8714495252        0.5179381809
H         -6.2289668324        3.6455051241        1.4384160040
H         -6.1718753138        1.1926653734        1.7938010012
H         -4.0155883442       -0.0063190587        1.5339337670
H         -2.0124162418        1.1981322933        0.8686881675
H          0.1355012558        4.8246786870       -1.1230404458
H          0.2291175452        7.0642660144       -2.0780510810
H         -1.6793416738        8.6264435786       -1.7925968507
H         -3.6683724657        7.8712561725       -0.5231374305
H         12.9101736951        0.0189323769       -0.0175382608
