84
-133.84489628
C          6.5238547529        0.0048654725       -0.1339996921
C          7.2385443130        1.0262770439       -0.7586782981
C          8.6172351176        1.0025038494       -0.7760627958
C          9.3120605199       -0.0471517903       -0.1740755743
C          8.5963230509       -1.0695746962        0.4499185175
C          7.2178940402       -1.0417461295        0.4721791610
N          5.1268352916        0.0283821690       -0.1157937711
C          4.3109225436       -1.0674686483       -0.1096343418
C          3.0031663952       -0.6556212358       -0.0919456284
C          3.0293021990        0.7751106731       -0.0673702745
C          4.3465459648        1.1490844519       -0.0991017675
C          1.8068838754       -1.4856218213       -0.1503743948
C          1.7115972153       -2.6816428760        0.5560115982
C          0.5663722003       -3.4495764868        0.5163197844
C         -0.5367716292       -3.0569433840       -0.2473539085
C         -0.4482372419       -1.8480862751       -0.9426863511
C          0.7012528187       -1.0899935057       -0.9011279172
C          1.8453669777        1.6236024293        0.0188708122
C          0.8676839854        1.3381420020        0.9724067233
C         -0.3167556457        2.0435886322        0.9973788340
C         -0.5499663262        3.0377085635        0.0529097859
C          0.4397197785        3.3707796529       -0.8612787782
C          1.6341105516        2.6738675379       -0.8698917519
N         -1.7086049460       -3.8056569278       -0.2550886767
C         -2.8910505826       -3.3650736329       -0.8819393891
C         -4.0712700083       -3.2717143894       -0.1459704404
S         -4.0591143843       -3.7410826974        1.5674940835
C         -2.9198167367       -5.0958833159        1.4022653435
C         -1.8614459579       -4.9828506820        0.5026779792
N         -1.8100284805        3.7051818873       -0.0041710678
C         -2.9029984260        2.9879735691       -0.4834540075
C         -4.1529324976        3.5779427566       -0.6958319791
S         -4.4235113321        5.3213886597       -0.5044140276
C         -3.0314064329        5.7683012415        0.5002329005
C         -1.9076297617        4.9464188020        0.6156624025
C         -3.0966400302       -6.2473236524        2.1519765343
C         -2.2163076512       -7.3036590210        2.0030459221
C         -1.1841563463       -7.2189471299        1.0817388188
C         -1.0144900236       -6.0733497851        0.3261839857
C         -2.9317640754       -3.0841489479       -2.2450021408
C         -4.1039973288       -2.6457126146       -2.8341790984
C         -5.2589638073       -2.5098448497       -2.0796482671
C         -5.2482120035       -2.8417171907       -0.7370643881
C         -3.0923156084        6.9930837374        1.1426429013
C         -2.0274043255        7.4451001515        1.9023392936
C         -0.9047295657        6.6474483819        2.0240431628
C         -0.8504659002        5.4149268114        1.3993916482
C         -2.7831096985        1.6298311221       -0.7912538298
C         -3.8604080747        0.8910611172       -1.2448807888
C         -5.0990898681        1.4825286401       -1.4049328080
C         -5.2346907147        2.8324503752       -1.1331005599
C         10.7267502963       -0.0752510457       -0.1966171839
C         11.9272222942       -0.1011568095       -0.2161030785
H          6.7103376647        1.8310059434       -1.2457236197
H          9.1675872357        1.7934211763       -1.2629452642
H          9.1305570195       -1.8803806845        0.9218507887
H          6.6740337358       -1.8257464120        0.9755455423
H          4.7049092005       -2.0608938474       -0.1854270023
H          4.7710051519        2.1310795750       -0.0391568697
H          2.5412980404       -3.0048243107        1.1676337430
H          0.5200219772       -4.3478222284        1.1120991854
H         -1.2913551163       -1.4797569058       -1.5054273288
H          0.7413652069       -0.1725990891       -1.4694860106
H          1.0379827588        0.5465323152        1.6863383263
H         -1.0785695274        1.8141026434        1.7282354245
H          0.2594551289        4.1628315943       -1.5729213207
H          2.3940309501        2.9152766773       -1.5977776835
H         -3.9176416358       -6.3004556551        2.8500093673
H         -2.3460689345       -8.1958966112        2.5948562552
H         -0.5112796015       -8.0511495298        0.9451811226
H         -0.2222024800       -6.0085609033       -0.4039146271
H         -2.0365632075       -3.2098641752       -2.8346178961
H         -4.1156598663       -2.4130408672       -3.8876525251
H         -6.1709169764       -2.1619220477       -2.5384933272
H         -6.1413471755       -2.7641906783       -0.1367981955
H         -3.9821910081        7.5928607162        1.0248766017
H         -2.0799870607        8.4062938175        2.3880103433
H         -0.0624067833        6.9775108359        2.6121941779
H          0.0286303608        4.8007806181        1.5151357614
H         -1.8284679799        1.1417029435       -0.6794101330
H         -3.7262940690       -0.1565592789       -1.4679568605
H         -5.9456146765        0.9099643071       -1.7478736981
H         -6.1808565355        3.3330807252       -1.2736146669
H         12.9758573037       -0.1221149467       -0.2332276166
