84
-133.84512187
C          6.4116354539       -0.1163043243        0.1255625734
C          7.1022650681        1.0354051981       -0.2493701372
C          8.4812069540        1.0538925520       -0.2445368346
C          9.2001888615       -0.0817792176        0.1298024993
C          8.5084329413       -1.2349631062        0.5019090847
C          7.1294486195       -1.2506154496        0.5025256278
N          5.0133100616       -0.1334276522        0.1234544739
C          4.2290632900       -1.2191537488       -0.1375347517
C          2.9113511521       -0.8532124864       -0.0445641541
C          2.8911849032        0.5375197072        0.2930300302
C          4.2011247873        0.9342268441        0.3805392534
C          1.7379165056       -1.7016946151       -0.2177251229
C          1.6226285752       -2.5552655311       -1.3119304155
C          0.4597755362       -3.2722626661       -1.5250351737
C         -0.5985033556       -3.1517914166       -0.6358413966
C         -0.4710745626       -2.3517164936        0.4941210448
C          0.6878862396       -1.6328125547        0.6988261988
C          1.7038391447        1.3679660159        0.4494841673
C          0.5963835562        1.1981686545       -0.3804589055
C         -0.5533183620        1.9349066303       -0.2017840754
C         -0.6490248363        2.8799488552        0.8245585120
C          0.4919557059        3.1168374308        1.5959487694
C          1.6367997385        2.3682721434        1.4153414469
N         -1.8290867056       -3.8256741430       -0.9057071565
C         -2.8401429222       -3.0798917094       -1.5015116585
C         -4.0687761401       -3.6291103870       -1.8798296404
S         -4.4382699761       -5.3570519919       -1.7123960520
C         -3.1031741892       -5.9072570270       -0.6808369584
C         -1.9800401937       -5.1178746433       -0.4193258594
N         -1.8151642496        3.6139949605        1.0056585093
C         -1.9216609908        4.6801003721        1.9196990263
C         -2.3870608820        5.9186754132        1.4804997416
S         -2.8656381465        6.1052167270       -0.2209751758
C         -3.5757248426        4.4871135766       -0.4111556676
C         -2.9700442208        3.4063048943        0.2271912295
C         -3.2135359567       -7.1870491446       -0.1644829450
C         -2.2033478097       -7.7263260434        0.6130742168
C         -1.0805695233       -6.9635926360        0.8741888503
C         -0.9746015530       -5.6796262373        0.3714961296
C         -2.6459082431       -1.7196460372       -1.7582767983
C         -3.6266896151       -0.9449392100       -2.3500876414
C         -4.8449007623       -1.5003271872       -2.6932773596
C         -5.0568598111       -2.8468760812       -2.4536049453
C         -4.7210620702        4.3151594816       -1.1711122738
C         -5.2804130636        3.0558444951       -1.2914934798
C         -4.7123663551        1.9803877174       -0.6265477165
C         -3.5718010163        2.1541114496        0.1355258748
C         -1.6449464985        4.5151370072        3.2740744450
C         -1.7488823535        5.5849301579        4.1443668995
C         -2.1603748953        6.8256258830        3.6840397405
C         -2.5013263870        6.9879974104        2.3534808304
C         10.6152735924       -0.0642229982        0.1320702289
C         11.8160560042       -0.0500012400        0.1346502505
H          6.5558855251        1.9116416092       -0.5617819391
H          9.0128315214        1.9464930659       -0.5380004351
H          9.0612894195       -2.1140320393        0.7969328910
H          6.6042454815       -2.1403224757        0.8130913529
H          4.6493450311       -2.1751955450       -0.3766631434
H          4.6001830948        1.8996163074        0.6179339952
H          2.4368047224       -2.6273740446       -2.0171660880
H          0.3573289474       -3.9119539675       -2.3890207622
H         -1.2918955571       -2.2858945361        1.1931660909
H          0.7827231642       -0.9994537460        1.5675393961
H          0.6423310707        0.4872340100       -1.1922648926
H         -1.3779670980        1.7896131927       -0.8823233861
H          0.4948164175        3.9024456282        2.3348015578
H          2.4933445977        2.5563497162        2.0459612641
H         -4.1007987258       -7.7587449706       -0.3918928155
H         -2.2974398628       -8.7273364303        1.0025051203
H         -0.2777709772       -7.3620089377        1.4751638393
H         -0.0936229122       -5.0973067711        0.5904601230
H         -1.7059932762       -1.2611729514       -1.4961677915
H         -3.4301323643        0.0995564067       -2.5385575028
H         -5.6184908445       -0.9036678244       -3.1496751770
H         -5.9911531043       -3.3159311317       -2.7235144136
H         -5.1585663677        5.1687609486       -1.6651577817
H         -6.1665146533        2.9188127667       -1.8908678821
H         -5.1592759261        1.0006873057       -0.6963408643
H         -3.1336627285        1.3195935750        0.6613313571
H         -1.3491374301        3.5424471406        3.6358942019
H         -1.5145824273        5.4457322934        5.1883086996
H         -2.2351976023        7.6611002566        4.3619125845
H         -2.8503856250        7.9379494523        1.9795689713
H         12.8649712116       -0.0372070111        0.1363280782
