73
Coordinates from ORCA-job Combo10_betterFunctional_Cf2Opt
  C   -0.04588061822237      3.88763458774645      0.55702103316431
  C   0.54516295763454      4.73585271625112     -0.36917412312017
  C   0.56546154904276      6.10121867520876     -0.13557718892912
  C   -0.01011982227068      6.62668825448174      1.02148179719681
  C   -0.60455890970562      5.76231877538753      1.94346672638466
  C   -0.61817305463891      4.39681977961848      1.71572062320446
  S   -0.02367599318174      8.34346695300601      1.38908659762352
  N   -0.04954385377625      2.47851167687536      0.32271431116823
  C   1.10868048739915      1.67243241100988      0.24963196216395
  C   0.72163488311308      0.34326078407544      0.02560198935454
  C   -0.73685354312908      0.34322217936193     -0.02109022381332
  C   -1.14427858234565      1.70306869709166      0.16497043778549
  C   1.68004480498235     -0.65657350935915     -0.05153580175741
  C   3.02047984218487     -0.30157696187878      0.08123809285670
  C   3.38575774459671      1.03435203019238      0.29880101976992
  C   2.43588690901376      2.04000785719704      0.39815252750737
  C   -2.50457853374599      2.07375300356899      0.14722996393597
  C   -3.43321292468040      1.09186650024912     -0.05354523235196
  C   -3.04626732028612     -0.26947519007922     -0.22087832729816
  C   -1.67730619177388     -0.63290967227558     -0.19979718986605
  N   4.01641601838319     -1.29082083313752      0.00463966990289
  C   5.00889005086566     -1.52225455211576      0.96506095816513
  C   5.81575604936983     -2.59013796457600      0.53395155147987
  C   5.29137728394161     -3.02389969616834     -0.75278299756832
  C   4.18568791650100     -2.20374854206740     -1.04262587741732
  N   -4.00196474483239     -1.23495340211025     -0.40243089168731
  C   -5.18391326081049     -1.10963885175948     -1.17926451566349
  C   -5.87426591263881     -2.33091196030096     -1.13881963400283
  C   -5.09916775558287     -3.24409557234261     -0.29918880067173
  C   -3.96130952443733     -2.54744443130250      0.13458940654833
  C   3.47226984203081     -2.32919916950452     -2.23027946798041
  C   3.87775066433481     -3.31107992109283     -3.12203133878152
  C   4.96522227150448     -4.14521599960125     -2.84265001413697
  C   5.67897177641514     -4.00311349871957     -1.66343029094177
  C   6.86889291374126     -3.02325646313270      1.33603544225724
  C   7.09566866140459     -2.39000628055889      2.54721785075209
  C   6.27359492977471     -1.33883824468325      2.96695597746844
  C   5.21829671163033     -0.89112529899084      2.18690476906671
  C   -7.04459867200240     -2.48930769951524     -1.86114937074971
  C   -7.50354454267033     -1.42355461282980     -2.62895045902934
  C   -6.78626526168364     -0.23019708545945     -2.69451956876905
  C   -5.60648376796219     -0.05640289757090     -1.98008684395581
  C   -3.06528492238935     -3.09908148167026      1.04174069456688
  C   -3.29491699116477     -4.40744554635531      1.45105219096144
  C   -4.39767851429180     -5.12585756866120      0.99192880091217
  C   -5.31752091366452     -4.54415160715565      0.12430416219506
  H   0.98539672918971      4.32857199354902     -1.27247575551840
  H   1.02734922805683      6.75884270989344     -0.86253387388179
  H   -1.04660879151489      6.16094415319861      2.84971443766824
  H   -1.05997731397616      3.72486058616022      2.44340882749966
  H   0.62615545197122      8.74717813081855      0.29218920554456
  H   1.41205080077460     -1.69674760700311     -0.19493094537672
  H   4.43833853321910      1.27549099780291      0.38425351697504
  H   2.72576065067763      3.06815279064797      0.57589635948347
  H   -2.80248679258291      3.10183858947463      0.30991959112569
  H   -4.48709954034410      1.33174305762037     -0.01663390551062
  H   -1.39190939227715     -1.65822512471752     -0.39463034678546
  H   2.64186679653619     -1.67439255754441     -2.46604500903504
  H   3.34256536543137     -3.42891529573428     -4.05783054311996
  H   5.25553886089714     -4.90246322214466     -3.56154098102387
  H   6.53075482832480     -4.64113637994938     -1.45482164207766
  H   7.50067755716455     -3.84571719547821      1.01883758709928
  H   7.91308022270900     -2.71383303055251      3.18080310228898
  H   6.46229615392934     -0.86394901946905      3.92328961106836
  H   4.57953506373206     -0.08555335632648      2.52846557225930
  H   -7.58605544472116     -3.42795350012954     -1.83976381932661
  H   -8.41871970812084     -1.52791624329949     -3.19958608045103
  H   -7.14556796847591      0.57637842254558     -3.32256581946328
  H   -5.04177933860426      0.86047235151794     -2.07892070662753
  H   -2.23226465938328     -2.54117922352912      1.44718777469943
  H   -2.60897280981014     -4.86863781968390      2.15158306659497
  H   -4.55111375930769     -6.14265176177671      1.33359119112048
  H   -6.19290482467211     -5.09393617353748     -0.20176552302983
