  73
       -115.85154440
 C         -0.0263402140        3.9144367330        0.3360811610
 C         -0.7853593671        4.6946415614       -0.5325697502
 C         -0.8004727789        6.0675317957       -0.3969344987
 C         -0.0500671167        6.6782896321        0.6018601530
 C          0.7129382072        5.9047524509        1.4673151843
 C          0.7197185112        4.5298726251        1.3368496788
 S         -0.1019983440        8.4421208756        0.7269635670
 N         -0.0148713792        2.5170063994        0.2031570642
 C          1.1089545528        1.7207379140        0.1374628664
 C          0.7175201945        0.3677262574        0.0042473561
 C         -0.7172996127        0.3583333918       -0.0025027458
 C         -1.1273621444        1.7065656080        0.1207921787
 C          1.6724962266       -0.6325365555       -0.1028804121
 C          3.0113275781       -0.2741599928       -0.0655225789
 C          3.3899019749        1.0692782863        0.0526285152
 C          2.4512642482        2.0761451958        0.1422359799
 C         -2.4739582121        2.0374094941        0.1953544348
 C         -3.3980348161        1.0160254600        0.1226667872
 C         -3.0016135545       -0.3187675213       -0.0307259195
 C         -1.6585123471       -0.6567974036       -0.0923671497
 N          4.0042727448       -1.2664374579       -0.1470786750
 C          4.0801454247       -2.3935061305        0.6437350098
 C          5.2219802059       -3.1453405960        0.2800132872
 C          5.8566611148       -2.4286034119       -0.7896910628
 C          5.0713085122       -1.2746025212       -1.0200765312
 N         -3.9823139470       -1.3237879485       -0.1052377170
 C         -5.0636525208       -1.3337822795       -0.9602684350
 C         -5.8287080715       -2.5022993158       -0.7353009913
 C         -5.1669659999       -3.2254182860        0.3134958880
 C         -4.0302084010       -2.4626522037        0.6706181439
 C          5.3931310872       -0.3798438346       -2.0315087811
 C          6.5222595861       -0.6363267762       -2.7848172857
 C          7.3149222118       -1.7584681530       -2.5499218212
 C          6.9878378111       -2.6640691969       -1.5606443315
 C          5.5191455591       -4.3250873494        0.9503847787
 C          4.6849725011       -4.7345402653        1.9712873441
 C          3.5727953617       -3.9773957188        2.3352582999
 C          3.2565829179       -2.8007408122        1.6843714475
 C         -6.9688078580       -2.7419820018       -1.4916939368
 C         -7.3250590069       -1.8255431128       -2.4607166008
 C         -6.5531964798       -0.6877447902       -2.6895856085
 C         -5.4155536249       -0.4270634363       -1.9507457944
 C         -3.1861038486       -2.8722626395        1.6937206137
 C         -3.4763741901       -4.0620269514        2.3327812720
 C         -4.5828583168       -4.8300365661        1.9742977750
 C         -5.4376381052       -4.4184243555        0.9715036622
 H         -1.3517068427        4.2232731204       -1.3206318429
 H         -1.3870527239        6.6753326466       -1.0687112554
 H          1.2946191583        6.3711073234        2.2478785177
 H          1.2952705178        3.9275215141        2.0224294486
 H          0.7185044295        8.5360271003        1.7686967612
 H          1.3840655068       -1.6649635940       -0.2248023026
 H          4.4411445147        1.3114032390        0.0814782278
 H          2.7580702010        3.1076935850        0.2126270778
 H         -2.7939360705        3.0588812925        0.3280318954
 H         -4.4512988613        1.2384534386        0.1993068054
 H         -1.3561059765       -1.6854744891       -0.2117623137
 H          4.7760461390        0.4828634009       -2.2314767649
 H          6.7954786858        0.0457660211       -3.5763770368
 H          8.1914317880       -1.9223687911       -3.1590585233
 H          7.5935421947       -3.5412368482       -1.3887312505
 H          6.3878898509       -4.9050834265        0.6770147855
 H          4.8970212009       -5.6501962926        2.5030809400
 H          2.9457662094       -4.3177219384        3.1461384798
 H          2.4014545473       -2.2135075959        1.9828599995
 H         -7.5590859405       -3.6304263715       -1.3241110981
 H         -8.2090237022       -1.9924682309       -3.0581251983
 H         -6.8500489644        0.0034793563       -3.4645273431
 H         -4.8150335314        0.4485168998       -2.1450320820
 H         -2.3356926618       -2.2765770568        1.9888607519
 H         -2.8332545349       -4.4040940149        3.1302102111
 H         -4.7744146996       -5.7556605578        2.4965352474
 H         -6.3023742380       -5.0066031388        0.7029727876
  73
       -115.85144115
 C         -0.0410739241        3.8719842898        0.6602414858
 C          0.7392258776        4.7228130410       -0.1171233294
 C          0.7310282615        6.0842511017        0.1146680202
 C         -0.0676796525        6.6098485515        1.1223421683
 C         -0.8527641947        5.7641782508        1.8983387097
 C         -0.8362411714        4.4031591035        1.6726325152
 S         -0.1223761009        8.3456157485        1.4595435313
 N         -0.0265305322        2.4881487612        0.4250582813
 C          1.0994854969        1.6985237983        0.3255864986
 C          0.7130686174        0.3586137912        0.0870077139
 C         -0.7210973060        0.3518888069        0.0377636096
 C         -1.1357691461        1.6870463352        0.2547485014
 C          1.6707995209       -0.6382285843       -0.0284013037
 C          3.0070240552       -0.2868333624        0.0871262634
 C          3.3798401397        1.0400253201        0.3369423835
 C          2.4379437794        2.0389705268        0.4696978396
 C         -2.4814657689        2.0283364382        0.2275864214
 C         -3.4021571474        1.0225387131        0.0192479232
 C         -3.0012781308       -0.3041203332       -0.1838965082
 C         -1.6577182755       -0.6463839777       -0.1867590357
 N          4.0039685790       -1.2698233267       -0.0451462711
 C          5.0265559403       -1.5109998736        0.8474235422
 C          5.8331983169       -2.5670671798        0.3619718248
 C          5.2595687814       -2.9745134407       -0.8893399973
 C          4.1299608141       -2.1492216662       -1.0996417869
 N         -3.9772913106       -1.2954418968       -0.3896890187
 C         -4.9965416684       -1.2471805960       -1.3167413884
 C         -5.7782144458       -2.4220584489       -1.2156310304
 C         -5.1926175236       -3.2110168937       -0.1689930487
 C         -4.0811319393       -2.4787717617        0.3103785555
 C          3.3629967850       -2.2645647778       -2.2508722842
 C          3.7231380725       -3.2288361884       -3.1721322082
 C          4.8232517628       -4.0591751133       -2.9647184713
 C          5.6012822977       -3.9368769358       -1.8309262996
 C          6.9267374887       -3.0014143173        1.1001542494
 C          7.1957454423       -2.3887676422        2.3076666925
 C          6.3823317142       -1.3640365727        2.7883277755
 C          5.2897518218       -0.9140443211        2.0727940647
 C         -6.8634185812       -2.6091136847       -2.0622420706
 C         -7.1489674237       -1.6347134997       -2.9975400495
 C         -6.3600257830       -0.4906421188       -3.1043152417
 C         -5.2760898536       -0.2813998595       -2.2739559271
 C         -3.3089975252       -2.9549318061        1.3610758171
 C         -3.6453475575       -4.1789599423        1.9059478059
 C         -4.7272023229       -4.9162724223        1.4277306506
 C         -5.5105526300       -4.4396047720        0.3957847428
 H          1.3431817503        4.3166449072       -0.9136189549
 H          1.3397796068        6.7345858960       -0.4949310699
 H         -1.4673750977        6.1791995416        2.6824230588
 H         -1.4294785045        3.7459736095        2.2892159087
 H          0.7428503714        8.7023282242        0.5153271262
 H          1.3861631057       -1.6660650606       -0.1914040123
 H          4.4294387525        1.2773033931        0.4184256620
 H          2.7390150345        3.0526643303        0.6816848042
 H         -2.8042519056        3.0484876158        0.3633624314
 H         -4.4566998807        1.2518111412        0.0183789171
 H         -1.3515073393       -1.6641379539       -0.3723706880
 H          2.5176871715       -1.6166145462       -2.4265630814
 H          3.1409161289       -3.3405674418       -4.0749431784
 H          5.0706318695       -4.8027243535       -3.7077829076
 H          6.4607506770       -4.5718860927       -1.6763033735
 H          7.5485125926       -3.8049121319        0.7345816907
 H          8.0424372702       -2.7103669916        2.8957583481
 H          6.6099563258       -0.9144654542        3.7435979650
 H          4.6559690792       -0.1309069473        2.4602506941
 H         -7.4661464376       -3.5019732634       -1.9889527118
 H         -7.9895952180       -1.7601554641       -3.6636974285
 H         -6.6000767313        0.2469775996       -3.8558157569
 H         -4.6611265247        0.5999767388       -2.3743593989
 H         -2.4780453163       -2.3843578986        1.7473942206
 H         -3.0586231680       -4.5727881050        2.7227683534
 H         -4.9561871649       -5.8703391963        1.8788647360
 H         -6.3560840625       -5.0051527196        0.0337716192
  73
       -115.85114384
 C          0.0014908180        3.8755906881        0.6368723805
 C          0.7340123658        4.7228608864       -0.1894436062
 C          0.7409803710        6.0851491230        0.0369340110
 C          0.0045996864        6.6156693262        1.0885167793
 C         -0.7330556189        5.7738830028        1.9136283229
 C         -0.7308376964        4.4119812630        1.6930623891
 S         -0.0283724344        8.3528612147        1.4212146426
 N          0.0011129623        2.4911627576        0.4073717445
 C          1.1177539006        1.7022486593        0.2280570425
 C          0.7171709280        0.3614681019        0.0208767422
 C         -0.7160268750        0.3496001893        0.0958358804
 C         -1.1158693122        1.6867436048        0.3265749429
 C          1.6634069801       -0.6258180119       -0.2137190933
 C          3.0044881869       -0.2733519889       -0.1965762679
 C          3.3930270823        1.0457010162        0.0730326631
 C          2.4629116947        2.0429662360        0.2784899443
 C         -2.4608159299        2.0267813244        0.3861086618
 C         -3.3915166749        1.0167399788        0.2617200565
 C         -3.0038383618       -0.3198258489        0.0974541666
 C         -1.6628661651       -0.6603457214        0.0030684073
 N          3.9921713606       -1.2413013385       -0.4479430814
 C          4.0810998087       -2.4853445339        0.1412618756
 C          5.2019864907       -3.1723274615       -0.3816475758
 C          5.8121861310       -2.2898359581       -1.3351212489
 C          5.0316655848       -1.1102069706       -1.3457745339
 N         -3.9921324405       -1.3166422010        0.0257623029
 C         -4.0787642262       -2.3096284848       -0.9278754410
 C         -5.2015036931       -3.1257398907       -0.6537507528
 C         -5.8155618136       -2.5902403831        0.5279360823
 C         -5.0351498994       -1.4757849704        0.9150077285
 C          5.3324429502       -0.0633200050       -2.2067191699
 C          6.4381272132       -0.1956371605       -3.0241073073
 C          7.2280930006       -1.3435612176       -3.0006594113
 C          6.9192670309       -2.3994736526       -2.1668845925
 C          5.5056982433       -4.4515823254        0.0660425048
 C          4.6993707034       -5.0245905062        1.0288251763
 C          3.6118102374       -4.3310970566        1.5567043018
 C          3.2901268736       -3.0577157091        1.1282849519
 C         -5.5032742748       -4.1970424332       -1.4846639375
 C         -4.6931798036       -4.4364646932       -2.5763855831
 C         -3.6039252117       -3.6124150687       -2.8535234950
 C         -3.2841777543       -2.5405709853       -2.0426855493
 C         -5.3394526871       -0.7557389787        2.0624563109
 C         -6.4486322325       -1.1388848258        2.7912304419
 C         -7.2385714248       -2.2190032434        2.4018102595
 C         -6.9261070640       -2.9565400408        1.2775808419
 H          1.2882156891        4.3130351007       -1.0194570673
 H          1.3126141304        6.7324312154       -0.6106647183
 H         -1.2992203565        6.1926824822        2.7314620389
 H         -1.2860743619        3.7580374982        2.3472481719
 H          0.7778534801        8.7047725596        0.4244886066
 H          1.3643990694       -1.6419573585       -0.4179306926
 H          4.4459595230        1.2751261500        0.1285699989
 H          2.7781498640        3.0523928385        0.4904354795
 H         -2.7754438426        3.0512973565        0.5078003635
 H         -4.4442489510        1.2529602416        0.2808062530
 H         -1.3644140133       -1.6888589327       -0.1262291958
 H          4.7175790849        0.8226719436       -2.2462856284
 H          6.6950221010        0.6073326279       -3.6991478724
 H          8.0869919436       -1.4070067287       -3.6521139956
 H          7.5210295142       -3.2959312282       -2.1600346872
 H          6.3575107948       -4.9819802117       -0.3325978334
 H          4.9150261348       -6.0202957369        1.3869156288
 H          3.0078474917       -4.7995776150        2.3197873119
 H          2.4558951203       -2.5238721771        1.5572472869
 H         -6.3565019578       -4.8254776431       -1.2775963572
 H         -4.9071850524       -5.2673764528       -3.2320791317
 H         -2.9970175679       -3.8156220568       -3.7235157915
 H         -2.4486277020       -1.8990674821       -2.2776639940
 H         -4.7248275404        0.0711074978        2.3837537208
 H         -6.7082920813       -0.5908801245        3.6849483146
 H         -8.1003197692       -2.4843836518        2.9960114886
 H         -7.5277983676       -3.8037872196        0.9844428218
  73
       -115.84910502
 C         -0.0363263607        3.9166321841        0.1056047711
 C         -0.7520072063        4.6388918272       -0.8444797024
 C         -0.7680505395        6.0193252444       -0.8050433750
 C         -0.0584091523        6.6917575350        0.1818759140
 C          0.6617034114        5.9740196925        1.1306026087
 C          0.6692122942        4.5947226238        1.0962107430
 S         -0.0378729782        8.4579664794        0.2764629107
 N         -0.0242971047        2.5127428419        0.0649081143
 C          1.1012207622        1.7161947795        0.0936068052
 C          0.7149090153        0.3565757533        0.0379364231
 C         -0.7187821236        0.3440787752       -0.0215005360
 C         -1.1325474702        1.6979935490       -0.0062416153
 C          1.6742281949       -0.6456427039        0.0262905425
 C          3.0107212584       -0.2806024868        0.0783901658
 C          3.3840326525        1.0689028006        0.1222638271
 C          2.4419844595        2.0763263473        0.1189829925
 C         -2.4798692112        2.0356276816       -0.0156218987
 C         -3.4027012181        1.0114792613       -0.0700783901
 C         -2.9999195833       -0.3273266932       -0.1056500539
 C         -1.6603345742       -0.6740504762       -0.0744603850
 N          4.0086562576       -1.2711165126        0.0831782046
 C          4.0734951377       -2.3443321135        0.9465030257
 C          5.2255780978       -3.1116458885        0.6545609142
 C          5.8780635137       -2.4623480514       -0.4470953074
 C          5.0929088063       -1.3297432309       -0.7665436587
 N         -3.9873474676       -1.3408249992       -0.1635927847
 C         -4.5551395460       -1.9703817092        0.9174964176
 C         -5.5129778363       -2.9090659304        0.4649097874
 C         -5.5102780322       -2.8290100627       -0.9686143716
 C         -4.5521613948       -1.8447748397       -1.3101011202
 C          5.4308646879       -0.5001611852       -1.8270366119
 C          6.5750209637       -0.7992361889       -2.5409607838
 C          7.3669649375       -1.9002040581       -2.2194499796
 C          7.0246059712       -2.7415265802       -1.1798506715
 C          5.5147552884       -4.2434789977        1.4060578123
 C          4.6625239104       -4.5901110174        2.4352999364
 C          3.5398082841       -3.8175141330        2.7272829046
 C          3.2309617499       -2.6877118003        1.9948268177
 C         -6.2214130572       -3.6676880984        1.3883496600
 C         -5.9675173039       -3.4808484338        2.7326919342
 C         -5.0211963825       -2.5527031598        3.1656572020
 C         -4.3027884151       -1.7859473778        2.2693503596
 C         -4.2923790279       -1.5132937433       -2.6321544687
 C         -5.0041262515       -2.1782781465       -3.6112114104
 C         -5.9511577461       -3.1493906655       -3.2879687494
 C         -6.2121583702       -3.4827460380       -1.9736661549
 H         -1.2859496259        4.1168782489       -1.6232672584
 H         -1.3259607702        6.5694577705       -1.5474253633
 H          1.2069230119        6.5031152920        1.8970855073
 H          1.2115590833        4.0384182958        1.8447735912
 H         -0.8197353129        8.6668789259       -0.7782519716
 H          1.3913986066       -1.6848523778       -0.0360771944
 H          4.4336910401        1.3154681467        0.1664501193
 H          2.7444694934        3.1114597637        0.1338286358
 H         -2.8001801395        3.0643398607        0.0303548910
 H         -4.4589986180        1.2335680502       -0.0816313222
 H         -1.3635965014       -1.7114862166       -0.0876505651
 H          4.8149548328        0.3453209151       -2.0932322987
 H          6.8610663962       -0.1680330364       -3.3693279178
 H          8.2554676483       -2.0988033444       -2.8001951853
 H          7.6302269841       -3.6026681288       -0.9400987605
 H          6.3912932841       -4.8350426484        1.1880322212
 H          4.8683736584       -5.4676539376        3.0300563319
 H          2.8984424479       -4.1078125283        3.5463672127
 H          2.3670111174       -2.0876372057        2.2371835049
 H         -6.9554279011       -4.3873858668        1.0575865727
 H         -6.5089949228       -4.0610028969        3.4652768516
 H         -4.8480566700       -2.4318619331        4.2249383570
 H         -3.5699087565       -1.0662114550        2.6028074816
 H         -3.5574037031       -0.7620945625       -2.8805360336
 H         -4.8242993974       -1.9430202096       -4.6499286200
 H         -6.4867437127       -3.6472257157       -4.0827983858
 H         -6.9458608502       -4.2360557234       -1.7279899997
