  61
       -100.33005094
 C          3.1898439022        0.1203688230        0.0013833797
 C          3.8482286775        1.3118901038        0.3089578979
 C          5.2250228672        1.3660574703        0.3106219741
 C          5.9709416779        0.2260501446        0.0015173238
 C          5.3136011317       -0.9673752084       -0.3077302345
 C          3.9366647675       -1.0178730122       -0.3062068702
 C          7.3846113828        0.2796043763        0.0019503934
 C          8.5849666923        0.3232329482        0.0022701857
 C          1.7301296903        0.0651934157        0.0013343155
 N          1.0649216563        1.2156781832        0.0425150038
 C         -0.2634761337        1.1157460486        0.0535976845
 N         -0.9310520657       -0.0350359287        0.0017057568
 C         -0.1788709050       -1.1323520951       -0.0507667231
 N          1.1533625110       -1.1319911368       -0.0399147131
 N         -0.8155026165       -2.3370042298       -0.1195091228
 C         -2.1448721110       -2.5474859820       -0.5013201122
 C         -2.4351345756       -3.9247856177       -0.4176135590
 C         -1.2352437216       -4.5803526711        0.0348677486
 C         -0.2561711604       -3.5792711142        0.1986092082
 N         -0.9890046122        2.2691619419        0.1215030114
 C         -0.5259468466        3.5491758735       -0.2013911033
 C         -1.5781422587        4.4735323729       -0.0399577786
 C         -2.7242349634        3.7303055582        0.4164879764
 C         -2.3299570386        2.3793865647        0.5046195025
 C         -3.6915160134       -4.4015137337       -0.7618390232
 C         -4.6438157444       -3.4992026080       -1.1968225458
 C         -4.3423917028       -2.1462169349       -1.3037560667
 C         -3.0936489178       -1.6520136162       -0.9651653436
 C          1.0109247361       -3.8969134980        0.6574900641
 C          1.2896839171       -5.2265836508        0.9263755665
 C          0.3336770305       -6.2209199333        0.7514127350
 C         -0.9377437693       -5.9071365325        0.3098291420
 C         -1.3825414048        5.8180764410       -0.3200023049
 C         -0.1390333714        6.2259427765       -0.7641774791
 C          0.8896652576        5.3065270757       -0.9366321750
 C          0.7130092001        3.9605101910       -0.6626717929
 C         -3.2069995895        1.4160109733        0.9735577797
 C         -4.4892255006        1.8149510035        1.3125801571
 C         -4.8929602825        3.1406403776        1.2010590194
 C         -4.0128200245        4.1112173094        0.7610893466
 H          3.2621704836        2.1835422110        0.5549609058
 H          5.7362141798        2.2859202196        0.5514052538
 H          5.8932968880       -1.8456993474       -0.5484652739
 H          3.4183808371       -1.9314352271       -0.5522901522
 H          9.6334726204        0.3616045643        0.0024658362
 H         -3.9123259191       -5.4553149643       -0.6944854739
 H         -5.6293735284       -3.8466930696       -1.4664302683
 H         -5.0951212679       -1.4602019342       -1.6611199318
 H         -2.8712416217       -0.6033176850       -1.0632829660
 H          1.7553704736       -3.1326568909        0.8014166172
 H          2.2734715740       -5.4931947859        1.2815498956
 H          0.5887015328       -7.2468246923        0.9688565484
 H         -1.6878319499       -6.6720227649        0.1828792705
 H         -2.1884803660        6.5242166432       -0.1949660040
 H          0.0370836430        7.2674632797       -0.9855805230
 H          1.8500834777        5.6458873940       -1.2937076722
 H          1.5133369689        3.2545335764       -0.8044873764
 H         -2.9051082596        0.3877000682        1.0751415290
 H         -5.1869747005        1.0750190441        1.6739190769
 H         -5.9017241788        3.4130819615        1.4711228225
 H         -4.3133936404        5.1448688645        0.6903131688
