65
-110.14580046
C          3.2262340549        0.0197390630        0.0026623570
C          3.9349482706        0.3109602622       -1.1651798961
C          5.3106303706        0.3168922750       -1.1602447617
C          6.0273129591        0.0084410944        0.0012188373
C          5.3121783278       -0.2766131648        1.1692846667
C          3.9350493752       -0.2619257606        1.1721496111
C          7.4767554454        0.0402937932       -0.0345598465
S          8.3138904747        1.0592010925       -1.0205260086
S          8.3930920301       -1.0248948110        1.0085250895
N          1.8331621455        0.0164926475        0.0033151597
C          1.0344806146        0.7484894323       -0.8332138451
C         -0.2740350765        0.4866912161       -0.5305150568
C         -0.2704977389       -0.4729079570        0.5350862845
C          1.0400263064       -0.7228237683        0.8390986759
C         -0.8996043694        3.3209758215       -0.4854435542
C         -1.3054211141        4.6229404120       -0.2380728788
C         -2.6360435132        4.9714180224       -0.3524693148
C         -3.5669671920        4.0070030933       -0.7082518685
C         -1.8178811744        2.3453690408       -0.8485128461
C         -3.1667990793        2.7059963585       -0.9494082388
N         -1.4352302518        1.0234770235       -1.1089019230
C         -2.5856328069       -4.9814223123        0.3508626899
C         -4.4070940274       -1.6705125621       -2.3150349619
C         -4.7548039462        0.3415495727        1.9436323188
C         -4.4332197119        1.6439850339        2.2977241277
C         -3.1126210236        2.0457153993        2.3015228983
C         -2.1146193463        1.1610729997        1.9253503338
C         -3.7616363839       -0.5433922527        1.5678463047
C         -2.4248868575       -0.1323526033        1.5252640331
N         -1.4273439192       -1.0212015208        1.1113539178
C         -0.8661467268       -3.3140374111        0.4926118315
C         -1.2577831267       -4.6201357293        0.2442543520
C         -3.5280612813       -4.0256052181        0.6993812544
C         -4.7434475813       -0.3711385857       -1.9633078479
C         -3.0827505755       -2.0596560256       -2.3098907373
C         -2.0957460396       -1.1655203216       -1.9272096392
C         -1.7960592904       -2.3469554006        0.8487644623
C         -3.1419778605       -2.7204379064        0.9413364732
O         -4.1430811028       -1.8260701676        1.2510996058
O         -4.1570406548        1.8024242232       -1.2669180240
C         -3.7613053139        0.5232333292       -1.5810396049
C         -2.4210152520        0.1249909764       -1.5295644665
H          3.4083956451        0.5135918518       -2.0832345786
H          5.8566290545        0.5376786597       -2.0643418409
H          5.8357300505       -0.4545841692        2.0962392770
H          3.4065745702       -0.4446639073        2.0933469784
H          7.3789143147       -1.7840353189        1.4303252755
H          1.4385434032        1.4228275563       -1.5595786652
H          1.4493844612       -1.3931467213        1.5660569605
H          0.1390518022        3.0552606344       -0.3786933921
H         -0.5713564906        5.3605309211        0.0461049283
H         -2.9595948581        5.9822355841       -0.1624435571
H         -4.6166143988        4.2402357463       -0.7901859989
H         -2.8983848665       -5.9954931919        0.1600969995
H         -5.1824673215       -2.3650160272       -2.5961132031
H         -5.7760607140       -0.0051866373        1.9420155625
H         -5.2170242027        2.3311268960        2.5735204587
H         -2.8477576281        3.0519829170        2.5856052341
H         -1.0833957132        1.4781645793        1.9294862084
H          0.1701800048       -3.0378330420        0.3911022404
H         -0.5151121594       -5.3509924582       -0.0347392622
H         -4.5759761302       -4.2686551825        0.7746902433
H         -5.7678860381       -0.0339884742       -1.9688799251
H         -2.8063964622       -3.0632937549       -2.5922247295
H         -1.0614122104       -1.4722762096       -1.9251929722
