73
Coordinates from ORCA-job Combo10_betterFunctional_Cf3Opt
  C   -0.02905101794138      3.88304195539755      0.64657976390713
  C   0.45093707885562      4.79296108515527     -0.28553738996888
  C   0.46376339627529      6.14480343199977      0.01770327202102
  C   -0.00915200645897      6.59584927631893      1.25052586702583
  C   -0.49176197242814      5.66970765315646      2.17801706066861
  C   -0.49697254347265      4.31770654303807      1.88034807663798
  S   -0.02894568468786      8.29104299300836      1.70693132695666
  N   -0.03252705114129      2.48848060626039      0.33777173907870
  C   1.12373273308836      1.70539403632591      0.11833308465712
  C   0.73338287279614      0.37788374209326     -0.10811520663874
  C   -0.72305544838281      0.35614900536057     -0.02152247050609
  C   -1.12625370110086      1.69937426627321      0.26443354656943
  C   1.68791188505406     -0.59970429714392     -0.34033788576510
  C   3.03376069282333     -0.23722941318011     -0.30645999906102
  C   3.40314414187120      1.09293730177270     -0.05733900010888
  C   2.45539188873698      2.08528409701202      0.14549566771843
  C   -2.48438383576193      2.04264162648334      0.42495196053472
  C   -3.40990024016649      1.04127826599268      0.34566364073483
  C   -3.02425110926139     -0.30524005243122      0.08041629686946
  C   -1.66169919316671     -0.63368521270557     -0.12211896991114
  N   4.02210114233297     -1.21276736280338     -0.51023897724405
  C   4.05728000305804     -2.47525342684180      0.09877549902312
  C   5.17053019604441     -3.18221904343016     -0.38899265031594
  C   5.84431127402816     -2.31012832137040     -1.33852974706654
  C   5.11193046872102     -1.11074237688976     -1.38794350157877
  N   -3.97980494324417     -1.28635694773026      0.02506702395133
  C   -4.00625158345387     -2.37637544031770     -0.88239487695245
  C   -5.13638261889841     -3.16101044410687     -0.60579404278207
  C   -5.83437890970886     -2.53908544259232      0.51999068678656
  C   -5.10711900955940     -1.39450256466595      0.88016514690343
  C   5.47070886674866     -0.07336513389849     -2.24346726019151
  C   6.59838297447749     -0.25173845574517     -3.03145762971104
  C   7.34914528692312     -1.43060239410141     -2.97772624887079
  C   6.97392209670044     -2.46576757990506     -2.13733521824493
  C   5.43507095215491     -4.46610385810642      0.08018671193740
  C   4.59405412982303     -5.02007054497534      1.03196864661320
  C   3.50347992951311     -4.29602948712660      1.52408918343320
  C   3.22035875326350     -3.01586679015850      1.07091875450364
  C   -5.41785391056950     -4.26702383251116     -1.38956121891868
  C   -4.56792689117006     -4.56757887694671     -2.44962266006174
  C   -3.47300537736217     -3.75563142236487     -2.73964031998607
  C   -3.18094767831177     -2.63667091981277     -1.96837234510642
  C   -5.44476427744508     -0.63001131426213      1.98924809099770
  C   -6.58335175505036     -0.99707262462027      2.69654759685112
  C   -7.33952287686568     -2.10670855235231      2.32344031237034
  C   -6.96136274231684     -2.89617169221328      1.24174647548263
  H   0.80715044755478      4.44456541340389     -1.24843579999590
  H   0.83743927750544      6.85082890914093     -0.71450712860939
  H   -0.85238823490993      6.00935961945866      3.14246100985931
  H   -0.85077195047735      3.59788042207215      2.61018152009078
  H   0.50405158977403      8.76761715856613      0.57683297055244
  H   1.41212283780250     -1.62645976333823     -0.54658914116559
  H   4.45659525784310      1.33812885151010     -0.00655533533081
  H   2.75221902785245      3.10741162986481      0.34548297922826
  H   -2.78273690708102      3.07163268496287      0.58197390999446
  H   -4.46400519033992      1.27383481436790      0.41363667608052
  H   -1.37471523183658     -1.66564867199037     -0.27613477060111
  H   4.89257580484634      0.84007815661775     -2.30859833342365
  H   6.90208116846625      0.54149804947781     -3.70549300001749
  H   8.22714500847488     -1.53387655534813     -3.60440810834344
  H   7.54765838875567     -3.38544668280198     -2.10438408314284
  H   6.29015762105543     -5.02082289217588     -0.29054828008254
  H   4.78621686409646     -6.01820202617239      1.40774037582793
  H   2.86841684695198     -4.74024635921815      2.28252829398074
  H   2.38720712783609     -2.45829537486478      1.48083090625367
  H   -6.28973543033376     -4.87984887287880     -1.19222220512319
  H   -4.77160877226568     -5.43042372658581     -3.07264147136124
  H   -2.84304979723758     -3.98897559777689     -3.58980599133049
  H   -2.35706246729003     -1.98954233646758     -2.23690726877226
  H   -4.84409244651168      0.20539515611137      2.32122394469774
  H   -6.87692982489974     -0.41487065470258      3.56189612977912
  H   -8.21996573673127     -2.36977840326353      2.89764329163074
  H   -7.53115827656405     -3.78046640910787      0.98083252508148
