63
-102.02467558
C          3.0921839674        0.0139645906        0.0065364782
C          3.8030687141       -1.1866579229        0.0657182586
C          5.1798560702       -1.1870310951        0.0498152100
C          5.8941210724        0.0146324231       -0.0069602528
C          5.1760013120        1.2152999405       -0.0380589233
C          3.8006054632        1.2170371306       -0.0439316547
C          7.3431113685        0.0594185343        0.0119254375
S          8.1805458096        1.2965808592        0.7043642838
S          8.2606627774       -1.2440218320       -0.7105244723
N          1.7007705420        0.0107248455        0.0050366376
C          0.9083146098       -0.9993378154       -0.4687012034
C         -0.4042334217       -0.6398312786       -0.3116279882
C         -0.4091099039        0.6470689054        0.3165284318
C          0.9006608317        1.0154815949        0.4765947450
N         -1.5359337662       -1.3723110008       -0.6619014594
C         -2.6529049482       -0.8537261040       -1.2855277432
C         -3.6988588605       -1.8027152462       -1.2397978791
C         -3.1758230640       -2.9522791324       -0.5556961946
C         -1.8404346807       -2.6420170408       -0.2118172822
N         -1.5468960331        1.3710585207        0.6650543335
C         -2.6594734531        0.8441835819        1.2895301654
C         -3.7127671441        1.7849977685        1.2437966467
C         -3.1988633250        2.9382544989        0.5590630574
C         -1.8610342685        2.6383140354        0.2151882367
C         -4.9322050912       -1.4999278240       -1.8004157957
C         -5.1014741777       -0.2682024975       -2.4011446425
C         -4.0526243681        0.6458037441       -2.4722589779
C         -2.8144674509        0.3638991473       -1.9295275623
C         -1.0523725967       -3.5371549067        0.4955547707
C         -1.6094164592       -4.7540989916        0.8395821656
C         -2.9196275901       -5.0764765940        0.4922211985
C         -3.7125048132       -4.1827602760       -0.2006294270
C         -4.9433770465        1.4730897830        1.8054862810
C         -5.1027660584        0.2404821856        2.4070820626
C         -4.0469566024       -0.6655176696        2.4777538695
C         -2.8114091196       -0.3744899428        1.9339296237
C         -1.0799661621        3.5395019797       -0.4923134488
C         -1.6465707873        4.7519302609       -0.8366418240
C         -2.9593847646        5.0639960541       -0.4896321601
C         -3.7451881956        4.1643314756        0.2035569030
H          3.2757000685       -2.1227437711        0.1487152071
H          5.7042402667       -2.1261581421        0.1401939082
H          5.7211858034        2.1454688521       -0.0813554069
H          3.2732862081        2.1547403529       -0.1055493755
H          7.2475175073       -1.8664755955       -1.3178421284
H          1.3138625410       -1.8745928318       -0.9318226805
H          1.2994907606        1.8937965314        0.9400076563
H         -5.7402142944       -2.2151798413       -1.7647369704
H         -6.0563919709       -0.0097010399       -2.8341507153
H         -4.2085678556        1.5944575408       -2.9643308784
H         -2.0036490034        1.0714336149       -2.0107950946
H         -0.0417341784       -3.2871672522        0.7792904411
H         -1.0186167131       -5.4703736127        1.3910239504
H         -3.3191001173       -6.0386851910        0.7763833973
H         -4.7311787098       -4.4296635751       -0.4594457013
H         -5.7566799436        2.1823377760        1.7701978437
H         -6.0552501053       -0.0247984370        2.8413148610
H         -4.1952909717       -1.6149355756        2.9706342427
H         -1.9950328408       -1.0755538387        2.0151338838
H         -0.0667901605        3.2981879108       -0.7748792718
H         -1.0610295070        5.4728351482       -1.3877420066
H         -3.3662235162        6.0230474205       -0.7740287267
H         -4.7656804787        4.4034792343        0.4625003456
