77
-129.34937912
C          3.3005531164        0.5589014288       -0.0607302278
C          3.8332813447        1.5318054558       -0.9098220021
C          5.1887123608        1.7599557748       -0.9369424039
C          6.0588413418        1.0259473335       -0.1192610547
C          5.5142743270        0.0534709664        0.7293469275
C          4.1582487728       -0.1769705072        0.7596899080
C          7.4799487492        1.2811871715       -0.1634696692
S          8.1663870697        2.4931432147       -1.0453461340
S          8.4950417530        0.2123809490        0.7885483688
N          1.9267073695        0.3262236371       -0.0339851976
C          0.9436912754        1.2975372042        0.0288392255
C         -0.3266676115        0.6778662490        0.0215785195
C         -0.0912847103       -0.7369133981       -0.0582106357
C          1.3118283024       -0.9118408192       -0.0811306097
C         -1.4820819446        1.4407339370        0.1050653070
C         -1.3549867637        2.8159508034        0.2212314866
C         -0.0931441348        3.4192800339        0.2600827991
C          1.0645308751        2.6740511756        0.1649535674
C          1.8715579248       -2.1765777623       -0.2033392929
C          1.0170491041       -3.2593015045       -0.2625904815
C         -0.3702320258       -3.0943555007       -0.2136525069
C         -0.9373776633       -1.8344875794       -0.1199899298
N         -2.5134348214        3.6257020838        0.3273427634
C         -2.8376029110        4.5282241290       -0.6832330955
C         -3.9570113265        5.3580500682       -0.5351331962
O         -4.7687369417        5.3092605946        0.5778999026
C         -4.4291843562        4.4118583168        1.5678389030
C         -3.3111821942        3.5725060000        1.4691981697
N         -1.2069777478       -4.2413757021       -0.2790360349
C         -1.7962705720       -4.6142326438       -1.4823512806
C         -2.5864604079       -5.7706722245       -1.5330892130
O         -2.8036131246       -6.5641409107       -0.4256366195
C         -2.1934477160       -6.1851960918        0.7523500762
C         -1.3968715027       -5.0360845791        0.8462300590
C         -5.2396463377        4.3791105548        2.6862266222
C         -4.9504749701        3.5173300326        3.7353677881
C         -3.8397313829        2.7022550006        3.6583703026
C         -3.0239892742        2.7313765991        2.5373620580
C         -2.1043237008        4.6150867196       -1.8603976861
C         -2.4527628435        5.5232481853       -2.8486711812
C         -3.5427434468        6.3529060610       -2.6816813402
C         -4.2997682029        6.2625301208       -1.5214893805
C         -2.4019105886       -6.9872656982        1.8570487236
C         -1.8263481972       -6.6594436817        3.0779232422
C         -1.0480883975       -5.5248266579        3.1824346777
C         -0.8349430863       -4.7166187136        2.0756714835
C         -1.6167418191       -3.8818460026       -2.6488653336
C         -2.2156639682       -4.2810705068       -3.8344265420
C         -2.9978618815       -5.4170900409       -3.8727982691
C         -3.1802703618       -6.1641754880       -2.7161851338
H          3.1801547042        2.0850025405       -1.5659320938
H          5.6006062016        2.5016420974       -1.6038904748
H          6.1634091202       -0.5119566370        1.3806594745
H          3.7509241257       -0.9081150303        1.4396264427
H          9.6481615954        0.7945126229        0.4704249362
H         -2.4571344553        0.9794864829        0.0935586527
H         -0.0350644740        4.4910803235        0.3728380749
H          2.0283836571        3.1537250882        0.2205333617
H          2.9379863276       -2.3187205484       -0.2691686548
H          1.4165527018       -4.2577079532       -0.3530538717
H         -2.0094158943       -1.7162917333       -0.1043143401
H         -6.0915093568        5.0397204080        2.7193693385
H         -5.5905603037        3.4976574972        4.6027617901
H         -3.5947920971        2.0363849939        4.4710260940
H         -2.1520885041        2.0985500726        2.4940495515
H         -1.2577892721        3.9630616516       -2.0050928661
H         -1.8637143954        5.5727141511       -3.7511090765
H         -3.8170911297        7.0638470263       -3.4444309588
H         -5.1657094999        6.8860727319       -1.3649048415
H         -3.0196219194       -7.8642057509        1.7445083591
H         -1.9957793394       -7.2925053686        3.9341520840
H         -0.6007655115       -5.2563041920        4.1266923920
H         -0.2307879612       -3.8274691243        2.1632874637
H         -1.0018046844       -2.9960074264       -2.6259955465
H         -2.0618310425       -3.6949546679       -4.7270190423
H         -3.4661762326       -5.7331581031       -4.7911696425
H         -3.7811719844       -7.0598152578       -2.7148732336
