63
-104.76507179
C         -3.9539473882        0.2383373394        0.2905497974
C         -4.7178799467        0.5947387198       -0.8180076934
C         -6.0908795623        0.6796937196       -0.7157326590
C         -6.7205612586        0.4043122255        0.4933021891
C         -5.9626714798        0.0450592121        1.6008976302
C         -4.5879241936       -0.0341772024        1.4992189119
S         -8.4820852028        0.5263225060        0.5666160370
N         -2.5560382101        0.1548387024        0.1896984316
C         -1.7678698450       -0.7336220116        0.8599559410
C         -0.4649539559       -0.5122137018        0.5003907110
C         -0.4677079087        0.5712813260       -0.4260838147
C         -1.7732602752        0.9490195046       -0.5951551370
N          0.6987422564        1.1006096851       -1.0194304771
C          1.2924623811        0.3767479425       -2.0585736258
C          2.6755906991        0.4391476857       -2.2573101261
O          3.5032669903        1.1944464563       -1.4531864902
C          2.9024103244        1.9460705210       -0.4651404882
C          1.5235150309        1.9115395451       -0.2332099692
N          0.7036534848       -1.1833037644        0.9210276190
C          1.5271945719       -0.5458969072        1.8547474586
C          2.9064816744       -0.7781627921        1.8490742015
O          3.5091983118       -1.6211412217        0.9389234286
C          2.6829743061       -2.2850407588        0.0565158057
C          1.2994529917       -2.0812212212        0.0293592413
C          3.2771887154       -3.1706961269       -0.8224339005
C          2.5039680148       -3.8734142135       -1.7349344671
C          1.1362836927       -3.6901798787       -1.7576224690
C          0.5376009050       -2.7991394619       -0.8822881252
C          0.9993364742        0.3095376214        2.8120222784
C          1.8227502031        0.9313564419        3.7360829873
C          3.1845119125        0.7083470130        3.7138248466
C          3.7254400792       -0.1514678376        2.7691558213
C          3.7223482957        2.7452222678        0.3088557503
C          3.1826106531        3.5284568191        1.3185871233
C          1.8210782163        3.5124130002        1.5436108807
C          0.9966416927        2.7084485216        0.7738790233
C          0.5295981811       -0.3990796971       -2.9204737247
C          1.1265844462       -1.1083503035       -3.9495649132
C          2.4938772471       -1.0536070683       -4.1289478939
C          3.2682240725       -0.2746631933       -3.2816423047
H         -8.5960113971        0.1883847120        1.8473606169
H         -6.4410042198       -0.1665628748        2.5447885474
H         -4.0050679251       -0.2941812322        2.3682858622
H         -4.2400467424        0.7908697926       -1.7644482301
H         -6.6840290839        0.9536235228       -1.5743051411
H         -2.1804007667        1.7416696603       -1.1888123468
H         -2.1758681866       -1.4779718323        1.5125662985
H         -0.5375483350       -0.4465030373       -2.7723702626
H          0.5148909985       -1.7072015228       -4.6054001144
H          2.9677214549       -1.6100922309       -4.9214601996
H          4.3393916806       -0.2149474933       -3.3935541332
H          4.7826543097        2.7333509121        0.1112236568
H          3.8324841599        4.1443078070        1.9191847737
H          1.3907323082        4.1214321989        2.3225601811
H         -0.0669346215        2.6884887074        0.9513707362
H         -0.0640757789        0.4883387146        2.8211599636
H          1.3916807113        1.5946406145        4.4689578022
H          3.8337654028        1.1954516132        4.4234078182
H          4.7860474920       -0.3424798620        2.7234099052
H          4.3485344504       -3.2893792941       -0.7828619507
H          2.9789645685       -4.5580186816       -2.4190467567
H          0.5254611401       -4.2352468586       -2.4595370820
H         -0.5301188238       -2.6485128481       -0.9022615471
