84
-133.84877956
C          6.5039907648       -0.1091868033        0.0125425380
C          7.2192669760        0.7802673265        0.8127668293
C          8.5981937794        0.7587922464        0.8165413514
C          9.2907601789       -0.1572943148        0.0240268044
C          8.5735598187       -1.0486146810       -0.7747795554
C          7.1947106358       -1.0224755104       -0.7823758126
N          5.1052788049       -0.0858849648        0.0078738964
C          4.2920569053       -1.1662157877       -0.1785108822
C          2.9857491546       -0.7578720304       -0.1073152296
C          3.0082967514        0.6548054330        0.1145301925
C          4.3269484038        1.0203738466        0.1909794177
C          1.7730100202       -1.5654913441       -0.1663149459
C          0.7644602527       -1.3520533695        0.7744419432
C         -0.4236382321       -2.0478462432        0.7027837031
C         -0.6301445157       -2.9617124105       -0.3250050513
C          0.3794338193       -3.2088053454       -1.2450251269
C          1.5758833375       -2.5207700052       -1.1595510566
C          1.8224298046        1.5016323674        0.1697754008
C          0.8097052621        1.3211124232       -0.7733685896
C         -0.3546069949        2.0564482850       -0.7055609390
C         -0.5331634515        2.9777958535        0.3207791653
C          0.4815497694        3.1913926585        1.2436005420
C          1.6544704974        2.4636030854        1.1619584664
N         -1.8754499515       -3.6481961711       -0.4442124845
C         -2.9849203075       -2.9166810471       -0.8582426563
C         -4.2341416736       -3.5044970854       -1.0812634295
S         -4.4872997720       -5.2592745752       -1.0050399459
C         -3.0556321074       -5.7672983170       -0.0886137254
C         -1.9415281724       -4.9394647083        0.0706270699
N         -1.7540217628        3.7075671482        0.4350573899
C         -1.7711011416        5.0015082212       -0.0771868578
C         -2.8547763906        5.8691551427        0.0799904246
S         -4.3073425136        5.4116469246        0.9900746143
C         -4.1190039676        3.6485618641        1.0619628941
C         -2.8911170906        3.0160137634        0.8427609950
C         -3.0809015593       -7.0452891229        0.4434769801
C         -1.9913329804       -7.5442580356        1.1355800794
C         -0.8802690725       -6.7392447830        1.3044113978
C         -0.8605063104       -5.4560386458        0.7893276749
C         -2.8821343569       -1.5417460147       -1.0860693683
C         -3.9753616725       -0.7856226887       -1.4677686036
C         -5.2137213853       -1.3763576252       -1.6314754351
C         -5.3317293626       -2.7422787800       -1.4434778667
C         -5.2453592146        2.9261329786        1.4172942854
C         -5.1782152512        1.5563564643        1.6022409780
C         -3.9614828910        0.9212004739        1.4427553013
C         -2.8396309348        1.6377651841        1.0678313888
C         -0.6695283003        5.4797049488       -0.7912474988
C         -0.6404971903        6.7639396714       -1.3033014224
C         -1.7219052077        7.6087432473       -1.1362982144
C         -2.8314580390        7.1483862450       -0.4492228277
C         10.7057254517       -0.1823775388        0.0308974152
C         11.9064054287       -0.2031609676        0.0377864080
H          6.6921878355        1.4775098936        1.4450398277
H          9.1503689181        1.4465086086        1.4390282875
H          9.1067532194       -1.7550730766       -1.3928160367
H          6.6490851837       -1.7011440929       -1.4191166985
H          4.6860697847       -2.1573186736       -0.2792018975
H          4.7526321546        1.9981277147        0.2932739258
H          0.9200170873       -0.6373172307        1.5682967210
H         -1.2033284464       -1.8815317993        1.4319602011
H          0.2168605444       -3.9350403211       -2.0274335076
H          2.3542974379       -2.7021950599       -1.8850138690
H          0.9433712327        0.6009837391       -1.5663485215
H         -1.1372103348        1.9159270459       -1.4370404006
H          0.3413350648        3.9234318937        2.0249329494
H          2.4365524853        2.6195261101        1.8894025419
H         -3.9644603191       -7.6474445135        0.2941389183
H         -2.0169744708       -8.5456882297        1.5343390227
H         -0.0198020240       -7.1033986917        1.8441326112
H          0.0112339924       -4.8400736374        0.9427974330
H         -1.9275861475       -1.0548315069       -0.9692617487
H         -3.8532643985        0.2746434543       -1.6275879848
H         -6.0740617523       -0.7916787280       -1.9150256534
H         -6.2774112198       -3.2412727725       -1.5932533743
H         -6.1727970206        3.4590504468        1.5642779123
H         -6.0606529474        1.0028478783        1.8803865538
H         -3.8788595836       -0.1431795293        1.6005221838
H         -1.9029529938        1.1165748118        0.9543050482
H          0.1795409218        4.8325630483       -0.9434841110
H          0.2345269689        7.0974666193       -1.8394146327
H         -1.7094640463        8.6113283220       -1.5327794857
H         -3.6929753698        7.7820717780       -0.3015779033
H         12.9552328014       -0.2219864230        0.0433200079
