84
-133.84874446
C          6.6468626269        0.0144032415       -0.0058877810
C          7.3429278781        1.1206538107        0.4786310249
C          8.7220876884        1.1300118444        0.4792296929
C          9.4344115092        0.0298797127        0.0006388888
C          8.7365933921       -1.0781075909       -0.4811760583
C          7.3574097254       -1.0840842304       -0.4869958843
N          5.2472199386        0.0068079595       -0.0092761534
C          4.4567016484       -1.0941144725        0.1583263684
C          3.1436843523       -0.7109452218        0.0959721323
C          3.1368741703        0.7024795709       -0.1256527457
C          4.4459457487        1.0994161746       -0.1809749102
C          1.9269345907       -1.5154563009        0.1589370636
C          1.6743729213       -2.4016727420        1.2020498702
C          0.4500728194       -3.0374041399        1.3028605115
C         -0.5298906060       -2.8113530997        0.3438851963
C         -0.2643792132       -1.9756734165       -0.7334974435
C          0.9503564204       -1.3295720300       -0.8196944313
C          1.9117725111        1.4942330745       -0.1942023216
C          0.9391290188        1.3070147719        0.7887688832
C         -0.2820855171        1.9395144182        0.7002843037
C         -0.5587455016        2.7602725227       -0.3871742016
C          0.4179965129        2.9929962292       -1.3455010113
C          1.6492879583        2.3702191589       -1.2428194207
N         -1.8323364427       -3.3821468903        0.4540664684
C         -2.8449716847       -2.5330621470        0.8913609994
C         -4.2018386034       -2.8537459363        0.8048277775
S         -4.7734328550       -4.3779556633        0.1006397779
C         -3.2690122329       -5.3195459121        0.0412249540
C         -2.0071531952       -4.7296526193        0.1620072094
N         -1.8508187316        3.3518382294       -0.5234353066
C         -2.9070955237        2.5104845535       -0.8622347652
C         -4.2187290368        2.9672743788       -1.0238295475
S         -4.6495700431        4.6866047216       -0.9522182960
C         -3.1949758585        5.3797776667       -0.2094969941
C         -2.0005045444        4.6650056088       -0.0884140964
C         -3.4052569394       -6.6752546889       -0.2041842562
C         -2.2913812285       -7.4797289771       -0.3701578857
C         -1.0362868004       -6.9049056147       -0.3007189087
C         -0.8974531028       -5.5545424848       -0.0363695515
C         -2.5167736038       -1.2981781215        1.4572722509
C         -3.4918423384       -0.4158188806        1.8834478691
C         -4.8296295565       -0.7443783650        1.7770774778
C         -5.1757454313       -1.9735884923        1.2452832061
C         -3.2953419291        6.6878253881        0.2337204943
C         -2.2075889737        7.3291706153        0.7998063830
C         -1.0190643695        6.6362820627        0.9334857293
C         -0.9212323492        5.3251287191        0.5048524516
C         -2.6812115453        1.1479736195       -1.0757977151
C         -3.7126446923        0.2813640301       -1.3865711661
C         -5.0105033327        0.7424456228       -1.4888749942
C         -5.2527981251        2.0932098279       -1.3134515117
C         10.8496132963        0.0378516777        0.0040426240
C         12.0504890694        0.0445020567        0.0079756423
H          6.8014273269        1.9671154176        0.8711528498
H          9.2590384593        1.9868411512        0.8572451911
H          9.2847696983       -1.9288499034       -0.8568093236
H          6.8271789006       -1.9364325930       -0.8821625333
H          4.8719138828       -2.0684719855        0.3180743051
H          4.8515023429        2.0781033751       -0.3389889748
H          2.4279086027       -2.5619619158        1.9584744981
H          0.2399625435       -3.6928533154        2.1353161598
H         -1.0244672855       -1.8214653481       -1.4851768084
H          1.1483332341       -0.6687693658       -1.6499449013
H          1.1478544114        0.6569211298        1.6249388271
H         -1.0387833016        1.7867933935        1.4554591794
H          0.2020572723        3.6509650730       -2.1739942455
H          2.4011319604        2.5350992410       -1.9997888898
H         -4.4005806726       -7.0862631936       -0.2823586215
H         -2.4098888717       -8.5333550037       -0.5658851512
H         -0.1525114262       -7.5055040458       -0.4509665229
H          0.0909749117       -5.1264681191        0.0048635579
H         -1.4784325108       -1.0243643487        1.5549681177
H         -3.2001690275        0.5340151501        2.3048763542
H         -5.5966208857       -0.0593400445        2.1010232983
H         -6.2116195594       -2.2632732253        1.1516338199
H         -4.2395392505        7.1983319680        0.1176662765
H         -2.2948392940        8.3516542978        1.1305253591
H         -0.1576208742        7.1108938236        1.3772600641
H          0.0120873002        4.7996182741        0.6290924659
H         -1.6788444789        0.7588792139       -1.0003397484
H         -3.4964115933       -0.7646375025       -1.5409569877
H         -5.8220827530        0.0693298672       -1.7141288577
H         -6.2505498828        2.4932758228       -1.4150747580
H         13.0994584187        0.0506250679        0.0110067502
