84
-133.84744597
C          6.2596885971        0.0004349060       -0.0025458796
C          6.9646888137       -0.8664560165        0.8306993470
C          8.3438320399       -0.8655861675        0.8286463803
C          9.0465613024        0.0069907101       -0.0030446143
C          8.3394588521        0.8758434428       -0.8349775767
C          6.9603667715        0.8701682297       -0.8365600482
N          4.8605802053       -0.0017320316       -0.0016130729
C          4.0654365604       -1.0847980241        0.2291609865
C          2.7491960387       -0.7044920520        0.1417453091
C          2.7477453070        0.6972567404       -0.1413068403
C          4.0630807705        1.0798962108       -0.2309153005
C          1.5889662991       -1.5800610701        0.2426814354
C          1.5414388715       -2.5915942541        1.1998930230
C          0.4376418242       -3.4170371381        1.2993868927
C         -0.6339414788       -3.2485726203        0.4336811022
C         -0.5886206401       -2.2577748161       -0.5411891158
C          0.5117159204       -1.4302440210       -0.6316627564
C          1.5867020647        1.5719488191       -0.2406116934
C          0.5116753752        1.4237764537        0.6366884136
C         -0.5884941829        2.2518159348        0.5480251448
C         -0.6357513451        3.2413635122       -0.4280266053
C          0.4335723605        3.4078629268       -1.2969055336
C          1.5371349741        2.5819981082       -1.1992577814
N         -1.7673243566       -4.1084086351        0.5550430533
C         -2.9174748243       -3.5996652472        1.1488669312
C         -4.0250394295       -4.3979796528        1.4503977311
S         -4.0176529901       -6.1570524358        1.2138384826
C         -2.6682869703       -6.3348200677        0.0751676250
C         -1.7090686202       -5.3340939904       -0.1000533017
N         -1.7677598283        4.1029889901       -0.5483786263
C         -2.9195763054        3.5977496165       -1.1419019476
C         -4.0192037601        4.4026157813       -1.4547791504
S         -3.9968133994        6.1636028193       -1.2333052427
C         -2.6567726406        6.3368534191       -0.0829075363
C         -1.7056805988        5.3303695724        0.1031198139
C         -2.5840170331       -7.5356564883       -0.6084474547
C         -1.5298666312       -7.7849711190       -1.4699786154
C         -0.5656430515       -6.8104774032       -1.6481250385
C         -0.6590105579       -5.6024610247       -0.9814627305
C         -2.9991400199       -2.2456461400        1.4829895329
C         -4.1358662796       -1.7094935633        2.0601265300
C         -5.2345573371       -2.5077208357        2.3175132637
C         -5.1686271411       -3.8557553179        2.0112494570
C         -2.5699825060        7.5392093603        0.5976564648
C         -1.5208793788        7.7840203660        1.4666402900
C         -0.5644500619        6.8037813469        1.6552769648
C         -0.6605821964        5.5943103441        0.9916685824
C         -3.0112522274        2.2414199063       -1.4636239290
C         -4.1501359049        1.7097400828       -2.0406420016
C         -5.2408551024        2.5149426740       -2.3100539656
C         -5.1650104904        3.8651041692       -2.0155526850
C         10.4617551683        0.0110411052       -0.0028255656
C         11.6626504479        0.0158447516       -0.0025769145
H          6.4298910821       -1.5293523215        1.4927154469
H          8.8883090439       -1.5356352173        1.4766223071
H          8.8805750867        1.5484613732       -1.4831173920
H          6.4222386049        1.5303575553       -1.4985756724
H          4.4758261659       -2.0646192095        0.3682085695
H          4.4713587894        2.0605131430       -0.3704985413
H          2.3690756424       -2.7175934275        1.8809625218
H          0.3975770297       -4.1955675906        2.0465971812
H         -1.4187927009       -2.1450741506       -1.2231635373
H          0.5467603334       -0.6662570611       -1.3933957924
H          0.5483805557        0.6607007956        1.3992778337
H         -1.4166403974        2.1407595387        1.2327306383
H          0.3919235803        4.1854160301       -2.0450624660
H          2.3630221178        2.7065019875       -1.8827251971
H         -3.3499215817       -8.2781186136       -0.4419343097
H         -1.4675744036       -8.7284017925       -1.9882902596
H          0.2665239746       -6.9820427665       -2.3132912623
H          0.0981364584       -4.8513767192       -1.1413516974
H         -2.1534728171       -1.6039583918        1.2952562793
H         -4.1571351361       -0.6587166494        2.3050114159
H         -6.1275366805       -2.0969440558        2.7608016864
H         -6.0000725590       -4.5117730659        2.2211160525
H         -3.3293095085        8.2864431645        0.4226243798
H         -1.4562292136        8.7286572823        1.9824688422
H          0.2636434118        6.9720745647        2.3263427896
H          0.0902968632        4.8386254645        1.1593786606
H         -2.1718961763        1.5943691114       -1.2661630362
H         -4.1795336695        0.6568912467       -2.2756891510
H         -6.1353014295        2.1077150992       -2.7536601995
H         -5.9899708151        4.5261567621       -2.2349610790
H         12.7116470165        0.0200492055       -0.0019426774
