84
-133.84875590
C          6.4933140314        0.0001707572       -0.0001428667
C          7.1963476931       -1.1525637179        0.3463177072
C          8.5754487611       -1.1540604169        0.3432510645
C          9.2804841500       -0.0001994375       -0.0009452277
C          8.5755421232        1.1539358754       -0.3444118433
C          7.1964282279        1.1528231972       -0.3466891408
N          5.0943981524        0.0000831997       -0.0002200225
C          4.2987324921       -1.0699406581       -0.2917094682
C          2.9858938171       -0.6880020259       -0.1963482554
C          2.9856022264        0.6873765435        0.1956296783
C          4.2982969248        1.0698074466        0.2911874623
C          1.7880868570       -1.4644691211       -0.4938551830
C          1.6104871927       -2.7546799293       -0.0020366422
C          0.4290161418       -3.4364911646       -0.2284696135
C         -0.5850327201       -2.8414553641       -0.9663762771
C         -0.3977585153       -1.5732740344       -1.5057085175
C          0.7752754219       -0.8904203370       -1.2635507429
C          1.7874434910        1.4633746231        0.4929933026
C          0.7747451657        0.8889888314        1.2625836063
C         -0.3984072924        1.5715863567        1.5049709920
C         -0.5858942542        2.8398809428        0.9659958826
C          0.4279271412        3.4351260168        0.2279409546
C          1.6094855462        2.7535670244        0.0012475706
N         -1.8133041051       -3.5399064962       -1.1648652240
C         -1.8442358050       -4.4951890930       -2.1766058122
C         -2.9337998030       -5.3429995824       -2.3907256470
S         -4.3757573156       -5.3061900068       -1.3578283133
C         -4.1755093565       -3.7352580406       -0.5569602959
C         -2.9435827611       -3.0758441169       -0.4981297323
N         -1.8136995645        3.5388848170        1.1653867612
C         -1.8435902588        4.4933548040        2.1779327414
C         -2.9314865943        5.3434725136        2.3913422046
S         -4.3715345306        5.3112758558        1.3556108747
C         -4.1750503715        3.7390684159        0.5562920268
C         -2.9447088135        3.0765817191        0.4986963464
C         -5.2956691696       -3.2214508175        0.0739612449
C         -5.2177772058       -2.0552933054        0.8149411167
C         -3.9966287962       -1.4188458251        0.9298217743
C         -2.8810958766       -1.9188901776        0.2831614260
C         -0.7516470396       -4.6307956573       -3.0367263988
C         -0.7365872857       -5.5778976771       -4.0442210186
C         -1.8234442874       -6.4095807317       -4.2394884012
C         -2.9245172539       -6.2783673465       -3.4115142453
C         -5.2961390927        3.2274329718       -0.0747182154
C         -5.2207008951        2.0603146138       -0.8144488423
C         -4.0011268031        1.4205721504       -0.9278213512
C         -2.8846818215        1.9185088062       -0.2810915026
C         -0.7518222938        4.6256147427        3.0396010139
C         -0.7360312457        5.5716351065        4.0480998230
C         -1.8213414454        6.4054719993        4.2428185170
C         -2.9215611531        6.2776881511        3.4131702497
C         10.6956898033       -0.0005813936       -0.0018271525
C         11.8965823402       -0.0011820813       -0.0027435244
H          6.6598188879       -2.0430209846        0.6343480836
H          9.1181904286       -2.0469928871        0.6142635757
H          9.1183647634        2.0467575667       -0.6156246970
H          6.6599883159        2.0434715694       -0.6343049567
H          4.7088356670       -2.0060112916       -0.6130680822
H          4.7080403340        2.0060473058        0.6125215033
H          2.3922695876       -3.2124843227        0.5847873303
H          0.2818120778       -4.4295675238        0.1692244376
H         -1.1800398847       -1.1278950499       -2.1031711711
H          0.9159604820        0.0966809908       -1.6771748753
H          0.9156558539       -0.0981337538        1.6760922941
H         -1.1804379840        1.1260068347        2.1026104072
H          0.2804939537        4.4282644984       -0.1695212856
H          2.3911215424        3.2115862186       -0.5856037751
H         -6.2266873297       -3.7616219905       -0.0106338619
H         -6.0953770528       -1.6639248427        1.3039111706
H         -3.9055970735       -0.5188637583        1.5183738605
H         -1.9407191254       -1.4036979585        0.3935996258
H          0.1013818523       -3.9835063418       -2.9091947306
H          0.1318410024       -5.6569822575       -4.6797419479
H         -1.8216449485       -7.1505456170       -5.0227535688
H         -3.7899216256       -6.9114638007       -3.5372875739
H         -6.2258321017        3.7700657127        0.0086933435
H         -6.0989767809        1.6706921996       -1.3036053209
H         -3.9120552323        0.5196445685       -1.5152330129
H         -1.9455523007        1.4007835886       -0.3903145790
H          0.0999567441        3.9766036477        2.9124572502
H          0.1317266370        5.6481699719        4.6848437613
H         -1.8189439986        7.1455931912        5.0268808610
H         -3.7856376261        6.9127065674        3.5383550284
H         12.9455944838       -0.0014991047       -0.0032847999
