84
-133.84757077
C          6.3037268883        0.0018446988        0.0021428274
C          7.0084880128       -0.8777341332        0.8222956490
C          8.3876342592       -0.8791650881        0.8186322548
C          9.0909487496        0.0040425564       -0.0011966187
C          8.3842441400        0.8860234834       -0.8195590411
C          7.0051719906        0.8823998393       -0.8199144207
N          4.9047121720        0.0012057013        0.0039526071
C          4.1088795438       -1.0836669398        0.2262334698
C          2.7935471996       -0.7011881079        0.1422432376
C          2.7930506603        0.7026669906       -0.1291201459
C          4.1077465424        1.0857595986       -0.2164523602
C          1.6249078464       -1.5666762262        0.2338306677
C          1.5516723260       -2.5721524209        1.1954175837
C          0.4330913844       -3.3784860007        1.2879308630
C         -0.6262844395       -3.1980237069        0.4094675718
C         -0.5532704880       -2.2154639508       -0.5720703304
C          0.5603637400       -1.4053264379       -0.6538686825
C          1.6234995041        1.5674663254       -0.2194014197
C          0.5683719789        1.4174328571        0.6812334913
C         -0.5470821432        2.2252186493        0.5995212577
C         -0.6321623644        3.1923606295       -0.3963063492
C          0.4186864791        3.3620485578       -1.2872761532
C          1.5398260618        2.5595140674       -1.1938420098
N         -1.7747857427       -4.0382020342        0.5222976516
C         -2.9375859792       -3.4960127322        1.0599905805
C         -4.0683399433       -4.2696476967        1.3396420712
S         -4.0781373756       -6.0349248105        1.1557302940
C         -2.6933607922       -6.2638237978        0.0702838612
C         -1.7142368615       -5.2816535215       -0.0991556061
N         -1.7825682159        4.0287827621       -0.5127198915
C         -2.9557629355        3.4753145569       -1.0152888019
C         -4.0838783983        4.2475074519       -1.3096349782
S         -4.0739327524        6.0190653565       -1.2014619691
C         -2.6777165741        6.2782764907       -0.1378239848
C         -1.7071313625        5.2936165917        0.0625222977
C         -2.6044989165       -7.4838809887       -0.5778806293
C         -1.5264999064       -7.7711228817       -1.3969403585
C         -0.5436536026       -6.8145175916       -1.5703107603
C         -0.6413056747       -5.5875363584       -0.9399290082
C         -3.0100772883       -2.1332418455        1.3591899319
C         -4.1600436598       -1.5655088293        1.8769102703
C         -5.2816330195       -2.3394898952        2.1078597425
C         -5.2247472715       -3.6959566718        1.8396071426
C         -2.5715803254        7.5217933380        0.4613593761
C         -1.4852538110        7.8288284609        1.2619960065
C         -0.5127907354        6.8681769827        1.4688484134
C         -0.6272906109        5.6189243461        0.8869753943
C         -3.0432468153        2.1029365737       -1.2618318571
C         -4.2056142057        1.5256352362       -1.7397543368
C         -5.3248783456        2.2994722529       -1.9822575577
C         -5.2526727733        3.6648901582       -1.7687829529
C         10.5061457583        0.0053130421       -0.0032028145
C         11.7070334339        0.0086131915       -0.0049749769
H          6.4736982231       -1.5492978204        1.4754970424
H          8.9316155464       -1.5596575427        1.4560805098
H          8.9257440631        1.5671675374       -1.4584180997
H          6.4676332402        1.5529008527       -1.4719453530
H          4.5184464759       -2.0648931005        0.3573731512
H          4.5160318477        2.0673218582       -0.3490507883
H          2.3702677894       -2.7076074468        1.8856165502
H          0.3722057221       -4.1517706338        2.0391749973
H         -1.3726048776       -2.0948769000       -1.2657592569
H          0.6160332749       -0.6464994581       -1.4195387227
H          0.6329582864        0.6689953108        1.4564430920
H         -1.3583214314        2.1144743323        1.3042400990
H          0.3490224234        4.1242315325       -2.0490706569
H          2.3516603475        2.6865060293       -1.8936052922
H         -3.3864112186       -8.2107429268       -0.4171195231
H         -1.4607519246       -8.7292756196       -1.8870422525
H          0.3065982614       -7.0149727726       -2.2037599794
H          0.1303666797       -4.8508048723       -1.0970304494
H         -2.1475008954       -1.5086673073        1.1915190497
H         -4.1739360213       -0.5087879294        2.0953312193
H         -6.1852194263       -1.9034644766        2.5028660201
H         -6.0740312097       -4.3339593263        2.0328931395
H         -3.3465483808        8.2504245908        0.2767723043
H         -1.4055037850        8.8049592915        1.7129875642
H          0.3423833865        7.0832192933        2.0907744752
H          0.1361693347        4.8794679543        1.0695791780
H         -2.1829189108        1.4778712187       -1.0848320891
H         -4.2311063398        0.4615161502       -1.9175835682
H         -6.2381690961        1.8560796980       -2.3454719746
H         -6.0993503319        4.3023664733       -1.9747981987
H         12.7560464702        0.0105828953       -0.0056859477
