84
-133.84325291
C          6.2825498812        0.1729051745       -0.1214214489
C          6.9584882686        1.2885730973        0.3707210754
C          8.3366624957        1.3338383275        0.3493005926
C          9.0693748321        0.2610656887       -0.1597308472
C          8.3922712941       -0.8568226419       -0.6482613018
C          7.0139066678       -0.8987333246       -0.6317912058
N          4.8847249079        0.1298423182       -0.1052596378
C          4.1205588840       -0.9922230904        0.0394247261
C          2.7930811595       -0.6460754882        0.0084028344
C          2.7493329182        0.7724332016       -0.1757117273
C          4.0524556181        1.2008886039       -0.2371437283
C          1.6694503978       -1.5720779614        0.0790592262
C          1.6964963767       -2.6661783959        0.9405975105
C          0.6494725115       -3.5615015176        0.9983227638
C         -0.4721553802       -3.4085416641        0.1782156263
C         -0.5172556516       -2.2895410759       -0.6583725343
C          0.5352289489       -1.4011878324       -0.7117671365
C          1.5698388342        1.6264960180       -0.2320732982
C          0.4819521550        1.3977711121        0.6116616857
C         -0.6390813539        2.1997651264        0.5481272489
C         -0.6895868963        3.2514223094       -0.3603236577
C          0.3942682228        3.5037417047       -1.1888055924
C          1.5147388704        2.6976074915       -1.1221918246
N         -1.5388281255       -4.2976723298        0.2503088042
C         -1.5608020109       -5.3886718107        1.1405534525
C         -2.6315278950       -5.5438079296        2.0192209162
S         -3.9537864489       -4.3563671646        1.9847793889
C         -3.9544268285       -4.0996874436        0.2263178839
C         -2.7407798006       -4.1079521483       -0.4592308852
N         -1.8498562976        4.0794751145       -0.4601487454
C         -2.8950641639        3.6285186498       -1.2582986000
C         -4.0171283202        4.4098053746       -1.5487871875
S         -4.1721505446        6.0881920029       -0.9932740296
C         -2.9456897763        6.1365408810        0.2886309118
C         -1.9332186094        5.1781130085        0.3870137040
C         -5.1514500331       -3.9143603776       -0.4458779340
C         -5.1472676742       -3.7444221661       -1.8184566800
C         -3.9519465234       -3.8018964373       -2.5175582959
C         -2.7584076833       -3.9975845426       -1.8468935701
C         -0.5677192929       -6.3640951317        1.1197471388
C         -0.6111424518       -7.4247012529        2.0059269625
C         -1.6590586396       -7.5436221950        2.9053259529
C         -2.6810630626       -6.6117391787        2.9002032036
C         -3.0086126917        7.2046531556        1.1669196245
C         -2.0508960751        7.3654692724        2.1532420462
C         -1.0290479077        6.4397075255        2.2512825952
C         -0.9753223452        5.3612145120        1.3871952228
C         -2.8479692544        2.3480964898       -1.8151816413
C         -3.8709427562        1.8670598631       -2.6119012411
C         -4.9824177007        2.6468665920       -2.8711377212
C         -5.0477565894        3.9201950809       -2.3326472211
C         10.4836941223        0.3065448496       -0.1803366663
C         11.6837913886        0.3453293604       -0.1991145168
H          6.4019425307        2.1141326472        0.7861824452
H          8.8572483984        2.1981929457        0.7331288321
H          8.9557436341       -1.6868241786       -1.0470440732
H          6.4990643093       -1.7579727570       -1.0323758031
H          4.5613945613       -1.9603763585        0.1657281313
H          4.4295418619        2.1950662328       -0.3684816745
H          2.5451135497       -2.8065452581        1.5939899694
H          0.6946450715       -4.3716277484        1.7092564823
H         -1.3909299082       -2.0963300215       -1.2604870600
H          0.4766963507       -0.5588728366       -1.3853088933
H          0.5199708688        0.5846304376        1.3203789067
H         -1.4827729466        2.0169820653        1.1977490306
H          0.3483369392        4.3268387817       -1.8863587905
H          2.3501985346        2.8852575426       -1.7793101689
H         -6.0732805116       -3.8980575438        0.1146515033
H         -6.0773367962       -3.5859265924       -2.3410443272
H         -3.9481532102       -3.7013530054       -3.5918250448
H         -1.8286559584       -4.0639789827       -2.3909710110
H          0.2373156193       -6.2774734693        0.4060968317
H          0.1736367937       -8.1648616508        1.9889213009
H         -1.6902268064       -8.3684358578        3.5995056117
H         -3.5162606277       -6.6970008780        3.5779348204
H         -3.8117635924        7.9173218114        1.0544592668
H         -2.1044658885        8.2061542402        2.8262441653
H         -0.2655935851        6.5479309464        3.0061756473
H         -0.1728283116        4.6472122120        1.4828759493
H         -1.9909247097        1.7224030464       -1.6234790126
H         -3.7924485672        0.8739087884       -3.0266784457
H         -5.7865887358        2.2794658368       -3.4882497757
H         -5.8951368311        4.5602953160       -2.5272287771
H         12.7320922833        0.3800572640       -0.2155276176
