84
-133.84859798
C          6.4366109746        0.0047296559       -0.0317737975
C          7.1403159076       -1.1426706084        0.3305935981
C          8.5193578011       -1.1457897143        0.3195953135
C          9.2235223147        0.0011268795       -0.0488390277
C          8.5178454697        1.1499770547       -0.4081666580
C          7.1387276875        1.1504692036       -0.4022373838
N          5.0377123396        0.0058472043       -0.0240668600
C          4.2400673375       -1.0674833425       -0.2960283869
C          2.9274663151       -0.6839256131       -0.1987824789
C          2.9297801004        0.6966391630        0.1734051258
C          4.2435617260        1.0796331916        0.2564239920
C          1.7350320876       -1.4712021923       -0.4880354382
C          0.7142206040       -0.9130959201       -1.2585316459
C         -0.4420555551       -1.6197984364       -1.5139012833
C         -0.6057810972       -2.8955629145       -0.9848475040
C          0.4134052260       -3.4705811080       -0.2377144775
C          1.5786154402       -2.7657281563        0.0002453785
C          1.7398037763        1.4830482742        0.4751183121
C          0.7283437030        0.9235440197        1.2569119815
C         -0.4273276233        1.6273824602        1.5224775253
C         -0.6000001684        2.9016722530        0.9926714115
C          0.4104192843        3.4785778331        0.2352136888
C          1.5752726207        2.7765672312       -0.0130880871
N         -1.8090408015       -3.6283728362       -1.2083811062
C         -1.7828318498       -4.5978575392       -2.2071311388
C         -2.8326348263       -5.4928099006       -2.4275665787
S         -4.2917661834       -5.5007405728       -1.4187454740
C         -4.1740774638       -3.9064098989       -0.6481302711
C         -2.9711693811       -3.1965525359       -0.5756518753
N         -1.8041697019        3.6302448363        1.2253570983
C         -1.7746699781        4.5985082344        2.2252171562
C         -2.8274909979        5.4873712048        2.4557334095
S         -4.2945376451        5.4891598407        1.4584223726
C         -4.1758709068        3.8951436137        0.6873328799
C         -2.9698590612        3.1918130882        0.6036848780
C         -5.3282800899       -3.4264001034       -0.0529609232
C         -5.3141937691       -2.2439863068        0.6658808259
C         -4.1222168441       -1.5567635806        0.7956574875
C         -2.9730279159       -2.0234448435        0.1837176257
C         -0.6715349299       -4.6987727606       -3.0479028197
C         -0.5997525204       -5.6585450679       -4.0408222028
C         -1.6474587004       -6.5378213140       -4.2417169763
C         -2.7673226751       -6.4408650732       -3.4345492588
C         -5.3330921055        3.4086080623        0.1034284854
C         -5.3193788884        2.2260772452       -0.6152173807
C         -4.1249108616        1.5454292697       -0.7562975344
C         -2.9725158579        2.0185153072       -0.1554122193
C         -0.6567928105        4.7045657709        3.0565585938
C         -0.5821312243        5.6631376839        4.0504304652
C         -1.6331783355        6.5359620693        4.2617561607
C         -2.7591801242        6.4340513370        3.4637939929
C         10.6387246843       -0.0011066582       -0.0580723833
C         11.8395650484       -0.0037114863       -0.0661180859
H          6.6043427421       -2.0272793204        0.6371273918
H          9.0627741554       -2.0344563725        0.6029701178
H          9.0600460513        2.0372570483       -0.6981474135
H          6.6012948578        2.0365321603       -0.7019476895
H          4.6480300792       -2.0080401285       -0.6069047847
H          4.6553759648        2.0200783309        0.5625592994
H          0.8371349867        0.0788007819       -1.6663427405
H         -1.2270480195       -1.1888414599       -2.1183038784
H          0.2842152124       -4.4685812005        0.1539949227
H          2.3655776394       -3.2101588161        0.5903957271
H          0.8579588341       -0.0674273450        1.6648820747
H         -1.2053064693        1.1951288020        2.1349733262
H          0.2745988600        4.4755633688       -0.1568252020
H          2.3551699183        3.2223069161       -0.6115806575
H         -6.2345201228       -4.0057390716       -0.1469270200
H         -6.2177405793       -1.8793238908        1.1275050632
H         -4.0800819917       -0.6430021166        1.3684165530
H         -2.0566278148       -1.4691696016        0.3061410125
H          0.1511550447       -4.0140499197       -2.9167112591
H          0.2818871230       -5.7099071652       -4.6608238815
H         -1.6011777683       -7.2891403361       -5.0136793908
H         -3.6035162419       -7.1110641354       -3.5655697527
H         -6.2415778035        3.9829460634        0.2059877638
H         -6.2252815565        1.8562533805       -1.0680308430
H         -4.0832974851        0.6317785876       -1.3292650312
H         -2.0543218406        1.4691803444       -0.2863835683
H          0.1687230403        4.0248804131        2.9171404231
H          0.3044462535        5.7186401252        4.6629886403
H         -1.5847641261        7.2861128504        5.0347262646
H         -3.5980293025        7.0992762662        3.6029347045
H         12.8885464325       -0.0056385961       -0.0728457983
