84
-133.84135167
C          6.2804711817       -0.0351388289        0.1531388451
C          7.0420071542        0.9230697016       -0.5139661304
C          8.4187233523        0.8961430656       -0.4361712165
C          9.0634600351       -0.0940197214        0.3058893739
C          8.3003078039       -1.0544630198        0.9707165624
C          6.9235361322       -1.0230125005        0.8974093545
N          4.8841383168       -0.0051540808        0.0778025909
C          4.0589184325       -1.0880572105        0.1214890864
C          2.7567895614       -0.6693825544       -0.0062680921
C          2.7974529237        0.7545330911       -0.1081375779
C          4.1153496832        1.1170626680       -0.0488471041
C          1.5749311920       -1.5252608028       -0.0084572737
C          1.4508758843       -2.5536279994        0.9247026454
C          0.3388104914       -3.3728301774        0.9301173459
C         -0.6661313059       -3.1891870446       -0.0113979313
C         -0.5430472619       -2.1811274352       -0.9604825625
C          0.5611541660       -1.3522697141       -0.9485690741
C          1.6377890951        1.6579749913       -0.1295813283
C          1.1948639191        2.2173843574        1.0652565954
C          0.0809995085        3.0339132930        1.0918522933
C         -0.6233989359        3.2808638259       -0.0809178863
C         -0.1704561214        2.7538047913       -1.2827441126
C          0.9607169645        1.9587681850       -1.3060523455
N         -1.7876351331       -4.0699220509       -0.0011696524
C         -3.0430191074       -3.5719689444        0.3375958490
C         -4.1421298674       -4.4111317378        0.5487280097
S         -3.9841294948       -6.1790369673        0.5670057244
C         -2.5172913218       -6.3717791642       -0.4112861222
C         -1.5967762522       -5.3318777428       -0.5600365598
N         -1.8016475337        4.0842069110       -0.0780026688
C         -2.9467689010        3.5904680467        0.5416770393
C         -4.1817382951        4.2418483061        0.4563392015
S         -4.4330165666        5.6585299649       -0.5828878789
C         -2.7639848137        6.2342547751       -0.7532769454
C         -1.6692053917        5.4017577296       -0.5096187630
C         -2.3032228611       -7.6093959764       -0.9934929294
C         -1.1532097839       -7.8543442663       -1.7231381281
C         -0.2286711966       -6.8379593542       -1.8789241077
C         -0.4523777839       -5.5945651333       -1.3168528565
C         -3.2542334419       -2.2000629637        0.4931128578
C         -4.5060648193       -1.6893397102        0.7847164065
C         -5.5907830235       -2.5322277981        0.9382911269
C         -5.3969041399       -3.8978580713        0.8279087704
C         -2.5911949764        7.5424127725       -1.1724101356
C         -1.3224492143        8.0541290899       -1.3806059569
C         -0.2264593930        7.2450786867       -1.1441342520
C         -0.3971881790        5.9450003909       -0.7050532847
C         -2.9078942190        2.4013699491        1.2738430901
C         -4.0230422740        1.9216438365        1.9367912357
C         -5.2219698215        2.6073655913        1.8824656265
C         -5.2944799215        3.7651592946        1.1280295314
C         10.4762483490       -0.1240619334        0.3837687514
C         11.6749747748       -0.1501212453        0.4501582977
H          6.5533958952        1.6799944348       -1.1073572660
H          9.0064769010        1.6379030341       -0.9555446617
H          8.7959434258       -1.8191095709        1.5495801964
H          6.3417056472       -1.7572763683        1.4322474251
H          4.4405384497       -2.0879225603        0.1705448320
H          4.5439597354        2.0988094966       -0.0554730463
H          2.2283687943       -2.7000443368        1.6589820583
H          0.2434813665       -4.1659859292        1.6569480577
H         -1.3090961841       -2.0583916274       -1.7123573486
H          0.6492344874       -0.5781611418       -1.6928532034
H          1.7300876150        2.0069523223        1.9790547135
H         -0.2530886821        3.4767812487        2.0187702245
H         -0.7065500601        2.9749113537       -2.1937399086
H          1.3224467212        1.5703814048       -2.2467850528
H         -3.0438417690       -8.3817061128       -0.8506690484
H         -0.9877026732       -8.8259466589       -2.1604338024
H          0.6735508162       -7.0046341358       -2.4469009451
H          0.2739643372       -4.8106532890       -1.4617195028
H         -2.4241479670       -1.5196880911        0.3935295252
H         -4.6275297495       -0.6215028384        0.8822770666
H         -6.5712633133       -2.1400107645        1.1560988333
H         -6.2146807163       -4.5871199093        0.9753392520
H         -3.4679321093        8.1473046942       -1.3481935788
H         -1.1988891334        9.0695032479       -1.7216493180
H          0.7727516256        7.6234187401       -1.2948274601
H          0.4706776112        5.3343261553       -0.5129460073
H         -1.9918958046        1.8353555890        1.3211944712
H         -3.9420657442        1.0075573969        2.5052550177
H         -6.0936507551        2.2442711384        2.4031113836
H         -6.2230679593        4.3081723143        1.0362879572
H         12.7221589642       -0.1727690660        0.5080068013
