84
-133.84738838
C          6.2464732836        0.0043697715        0.0090614040
C          6.9475324098        0.9749666690        0.7226937772
C          8.3266543179        0.9731445093        0.7292304761
C          9.0331929182       -0.0035410223        0.0264887204
C          8.3299904550       -0.9757051659       -0.6858257224
C          6.9509244081       -0.9696649899       -0.6965333184
N          4.8473519462        0.0069590519        0.0019042510
C          4.0500279970       -1.0954611071       -0.0820040362
C          2.7343614263       -0.7041562615       -0.0508866065
C          2.7357675395        0.7230854225        0.0395575374
C          4.0520929654        1.1113233692        0.0801311369
C          1.5757344055       -1.5874837681       -0.0342164526
C          1.5379929527       -2.7242831635       -0.8393486844
C          0.4407416756       -3.5640256899       -0.8231627447
C         -0.6347223065       -3.2828275274        0.0076612305
C         -0.6012356826       -2.1618466927        0.8300332404
C          0.4933571622       -1.3220233891        0.8056462893
C          1.5779032403        1.6072349303        0.0177875288
C          1.5349843967        2.7417451999        0.8258609379
C          0.4348071902        3.5777190510        0.8100713730
C         -0.6381127276        3.2950327267       -0.0235196818
C         -0.5978957949        2.1783193964       -0.8513845917
C          0.4994726518        1.3421872887       -0.8272723741
N         -1.7592491833       -4.1628934288        0.0098522775
C         -1.6978328366       -5.2722532493        0.8464809899
C         -2.6459109973       -6.2982638373        0.8175547410
S         -3.9819446022       -6.3145970386       -0.3503614741
C         -3.9987888181       -4.6156333881       -0.8638178393
C         -2.9039036787       -3.7672600931       -0.6734607300
N         -1.7695376335        4.1662542903       -0.0202479053
C         -1.7183408670        5.2812877184       -0.8498126601
C         -2.6780208700        6.2963960512       -0.8178656360
S         -4.0188994074        6.2908860902        0.3445718406
C         -4.0144771690        4.5908244686        0.8545498079
C         -2.9095763378        3.7559891705        0.6622552887
C         -5.1362371097       -4.1814746305       -1.5226282724
C         -5.2081542143       -2.8990507758       -2.0380423377
C         -4.1222722095       -2.0569192721       -1.8889569337
C         -2.9919620174       -2.4826434506       -1.2152759793
C         -0.6556561260       -5.3908006915        1.7691770425
C         -0.5599996685       -6.4801828425        2.6156974153
C         -1.5138899090       -7.4801363253        2.5806416328
C         -2.5594798122       -7.3780553598        1.6795275688
C         -5.1466218508        4.1416875592        1.5125105470
C         -5.2034248653        2.8573928641        2.0251129670
C         -4.1076059617        2.0286107761        1.8742020735
C         -2.9824731256        2.4692713403        1.2014883460
C         -0.6745939636        5.4171807113       -1.7683384824
C         -0.5883965172        6.5126765808       -2.6079756810
C         -1.5534918530        7.5017039320       -2.5699413428
C         -2.6007579606        7.3823843656       -1.6728985224
C         10.4483730488       -0.0085131159        0.0365555390
C         11.6491635952       -0.0138872740        0.0455370032
H          6.4095706020        1.7209007629        1.2865051329
H          8.8681424417        1.7238247156        1.2847173312
H          8.8741149631       -1.7294075054       -1.2346024979
H          6.4158197691       -1.7124929496       -1.2671283983
H          4.4582913952       -2.0859701488       -0.0853219919
H          4.4627188600        2.1008436673        0.0867769311
H          2.3688502560       -2.9395095084       -1.4935905321
H          0.4090391209       -4.4412475342       -1.4520599421
H         -1.4354359723       -1.9589571776        1.4857006662
H          0.5200771454       -0.4572142708        1.4510359639
H          2.3633598243        2.9572723521        1.4831470135
H          0.3982737885        4.4522694275        1.4424194026
H         -1.4299268680        1.9748743842       -1.5096298297
H          0.5308673731        0.4797628887       -1.4756187334
H         -5.9579042082       -4.8718227401       -1.6409465058
H         -6.0960681140       -2.5735929867       -2.5560731119
H         -4.1486394988       -1.0574470211       -2.2950652324
H         -2.1562278589       -1.8092456492       -1.1138265166
H          0.0936334550       -4.6167901107        1.8182756411
H          0.2658281751       -6.5384837162        3.3077944487
H         -1.4498026987       -8.3313884106        3.2393257375
H         -3.3165671080       -8.1455422953        1.6213579848
H         -5.9764788263        4.8219312446        1.6321727113
H         -6.0874319290        2.5202285004        2.5423276674
H         -4.1220164280        1.0280558024        2.2782263813
H         -2.1389470067        1.8058817216        1.0987421308
H          0.0833918662        4.6518072445       -1.8196050988
H          0.2389147526        6.5844173207       -3.2970279577
H         -1.4968999421        8.3576412574       -3.2232161952
H         -3.3666799347        8.1409026334       -1.6126592103
H         12.6981667769       -0.0179640952        0.0537174322
