84
-133.84851878
C          6.5196435601       -0.1285979508        0.3519519129
C          7.2380421865       -1.1231940579       -0.3095283341
C          8.6148615688       -1.1542475301       -0.2344851123
C          9.3023845142       -0.1871122541        0.4994658226
C          8.5822106937        0.8096429350        1.1587359801
C          7.2050863121        0.8365452349        1.0878054563
N          5.1220818323       -0.0995492752        0.2778692826
C          4.3077095454       -1.1904885291        0.1798304218
C          3.0043878996       -0.7704608203        0.1307920563
C          3.0300025893        0.6577820547        0.1994501104
C          4.3471497205        1.0240773747        0.2908685671
C          1.7918587107       -1.5652277349       -0.0320258592
C          1.5390912320       -2.6878763083        0.7510342102
C          0.3383484733       -3.3652102228        0.6408588581
C         -0.6187284530       -2.9365805801       -0.2684301718
C         -0.3540278768       -1.8490125855       -1.0937062079
C          0.8376949653       -1.1670280751       -0.9693894376
C          1.8394190017        1.5004998538        0.2329157203
C          1.7129543635        2.6261980381       -0.5758811492
C          0.5334312201        3.3480804582       -0.5953318203
C         -0.5295589749        2.9617315028        0.2092955919
C         -0.3938464342        1.8716114663        1.0620609999
C          0.7778041641        1.1449664065        1.0660842833
N         -1.8722599157       -3.6142870660       -0.3469962152
C         -2.9965990229       -2.9562453664        0.1431645134
C         -4.2640506724       -3.5466262284        0.1702333852
S         -4.5342169131       -5.2428680206       -0.2754052031
C         -3.0500790551       -5.5961834824       -1.1811042849
C         -1.9192795747       -4.7789777425       -1.1071710270
N         -1.7583240124        3.6853028966        0.1522093320
C         -1.8398090767        4.8601720263        0.8936688590
C         -2.9401061344        5.7196458067        0.8423549576
S         -4.3345844894        5.4104538603       -0.2100096695
C         -4.0842891349        3.7001241314       -0.6110601195
C         -2.8498773820        3.0635545985       -0.4474003673
C         -3.0541440414       -6.7460678530       -1.9523547876
C         -1.9275899675       -7.1263484714       -2.6604338669
C         -0.7996290344       -6.3294392602       -2.6008371604
C         -0.7996556965       -5.1713382960       -1.8451092646
C         -2.8912366660       -1.6587932659        0.6515370279
C         -3.9965631280       -0.9689120532        1.1149578755
C         -5.2497023986       -1.5500372302        1.0834287055
C         -5.3723849431       -2.8466758312        0.6158297241
C         -5.1663039537        3.0365482021       -1.1640798609
C         -5.0452921716        1.7308841660       -1.6062521007
C         -3.8186070094        1.1035118647       -1.5028153781
C         -2.7418662247        1.7572993161       -0.9321672449
C         -0.7890648833        5.2195653526        1.7415150434
C         -0.8233577828        6.3861103888        2.4833441101
C         -1.9199866320        7.2251871967        2.4179527334
C         -2.9804471549        6.8783034188        1.5993123507
C         10.7153366313       -0.2164909090        0.5747840447
C         11.9141589870       -0.2409197489        0.6400629193
H          6.7167124635       -1.8623429459       -0.8974767864
H          9.1694637925       -1.9237516893       -0.7498610443
H          9.1111178712        1.5563572418        1.7314590217
H          6.6559688943        1.5982447228        1.6189321460
H          4.6990444038       -2.1873582055        0.1582493500
H          4.7744490291        2.0041198661        0.3564103576
H          2.2762215116       -3.0117245029        1.4700731455
H          0.1315830285       -4.2234373476        1.2626875446
H         -1.0926924783       -1.5385642243       -1.8184558118
H          1.0382571226       -0.3179329080       -1.6050934444
H          2.5332236265        2.9172725888       -1.2143984937
H          0.4255463121        4.2086285163       -1.2386111314
H         -1.2156723672        1.5941273213        1.7061514846
H          0.8783004928        0.2933617334        1.7218363582
H         -3.9519034458       -7.3451980396       -1.9777973078
H         -1.9381054078       -8.0305892431       -3.2475873362
H          0.0899472914       -6.6015128156       -3.1475803481
H          0.0867014326       -4.5576058068       -1.8217876614
H         -1.9254208348       -1.1818138865        0.6908918242
H         -3.8718423859        0.0337312353        1.4941025303
H         -6.1187784867       -1.0137439735        1.4291470675
H         -6.3315115249       -3.3423977236        0.6062702506
H         -6.1016569908        3.5675941077       -1.2582485317
H         -5.8936207139        1.2230803462       -2.0362567596
H         -3.6935081680        0.0926136356       -1.8592558625
H         -1.7960389513        1.2444069969       -0.8673817398
H          0.0706249990        4.5729082831        1.8163649905
H          0.0141691045        6.6315451515        3.1178560946
H         -1.9569274377        8.1364035921        2.9931318999
H         -3.8524676003        7.5105733577        1.5258607290
H         12.9614679968       -0.2614798970        0.6965012875
