84
-133.84859066
C          6.5802479016        0.0007270571       -0.0045631884
C          7.2842850556        1.0557162047       -0.5826736651
C          8.6634481321        1.0594534265       -0.5746875800
C          9.3675095398        0.0045758978        0.0069589962
C          8.6615819248       -1.0526072539        0.5821113269
C          7.2823436688       -1.0527083424        0.5786654733
N          5.1804339720        0.0001467730       -0.0086314216
C          4.3844753293       -1.1064161447       -0.0847159963
C          3.0725923916       -0.7129007719       -0.0608484682
C          3.0728252687        0.7139472035        0.0392065765
C          4.3847216598        1.1069559178        0.0658025740
C          1.8615999059       -1.5274350303       -0.0607041376
C          1.6454617838       -2.5297309520       -1.0017234891
C          0.4383427091       -3.2040335590       -1.0448987483
C         -0.5613912263       -2.8943701487       -0.1333321460
C         -0.3337023801       -1.9358458817        0.8479169027
C          0.8645565910       -1.2551396575        0.8771426255
C          1.8626431453        1.5294741072        0.0401110329
C          0.8634448573        1.2583605787       -0.8956981247
C         -0.3346667947        1.9392507568       -0.8626906653
C         -0.5598703991        2.8963902685        0.1204278003
C          0.4425283875        3.2057535963        1.0292737833
C          1.6494486270        2.5315692182        0.9821005910
N         -1.8255679777       -3.5533988225       -0.2099228134
C         -1.9320629674       -4.8003293831        0.3983072462
C         -3.0932280998       -5.5762054636        0.3530640358
S         -4.5529197757       -5.0560671322       -0.5112335367
C         -4.1961865465       -3.3408309164       -0.7913883547
C         -2.9082810772       -2.8097573675       -0.6706170793
N         -1.8254604688        3.5517949800        0.2030666736
C         -1.9361448050        4.8039262334       -0.3932465508
C         -3.1008170892        5.5743236508       -0.3444004726
S         -4.5633617062        5.0394306779        0.5059649931
C         -4.1935466340        3.3280547143        0.7925061085
C         -2.9030694553        2.8040206450        0.6688557079
C         -5.2600388977       -2.5557725532       -1.2024845749
C         -5.0709697478       -1.2277128384       -1.5418441904
C         -3.7955634899       -0.7003573525       -1.4814527560
C         -2.7346823606       -1.4766763173       -1.0525203629
C         -0.8420487274       -5.3255375753        1.0971509611
C         -0.8982431126       -6.5682768227        1.7011689377
C         -2.0546820117       -7.3231280423        1.6424339089
C         -3.1526273184       -6.8136246158        0.9716400423
C         -5.2513073199        2.5382351600        1.2103214985
C         -5.0537827277        1.2121589687        1.5525137116
C         -3.7758054724        0.6916281856        1.4882764362
C         -2.7208842251        1.4728340149        1.0536071747
C         -0.8463982449        5.3404801100       -1.0838953547
C         -0.9057723138        6.5888819801       -1.6757982187
C         -2.0652136760        7.3386994523       -1.6125054379
C         -3.1630382508        6.8178922626       -0.9502673068
C         10.7827756299        0.0073834231        0.0135041028
C         11.9835899876        0.0103635197        0.0193088757
H          6.7490049087        1.8651670872       -1.0539281227
H          9.2068476367        1.8761996368       -1.0252310474
H          9.2034482812       -1.8678538333        1.0371833481
H          6.7454074731       -1.8636586550        1.0454437892
H          4.7946719770       -2.0932013683       -0.1577888666
H          4.7950402599        2.0936048103        0.1399369310
H          2.4159749837       -2.7579192524       -1.7225280084
H          0.2595104165       -3.9650459211       -1.7897280035
H         -1.1075126889       -1.7201849476        1.5702653002
H          1.0360459242       -0.5034528251        1.6327082271
H          1.0327598808        0.5070702536       -1.6521372788
H         -1.1107155439        1.7238777231       -1.5827153813
H          0.2656028972        3.9659003428        1.7754570305
H          2.4219350929        2.7588825800        1.7010676993
H         -6.2380207615       -3.0087378787       -1.2672265743
H         -5.9062952138       -0.6248724468       -1.8600208068
H         -3.6192352184        0.3266053529       -1.7623882687
H         -1.7499994784       -1.0397267451       -1.0162399772
H          0.0663602961       -4.7485351540        1.1647955090
H         -0.0298050025       -6.9400073423        2.2226294796
H         -2.1093951682       -8.2929342031        2.1103770693
H         -4.0722617963       -7.3757586200        0.9090237689
H         -6.2315518412        2.9859620371        1.2773313347
H         -5.8845680736        0.6055971412        1.8754359136
H         -3.5927825512       -0.3336938264        1.7708915585
H         -1.7339990254        1.0411319727        1.0148877715
H          0.0643571440        4.7676218555       -1.1549688335
H         -0.0373942813        6.9691355315       -2.1911583209
H         -2.1224775487        8.3130128174       -2.0706523358
H         -4.0852437829        7.3755077083       -0.8850602151
H         13.0326160978        0.0132880520        0.0242309212
