84
-133.84880070
C          6.5084367124       -0.1300236766        0.3151629671
C          7.1595987034       -1.1733545399        0.9713022386
C          8.5368328055       -1.2023547889        1.0370063954
C          9.2916653521       -0.1847297548        0.4525297097
C          8.6385256519        0.8604326367       -0.2016706825
C          7.2614285261        0.8855648868       -0.2719049346
N          5.1114572312       -0.1023283387        0.2466773718
C          4.2955111185       -1.1952213240        0.1912912370
C          2.9926908716       -0.7752351671        0.1252153323
C          3.0192240983        0.6542512649        0.1636299963
C          4.3379336744        1.0221485731        0.2248687598
C          1.7815587571       -1.5733259051       -0.0258284629
C          1.5339243994       -2.6885936985        0.7696232424
C          0.3350785979       -3.3705966165        0.6697703227
C         -0.6256718036       -2.9546963552       -0.2416552601
C         -0.3662855878       -1.8749563873       -1.0788965050
C          0.8235322424       -1.1879404743       -0.9647194912
C          1.8317646628        1.5000342950        0.1985335178
C          0.7731134224        1.1548242505        1.0399304528
C         -0.3938624692        1.8888968395        1.0403161523
C         -0.5281397309        2.9765992607        0.1841726146
C          0.5317458597        3.3521661789       -0.6296336975
C          1.7065181126        2.6227602284       -0.6148956389
N         -1.8764807468       -3.6382650385       -0.3099139566
C         -3.0040174379       -2.9789300649        0.1711617705
C         -4.2670322006       -3.5779542866        0.2130594769
S         -4.5257827448       -5.2843436509       -0.1994722011
C         -3.0432650668       -5.6422467617       -1.1059348740
C         -1.9181711662       -4.8157803448       -1.0505072603
N         -1.7511362292        3.7101563392        0.1331562069
C         -1.8166841084        4.8890787882        0.8698087738
C         -2.9067536626        5.7613682561        0.8169489594
S         -4.3056757193        5.4642677723       -0.2329951924
C         -4.0800465741        3.7470217087       -0.6191367418
C         -2.8531042015        3.0962024991       -0.4552698633
C         -3.0422543800       -6.8048194559       -1.8579297468
C         -1.9159326000       -7.1886668462       -2.5644424211
C         -0.7936838292       -6.3825473992       -2.5233171817
C         -0.7990020322       -5.2119706165       -1.7870870043
C         -2.9068687606       -1.6714788564        0.6550051353
C         -4.0159125816       -0.9812841297        1.1090511606
C         -5.2648347276       -1.5721045094        1.0920769377
C         -5.3792685801       -2.8780459377        0.6489166071
C         -5.1730526451        3.0923781348       -1.1610381110
C         -5.0707022169        1.7812349710       -1.5916332021
C         -3.8517314601        1.1389812325       -1.4876947943
C         -2.7640812996        1.7841087068       -0.9279269607
C         -0.7599595681        5.2393277260        1.7140146255
C         -0.7789649501        6.4092573831        2.4510444217
C         -1.8658008618        7.2609239457        2.3844464619
C         -2.9320022778        6.9234033324        1.5693353437
C         10.7048669047       -0.2123917382        0.5227631741
C         11.9039941289       -0.2358232947        0.5830487016
H          6.5836537164       -1.9531532204        1.4445224258
H          9.0393163126       -2.0097569636        1.5478421068
H          9.2200980863        1.6465046408       -0.6590623525
H          6.7658655535        1.6863980011       -0.7980484620
H          4.6892102429       -2.1898193640        0.1325102968
H          4.7632021673        2.0004684676        0.3234342311
H          2.2736176046       -3.0027265605        1.4902611886
H          0.1325313881       -4.2229132263        1.3010608765
H         -1.1074532015       -1.5746486796       -1.8053595394
H          1.0197695924       -0.3449833478       -1.6098259852
H          0.8725844393        0.3059604011        1.6993163637
H         -1.2128577952        1.6198073322        1.6915485585
H          0.4250837161        4.2107350293       -1.2757602251
H          2.5241413022        2.9058656261       -1.2602553117
H         -3.9356900384       -7.4108083668       -1.8694304545
H         -1.9222281797       -8.1027160554       -3.1362749987
H          0.0954700213       -6.6570950165       -3.0695212629
H          0.0827848492       -4.5912913296       -1.7783206573
H         -1.9445435536       -1.1866863708        0.6829217460
H         -3.8974021769        0.0291597970        1.4689993316
H         -6.1368186052       -1.0359095266        1.4305560215
H         -6.3346823889       -3.3809702200        0.6515179941
H         -6.1019105974        3.6345408384       -1.2560842275
H         -5.9273550128        1.2805184841       -2.0133695275
H         -3.7411333539        0.1231915330       -1.8348972117
H         -1.8246421632        1.2596487702       -0.8625812358
H          0.0921927316        4.5828437401        1.7897812337
H          0.0627363180        6.6473891799        3.0828216029
H         -1.8907187407        8.1748456779        2.9559752667
H         -3.7964963526        7.5658060995        1.4948912567
H         12.9514972724       -0.2563465675        0.6355026280
