84
-133.84907375
C          6.7178657674       -0.0004236658       -0.0004484509
C          7.4223721410        1.0749270035       -0.5393816663
C          8.8015517354        1.0766489996       -0.5344555806
C          9.5056632936       -0.0006984356        0.0043371507
C          8.7994945098       -1.0780008158        0.5405113151
C          7.4203025313       -1.0760235187        0.5406845217
N          5.3183275857        0.0000266978       -0.0022913679
C          4.5220579872       -1.1046383405       -0.1136657588
C          3.2121602788       -0.7108578796       -0.0768809889
C          3.2126472875        0.7125489123        0.0700530981
C          4.5227908949        1.1053191013        0.1082237604
C          1.9781897073       -1.4938156909       -0.0927446210
C          1.0438949354       -1.2718174863        0.9185268746
C         -0.1956288885       -1.8731094883        0.8765251652
C         -0.5310242777       -2.6952379877       -0.1910643882
C          0.4074928670       -2.9611378138       -1.1808168629
C          1.6585413689       -2.3728884997       -1.1227725362
C          1.9790668850        1.4961098313        0.0858090092
C          1.6595927524        2.3744966146        1.1165116741
C          0.4083769959        2.9622307659        1.1753375429
C         -0.5305082030        2.6961754585        0.1859813024
C         -0.1951404647        1.8754422903       -0.8826177227
C          1.0447466462        1.2748551785       -0.9255752644
N         -1.8598027969       -3.2105287344       -0.2555754212
C         -2.8480047322       -2.3299314877       -0.6865375429
C         -4.2138029052       -2.5959569441       -0.5637143882
S         -4.8249846520       -4.0704434959        0.2084846917
C         -3.3631042643       -5.0783161818        0.2327194978
C         -2.0819823602       -4.5454001363        0.0608775196
N         -1.8597910449        3.2101935873        0.2525561325
C         -2.8452887148        2.3313830936        0.6929565720
C         -4.2117900451        2.5972429929        0.5775454834
S         -4.8277446249        4.0679121743       -0.1982246660
C         -3.3658297386        5.0752558400       -0.2380235020
C         -2.0838761835        4.5432561851       -0.0698148558
C         -3.5490106988       -6.4234796096        0.5022052271
C         -2.4654880909       -7.2730915393        0.6425698485
C         -1.1899556327       -6.7545455422        0.5211005996
C         -1.0023988466       -5.4152002638        0.2319281343
C         -2.4861316671       -1.1220274018       -1.2879212993
C         -3.4370652336       -0.2190114051       -1.7253876547
C         -4.7833750353       -0.4974919381       -1.5920321513
C         -5.1635873706       -1.6960360204       -1.0155463157
C         -3.5529708716        6.4187275522       -0.5149203762
C         -2.4700805455        7.2673510129       -0.6658674631
C         -1.1939726509        6.7496390789       -0.5468996836
C         -1.0050670559        5.4120289480       -0.2506656882
C         -2.4799271460        1.1254688134        1.2962173121
C         -3.4283159774        0.2245751552        1.7434928637
C         -4.7753542286        0.5032638133        1.6183060985
C         -5.1588892123        1.6995802295        1.0393604932
C         10.9208988468       -0.0006639216        0.0070038512
C         12.1217601603       -0.0001785661        0.0094140393
H          6.8873784398        1.9025836041       -0.9782119381
H          9.3449218037        1.9094608286       -0.9546456276
H          9.3412483133       -1.9109173407        0.9625818312
H          6.8836472746       -1.9036014636        0.9776315493
H          4.9324695294       -2.0880920185       -0.2214852991
H          4.9338536592        2.0884413709        0.2165559998
H          1.2949902138       -0.6155277327        1.7380291383
H         -0.9228715863       -1.6923427253        1.6533798258
H          0.1446467485       -3.6084687080       -2.0046459236
H          2.3794680729       -2.5633486175       -1.9037033085
H          2.3807135617        2.5645599098        1.8973575534
H          0.1454852455        3.6091617513        1.9994667108
H         -0.9224718754        1.6951287522       -1.6595042969
H          1.2959737701        0.6194545023       -1.7457457475
H         -4.5577698525       -6.7897737713        0.6197907763
H         -2.6221706392       -8.3178170682        0.8581719886
H         -0.3281985787       -7.3912035791        0.6492112422
H          0.0013825207       -5.0311069753        0.1487638254
H         -1.4403722150       -0.8868671707       -1.4054969234
H         -3.1214687168        0.7083161089       -2.1787541409
H         -5.5304587822        0.2040189023       -1.9274169198
H         -6.2074385314       -1.9442691972       -0.8951511517
H         -4.5622799680        6.7844734436       -0.6294553275
H         -2.6277849816        8.3106848687       -0.8873815230
H         -0.3328473933        7.3855144766       -0.6828838925
H         -0.0009524755        5.0283282802       -0.1694496985
H         -1.4335229443        0.8901136833        1.4073920119
H         -3.1101049835       -0.7011993832        2.1982224218
H         -5.5204886612       -0.1964452988        1.9616889948
H         -6.2034281592        1.9476796425        0.9247674262
H         13.1707691007       -0.0001457091        0.0114077234
