84
-133.84883626
C          6.5383369413       -0.0015514604        0.0024599519
C          7.2397479412       -0.9428173718       -0.7492918550
C          8.6188519227       -0.9434433411       -0.7523601588
C          9.3254889939        0.0016758345       -0.0078143561
C          8.6221619335        0.9449364336        0.7422065071
C          7.2430706044        0.9411210084        0.7493076647
N          5.1394140609       -0.0024982485        0.0066099254
C          4.3438286280       -1.1047692349       -0.1180447610
C          3.0313824556       -0.7146333148       -0.0634124984
C          3.0311379209        0.7083116423        0.0819346806
C          4.3434285839        1.0992789337        0.1333269791
C          1.8276867332       -1.5379550134       -0.0774114997
C          1.6322776792       -2.5376573232       -1.0261591862
C          0.4373171580       -3.2318407484       -1.0793713571
C         -0.5719801661       -2.9454012032       -0.1706364198
C         -0.3655608560       -1.9882250126        0.8168662018
C          0.8209837493       -1.2875304516        0.8562990048
C          1.8273429481        1.5316179227        0.0954924150
C          0.8226310299        1.2823803082       -0.8406694355
C         -0.3628857703        1.9849212129       -0.8045194779
C         -0.5704330802        2.9426670357        0.1821925917
C          0.4363979708        3.2268584983        1.0943595509
C          1.6305169981        2.5309057381        1.0443303174
N         -1.8202237232       -3.6317040304       -0.2594924177
C         -1.8960902205       -4.8933011438        0.3227930983
C         -3.0236570690       -5.7124402427        0.2244204597
S         -4.4667214680       -5.2328476099       -0.6895969475
C         -4.1832914669       -3.4921339625       -0.8850531896
C         -2.9225473305       -2.9122594400       -0.7120427252
N         -1.8172284126        3.6323807147        0.2653540803
C         -1.8868715964        4.8935850621       -0.3187307138
C         -3.0147013641        5.7136500546       -0.2316065853
S         -4.4672183350        5.2359346191        0.6682789304
C         -4.1858348432        3.4957675796        0.8710710486
C         -2.9238658962        2.9149755856        0.7105864708
C         -5.2715680180       -2.7365826087       -1.2872470569
C         -5.1331380485       -1.3882393244       -1.5660237469
C         -3.8836389633       -0.8095358964       -1.4529999508
C         -2.7993307610       -1.5574536984       -1.0319512861
C         -0.8102539963       -5.3879103765        1.0497241792
C         -0.8383260863       -6.6425337501        1.6306589998
C         -1.9623661344       -7.4396215774        1.5209029592
C         -3.0564479441       -6.9613071089        0.8213972786
C         -5.2778508097        2.7416591932        1.2658023302
C         -5.1423864602        1.3940411502        1.5494672354
C         -3.8921061204        0.8146653456        1.4492365227
C         -2.8039021753        1.5611015889        1.0356796152
C         -0.7940066471        5.3869489963       -1.0359523177
C         -0.8156680101        6.6411747460       -1.6180138643
C         -1.9400362533        7.4392188661       -1.5193123459
C         -3.0409305156        6.9621314555       -0.8297481848
C         10.7406912997        0.0037499168       -0.0135647664
C         11.9415550607        0.0056741491       -0.0185850807
H          6.7018979403       -1.6636926983       -1.3449397699
H          9.1603218627       -1.6714334290       -1.3373276640
H          9.1662655165        1.6742113801        1.3231145349
H          6.7079363518        1.6608095203        1.3488264488
H          4.7542242868       -2.0931083902       -0.1672950427
H          4.7532652610        2.0879015549        0.1815179552
H          2.4098795777       -2.7485804719       -1.7444947042
H          0.2751850034       -3.9917819395       -1.8291451503
H         -1.1455394571       -1.7909202433        1.5379309564
H          0.9760735491       -0.5383598211        1.6178287648
H          0.9787342928        0.5330409926       -1.6018276372
H         -1.1411287745        1.7889305021       -1.5278127049
H          0.2733456573        3.9869069728        1.8438164065
H          2.4064444951        2.7405780624        1.7648457651
H         -6.2269023441       -3.2280203097       -1.3949450307
H         -5.9866422980       -0.8087603418       -1.8793276280
H         -3.7458916079        0.2354119738       -1.6847724807
H         -1.8358307434       -1.0803381968       -0.9552953304
H          0.0720777837       -4.7774034955        1.1575027618
H          0.0260696194       -6.9903191144        2.1748747434
H         -1.9947335997       -8.4188331333        1.9710193210
H         -3.9504520335       -7.5576114912        0.7176022968
H         -6.2339494374        3.2336842751        1.3635950212
H         -5.9988655108        0.8156859567        1.8566626738
H         -3.7567245423       -0.2296334775        1.6852657402
H         -1.8398565394        1.0835808205        0.9689950993
H          0.0888522436        4.7758064129       -1.1352933499
H          0.0540528492        6.9878366029       -2.1544048388
H         -1.9674960149        8.4181122846       -1.9704410599
H         -3.9355277773        7.5590455413       -0.7349432776
H         12.9905566521        0.0073689287       -0.0229445040
