84
-133.84846098
C          6.4991500946        0.0005978854       -0.0009786978
C          7.2032489957       -1.1077202937       -0.4686621124
C          8.5824708157       -1.1076250103       -0.4671825933
C          9.2864678763        0.0040321031       -0.0031058002
C          8.5804362866        1.1138409009        0.4623170385
C          7.2012465677        1.1105322015        0.4659223017
N          5.0993425857       -0.0007038055       -0.0003854952
C          4.3040756514       -1.0940689829        0.1865360375
C          2.9911595798       -0.7066762354        0.1220927451
C          2.9900998989        0.7023830557       -0.1215680116
C          4.3024887563        1.0915283850       -0.1868193718
C          1.7920046089       -1.5336123400        0.2018294414
C          1.6127108454       -2.4695733331        1.2164469371
C          0.4296891853       -3.1786209366        1.3169393351
C         -0.5836364652       -2.9723497890        0.3909792262
C         -0.3944925712       -2.0772161617       -0.6564528829
C          0.7798606507       -1.3599483231       -0.7430759883
C          1.7903190785        1.5283008879       -0.2009497972
C          0.7764314770        1.3513996785        0.7414789928
C         -0.3976107589        2.0692878429        0.6554668987
C         -0.5846349368        2.9685336316       -0.3887852417
C          0.4302461256        3.1776633662       -1.3124402039
C          1.6128114221        2.4678509288       -1.2126146558
N         -1.8138872910       -3.6830094632        0.5236588182
C         -2.9418432953       -2.9668858974        0.9141249729
C         -4.1770984561       -3.5785739375        1.1504780059
S         -4.3860239470       -5.3406317156        1.1247087105
C         -2.9440447945       -5.8368046376        0.2180768326
C         -1.8495165073       -4.9872258871        0.0390101773
N         -1.8140036958        3.6808854732       -0.5202502353
C         -2.9420473717        2.9676700134       -0.9155973286
C         -4.1765393628        3.5812421336       -1.1510494436
S         -4.3852667352        5.3431690221       -1.1168528743
C         -2.9409462502        5.8361965541       -0.2122413548
C         -1.8476123449        4.9847631800       -0.0346213319
C         -2.9399895078       -7.1268600812       -0.2846630942
C         -1.8391837602       -7.6162570615       -0.9657038818
C         -0.7469411016       -6.7899358167       -1.1534277098
C         -0.7568384566       -5.4950511226       -0.6681808600
C         -2.8733339947       -1.5840053818        1.1034134532
C         -3.9860552918       -0.8444224312        1.4604353798
C         -5.2103071167       -1.4604147198        1.6369853497
C         -5.2943265934       -2.8335937958        1.4875830450
C         -2.9342501606        7.1260623597        0.2910071464
C         -1.8321687597        7.6133677055        0.9714786618
C         -0.7413577304        6.7849854340        1.1583782637
C         -0.7538085229        5.4903718214        0.6724656966
C         -2.8742438676        1.5855993621       -1.1110247702
C         -3.9868410746        0.8483485949       -1.4732270783
C         -5.2103201428        1.4660001784       -1.6492653105
C         -5.2936143861        2.8385363728       -1.4936806212
C         10.7017383101        0.0061708978       -0.0044271185
C         11.9025745588        0.0085325323       -0.0054009109
H          6.6680246614       -1.9632294891       -0.8500273484
H          9.1258204576       -1.9659268118       -0.8324563345
H          9.1222763454        1.9734321908        0.8268027081
H          6.6644842804        1.9646870041        0.8481615727
H          4.7145187911       -2.0683584469        0.3587433232
H          4.7115287481        2.0663521825       -0.3593332817
H          2.3943038900       -2.6197184893        1.9457096034
H          0.2809024569       -3.8904088273        2.1152192874
H         -1.1764909775       -1.9427022816       -1.3897163236
H          0.9219691591       -0.6598169204       -1.5523697161
H          0.9169914219        0.6485815286        1.5486954633
H         -1.1808380060        1.9322582667        1.3869446948
H          0.2831162976        3.8926014912       -2.1082086638
H          2.3956863763        2.6205635184       -1.9399534597
H         -3.8093492530       -7.7456974077       -0.1209348337
H         -1.8416653744       -8.6268965357       -1.3413731065
H          0.1217182410       -7.1465632404       -1.6849804515
H          0.1004109249       -4.8627840198       -0.8362170004
H         -1.9304659454       -1.0773507910        0.9761021640
H         -3.8903450959        0.2226102936        1.5905044582
H         -6.0856732014       -0.8891509949        1.9012376997
H         -6.2280526913       -3.3511779390        1.6488234836
H         -3.8027538057        7.7463786174        0.1282778673
H         -1.8327066921        8.6238447321        1.3476027532
H          0.1281436896        7.1397208768        1.6898283237
H          0.1023652065        4.8565217103        0.8399938813
H         -1.9319419134        1.0777286368       -0.9843892069
H         -3.8915843278       -0.2181607487       -1.6078283382
H         -6.0856406444        0.8966102147       -1.9176791643
H         -6.2267080363        3.3575130376       -1.6541405789
H         12.9516065941        0.0105548547       -0.0063365291
