84
-133.84493064
C          6.5353341826       -0.0868654976        0.1891215654
C          7.2850059401        1.0436987912       -0.1335502485
C          8.6624861873        1.0043275515       -0.0829479161
C          9.3211864332       -0.1691472029        0.2858942602
C          8.5705095788       -1.3011440638        0.6053854780
C          7.1929571006       -1.2590958906        0.5602309884
N          5.1393596682       -0.0456665409        0.1420048919
C          4.3191526093       -1.0954792517       -0.1615110052
C          3.0144876524       -0.6775871798       -0.1073537755
C          3.0460037322        0.7025475522        0.2699705085
C          4.3647779499        1.0500739076        0.3958730734
C          1.8157504585       -1.4422101699       -0.4275163657
C          0.7632511120       -0.8522966798       -1.1253135928
C         -0.3911719873       -1.5483961974       -1.4084237315
C         -0.5384149325       -2.8829174409       -1.0207131930
C          0.5105789132       -3.4725198492       -0.3093433941
C          1.6620091187       -2.7666965773       -0.0275429386
C          1.8615208048        1.5212854850        0.5054330662
C          1.6982179825        2.7623117276       -0.1033812557
C          0.5062949631        3.4526413486        0.0196587163
C         -0.5295374652        2.9173857210        0.7724176142
C         -0.3473163487        1.7162509798        1.4496520907
C          0.8354370211        1.0219388230        1.3081931612
N         -1.7188388150       -3.5746980270       -1.2692602554
C         -2.8465770977       -2.9692136888       -1.8581250401
C         -4.0745244002       -3.0039589589       -1.1993010405
S         -4.1903845940       -3.8381309847        0.3649841059
C         -3.0649016371       -5.1588909776       -0.0221718041
C         -1.9445283071       -4.8848699852       -0.8045539545
N         -1.7836752743        3.5965257411        0.8224103070
C         -1.9108024803        4.6434788108        1.7291236448
C         -3.0271692504        5.4823067173        1.7711992527
S         -4.3703570021        5.3180521739        0.6240261303
C         -4.0905373707        3.6757960890        0.0123665662
C         -2.8520503416        3.0366715502        0.1269886459
C         -3.3136362568       -6.4407555891        0.4404468086
C         -2.4438056014       -7.4664530914        0.1173942279
C         -1.3494775225       -7.2147343101       -0.6951814119
C         -1.1076460537       -5.9370087858       -1.1654381760
C         -2.7851118015       -2.3920895633       -3.1237231477
C         -3.9054907098       -1.7989998931       -3.6771566806
C         -5.1094496722       -1.7985508953       -2.9899084457
C         -5.1996629351       -2.4184423149       -1.7568042086
C         -5.1498402346        3.0771059316       -0.6484130543
C         -5.0006888813        1.8378523744       -1.2455858064
C         -3.7706453377        1.2110809213       -1.1831204903
C         -2.7167238466        1.7988882097       -0.5080146554
C         -0.8926748862        4.8869743999        2.6540343304
C         -0.9761101846        5.9245152767        3.5644044528
C         -2.0906552344        6.7420446081        3.5937781559
C         -3.1179202364        6.5082540191        2.6962435348
C         10.7348470891       -0.2107822654        0.3359061765
C         11.9344611126       -0.2455276536        0.3791582893
H          6.7855036200        1.9493941684       -0.4402128099
H          9.2402138307        1.8806052549       -0.3356434393
H          9.0766457508       -2.2093994858        0.8959118793
H          6.6205963977       -2.1329085463        0.8298817755
H          4.7120160719       -2.0467618700       -0.4592518959
H          4.7906795770        1.9795001994        0.7165795494
H          0.8499253678        0.1714174136       -1.4582746433
H         -1.1933460186       -1.0368200632       -1.9165049840
H          0.4157165621       -4.4826912626        0.0572223679
H          2.4488697392       -3.2459440574        0.5365258847
H          2.4950186688        3.1658488514       -0.7098815506
H          0.3642589450        4.3992527139       -0.4803523475
H         -1.1462509669        1.3234287101        2.0616803690
H          0.9673853942        0.0755069057        1.8103761336
H         -4.1820504481       -6.6195421367        1.0552733532
H         -2.6298143388       -8.4623098882        0.4872988250
H         -0.6839355063       -8.0180169010       -0.9704332676
H         -0.2667792162       -5.7396449188       -1.8126704937
H         -1.8513430491       -2.4103016796       -3.6646755705
H         -3.8382707167       -1.3388614115       -4.6506975510
H         -5.9808571207       -1.3302267131       -3.4195338083
H         -6.1319465768       -2.4473733483       -1.2145605806
H         -6.0885444974        3.6077778622       -0.7015852351
H         -5.8295133558        1.3798649443       -1.7607141803
H         -3.6252349638        0.2525266271       -1.6576398079
H         -1.7682295717        1.2873543192       -0.4788611033
H         -0.0208799125        4.2518908686        2.6533976355
H         -0.1631687789        6.0856453067        4.2554373655
H         -2.1657196777        7.5519806731        4.3015131915
H         -4.0004792547        7.1299590511        2.6910355189
H         12.9823143488       -0.2769186868        0.4168018268
