84
-133.84494151
C          6.5432127706        0.0761337908       -0.1139609394
C          7.2250688185        1.1505239489        0.4562091213
C          8.6034266832        1.1877942617        0.4423785184
C          9.3310065946        0.1476809028       -0.1370937919
C          8.6482068710       -0.9284717910       -0.7051128168
C          7.2696713549       -0.9619613672       -0.6961555498
N          5.1463657325        0.0400725161       -0.1011726742
C          4.3782243221       -1.0875003495       -0.0404594135
C          3.0570956918       -0.7266389055       -0.0291076709
C          3.0159802733        0.7013912700       -0.1134635184
C          4.3189007095        1.1267032364       -0.1432738065
C          1.8794712532       -1.5795150666        0.0910887020
C          1.6781839783       -2.6712829868       -0.7485152625
C          0.4885302466       -3.3754034422       -0.7106953032
C         -0.5060624983       -3.0070125174        0.1843442186
C         -0.2831942186       -1.9676886953        1.0813768965
C          0.8963906911       -1.2560535487        1.0268292732
C          1.8066896282        1.5090059479       -0.2125276277
C          1.6733627193        2.7177321197        0.4648090851
C          0.5115350169        3.4580933216        0.3897499836
C         -0.5689347623        3.0241753895       -0.3837162694
C         -0.4412118667        1.8031774356       -1.0514958005
C          0.7232222170        1.0716750767       -0.9724709292
N         -1.7613716743       -3.6854042649        0.1570536324
C         -1.8533403206       -4.8925291535        0.8417428725
C         -2.9750482394       -5.7225006747        0.7736611648
S         -4.3737884204       -5.3318430991       -0.2452141744
C         -4.1067208148       -3.6013079044       -0.5337629897
C         -2.8572347761       -2.9984497856       -0.3583204047
N         -1.7586179761        3.7427769262       -0.4285599363
C         -2.9090366855        3.2688814453       -1.0896722490
C         -4.1093231152        3.1484737105       -0.3912289513
S         -4.1614109622        3.6201297994        1.3207930666
C         -3.0534784700        5.0041733697        1.1865823671
C         -1.9662405934        4.9183406423        0.3187724209
C         -5.1911068159       -2.8827644991       -1.0081150051
C         -5.0585490986       -1.5498733966       -1.3551696058
C         -3.8201914995       -0.9488372858       -1.2328966800
C         -2.7403605066       -1.6594966382       -0.7420426685
C         -0.7918857353       -5.3166635152        1.6447342888
C         -0.8397577629       -6.5153946970        2.3324790225
C         -1.9600696108       -7.3219128872        2.2561594426
C         -3.0293127367       -6.9128371629        1.4784218857
C         -3.2839220909        6.1518329308        1.9273985902
C         -2.4292826163        7.2319471408        1.8010163640
C         -1.3698491462        7.1745000499        0.9091453451
C         -1.1466142314        6.0324427149        0.1620452222
C         -2.8982849090        2.9804192084       -2.4517598703
C         -4.0400164366        2.5120914699       -3.0765151278
C         -5.2155259970        2.3523651227       -2.3592082331
C         -5.2560406860        2.6884955263       -1.0181746740
C         10.7456443657        0.1839056807       -0.1482638054
C         11.9461178380        0.2149335466       -0.1575490396
H          6.6717309041        1.9487893694        0.9257167534
H          9.1284494759        2.0196632979        0.8871856522
H          9.2077465113       -1.7326061975       -1.1587397340
H          6.7505894824       -1.7880109571       -1.1566096262
H          4.8133207964       -2.0612721837        0.0621231958
H          4.7026928325        2.1204247415       -0.2579030359
H          2.4420971981       -2.9411377461       -1.4620964160
H          0.3158370815       -4.2010869372       -1.3849913789
H         -1.0492940574       -1.7092347961        1.7979540051
H          1.0590504300       -0.4310507328        1.7037526143
H          2.4854956572        3.0729783386        1.0822837300
H          0.4347062812        4.3668151368        0.9660110730
H         -1.2660150719        1.4047871651       -1.6210437685
H          0.7931971996        0.1416987864       -1.5171547412
H         -6.1370321910       -3.3916512046       -1.1170639563
H         -5.9070328036       -0.9982446049       -1.7264473610
H         -3.6882173238        0.0845586290       -1.5153618771
H         -1.7861351659       -1.1645332715       -0.6605725149
H          0.0855903449       -4.6946864381        1.7254695054
H          0.0057424541       -6.8117879181        2.9338510386
H         -2.0075901966       -8.2570537401        2.7907396753
H         -3.9177106183       -7.5205436850        1.3953488138
H         -4.1261999566        6.1836421655        2.6009529699
H         -2.6006266670        8.1212881263        2.3865721106
H         -0.7173755827        8.0252382834        0.7887390793
H         -0.3338263136        5.9898187257       -0.5467938529
H         -1.9866509532        3.1230332194       -3.0116656649
H         -4.0119544012        2.2748289721       -4.1286236958
H         -6.1035531839        1.9812436753       -2.8459724775
H         -6.1656965530        2.5905910347       -0.4463771514
H         12.9947323544        0.2418392864       -0.1654694908
