84
-133.84660859
C          6.1796067931        0.0002426217       -0.0060435734
C          6.8832864972        1.1425348328       -0.3834476600
C          8.2625347662        1.1434112875       -0.3779525663
C          8.9661682045       -0.0006121884        0.0001206426
C          8.2601604771       -1.1443948680        0.3744728388
C          6.8809035331       -1.1426876591        0.3738474049
N          4.7793429024        0.0011470886       -0.0077381332
C          3.9821941548       -1.0680431099       -0.2849179924
C          2.6650480200       -0.6893046196       -0.1898858362
C          2.6659717309        0.6939742254        0.1753790135
C          3.9834931724        1.0712554496        0.2698276804
C          1.5198657428       -1.5731999313       -0.3677084314
C          0.4007812430       -1.4776263779        0.4603535021
C         -0.6757418170       -2.3249919794        0.2910381654
C         -0.6465234165       -3.2932691922       -0.7063160798
C          0.4660021855       -3.4078114277       -1.5278978276
C          1.5384620533       -2.5535826532       -1.3588306071
C          1.5217397841        1.5786348096        0.3556783680
C          1.5408297087        2.5547727881        1.3509320529
C          0.4682018946        3.4079181224        1.5243946610
C         -0.6446032310        3.2966977261        0.7027551834
C         -0.6736387261        2.3336848092       -0.2996896603
C          0.4028130013        1.4870477563       -0.4730061103
N         -1.7514227636       -4.1776062993       -0.9033785051
C         -2.7449504806       -3.7730052865       -1.7869267850
C         -3.7970523864       -4.6033680337       -2.1829691571
S         -3.9356262522       -6.2881881328       -1.6432824851
C         -2.7739832349       -6.3200043598       -0.3013990595
C         -1.8203763594       -5.3161357818       -0.1095039219
N         -1.7506193646        4.1784348530        0.9053138839
C         -2.7481332696        3.7630674686        1.7793010312
C         -3.8043164744        4.5872493292        2.1774506427
S         -3.9435334245        6.2772302535        1.6542762457
C         -2.7718103719        6.3266886708        0.3217262017
C         -1.8159371628        5.3260687886        0.1244260822
C         -2.8254418300       -7.4267159581        0.5287082408
C         -1.9145294687       -7.5812871489        1.5593040571
C         -0.9479193882       -6.6115276374        1.7478791753
C         -0.9052624105       -5.4966179130        0.9306102342
C         -2.7148092746       -2.4826069535       -2.3216736610
C         -3.6811880832       -2.0424895860       -3.2076556082
C         -4.7201367263       -2.8746615140       -3.5798341693
C         -4.7721231114       -4.1554468517       -3.0577791628
C         -2.8185559808        7.4431833639       -0.4954574076
C         -1.9009536541        7.6106287611       -1.5180855391
C         -0.9325956511        6.6436847692       -1.7120571509
C         -0.8944870995        5.5191889611       -0.9078030448
C         -2.7178612830        2.4678061377        2.3021762432
C         -3.6884787708        2.0168458894        3.1780192329
C         -4.7317479706        2.8428444061        3.5518088103
C         -4.7834896027        4.1285794877        3.0420518616
C         10.3814162314       -0.0007810895        0.0042236896
C         11.5822698883       -0.0009830597        0.0085151228
H          6.3479846619        2.0247417318       -0.6980535018
H          8.8061525513        2.0280938808       -0.6730500927
H          8.8019217179       -2.0294242805        0.6719348845
H          6.3436915680       -2.0245975753        0.6860154629
H          4.3918145433       -2.0261475690       -0.5332975834
H          4.3942445055        2.0288795253        0.5181826313
H          0.3813031903       -0.7376533239        1.2457622917
H         -1.5428240269       -2.2469124160        0.9304805226
H          0.4797959169       -4.1634899255       -2.2991476033
H          2.3956601250       -2.6354199904       -2.0092241491
H          2.3982556832        2.6336248900        2.0014018592
H          0.4819994137        4.1599699728        2.2991719808
H         -1.5408138048        2.2586633259       -0.9393561156
H          0.3832866946        0.7504460866       -1.2615860858
H         -3.5827242075       -8.1737393013        0.3436555587
H         -1.9600867582       -8.4512321815        2.1946671518
H         -0.2187441045       -6.7143194556        2.5366421662
H         -0.1432814717       -4.7518770100        1.0957593989
H         -1.9151257054       -1.8163703508       -2.0401185032
H         -3.6165490744       -1.0406988636       -3.6035679797
H         -5.4797619880       -2.5407140169       -4.2683932864
H         -5.5658084079       -4.8331947469       -3.3343693079
H         -3.5777423329        8.1873412054       -0.3067021991
H         -1.9429266021        8.4881053510       -2.1432586354
H         -0.1985844405        6.7561565676       -2.4949916672
H         -0.1313258426        4.7765625350       -1.0770725543
H         -1.9146977124        1.8062696916        2.0194903150
H         -3.6236389389        1.0115098529        3.5648032342
H         -5.4947598489        2.5004301246        4.2324143029
H         -5.5803082879        4.8018344354        3.3206048774
H         12.6312844291       -0.0019343198        0.0124202196
