84
-133.84541436
C          6.4231939096        0.1142159549       -0.1326773671
C          7.1374873825        0.9289330860        0.7449886214
C          8.5163305580        0.9124228695        0.7453868313
C          9.2115195121        0.0756790715       -0.1284060179
C          8.4960885270       -0.7408138329       -1.0050595737
C          7.1172946103       -0.7192262468       -1.0088640921
N          5.0257603014        0.1317671122       -0.1328263806
C          4.2139137673       -0.9271531177       -0.4260585906
C          2.9041179063       -0.5363801252       -0.3141301585
C          2.9239092061        0.8475059782        0.0509906530
C          4.2416779598        1.2079882124        0.1656122667
C          1.7152489778       -1.3632613925       -0.4742963790
C          0.6187328102       -1.2112758281        0.3736129264
C         -0.5364313766       -1.9376712696        0.1889176055
C         -0.6491899538       -2.8529956895       -0.8624342267
C          0.4820866192       -3.0757944378       -1.6521590411
C          1.6328802804       -2.3381174981       -1.4646164369
C          1.7499271687        1.6918555121        0.2335906735
C          1.6379646148        2.5387004303        1.3335099243
C          0.4734400062        3.2490814467        1.5587191546
C         -0.5908161869        3.1279139849        0.6769680951
C         -0.4671846154        2.3356088272       -0.4589865195
C          0.6941170071        1.6245488758       -0.6767093333
N         -1.8223520548       -3.5732973333       -1.0520018938
C         -1.9474348338       -4.6100117140       -1.9969922253
C         -2.4198812906       -5.8571395902       -1.5908490463
S         -2.8837675495       -6.0904755151        0.1089451500
C         -3.5783702165       -4.4728981166        0.3534310307
C         -2.9686152053       -3.3786591173       -0.2575837195
N         -1.8224745737        3.7928620805        0.9634713562
C         -2.8168583710        3.0421136512        1.5809684091
C         -4.0343146831        3.5896561851        1.9959483974
S         -4.4032718692        5.3196102918        1.8485968752
C         -3.1202485605        5.8594931638        0.7476890308
C         -2.0005871862        5.0746536209        0.4589969186
C         -4.7161371456       -4.3141359918        1.1274899440
C         -5.2637536351       -3.0543651434        1.2897134256
C         -4.6917691425       -1.9643256424        0.6524471849
C         -3.5588346789       -2.1247555280       -0.1237614867
C         -1.6831555889       -4.4061093932       -3.3485360296
C         -1.8061840503       -5.4477370332       -4.2499253203
C         -2.2242945090       -6.6982239160       -3.8232829058
C         -2.5529057943       -6.8982224712       -2.4947482066
C         -3.2628544452        7.1270663472        0.2097545709
C         -2.2869708320        7.6594395239       -0.6150088361
C         -1.1657426829        6.9029147831       -0.9000548414
C         -1.0287653198        5.6301355779       -0.3768065796
C         -2.6164982492        1.6800823293        1.8225958516
C         -3.5804967078        0.9028587402        2.4382706220
C         -4.7878792214        1.4571127313        2.8196329858
C         -5.0065268928        2.8048223257        2.5926681687
C         10.6265073840        0.0545904117       -0.1246012748
C         11.8272666284        0.0357617148       -0.1206005520
H          6.6089553754        1.5629793638        1.4395673134
H          9.0665360740        1.5420627279        1.4282476847
H          9.0307919299       -1.3856706801       -1.6860297674
H          6.5731163079       -1.3387857344       -1.7044734472
H          4.6130899448       -1.9009950546       -0.6266370035
H          4.6623729008        2.1727142843        0.3669027208
H          0.6778173155       -0.5220047249        1.2031063121
H         -1.3523811602       -1.8074978384        0.8828660062
H          0.4720993488       -3.8413677387       -2.4117040876
H          2.4815676913       -2.5135794269       -2.1092910938
H          2.4563499720        2.6103877231        2.0337997461
H          0.3737616006        3.8829819686        2.4272649606
H         -1.2925981629        2.2698252139       -1.1526765598
H          0.7862301322        0.9982722546       -1.5507862309
H         -5.1570699959       -5.1784039380        1.5994389315
H         -6.1440521244       -2.9278676967        1.8998547310
H         -5.1296406041       -0.9834335396        0.7551264833
H         -3.1178740046       -1.2785508321       -0.6280855035
H         -1.3821602699       -3.4254639562       -3.6835894454
H         -1.5817625398       -5.2787068703       -5.2916247994
H         -2.3140411725       -7.5118041215       -4.5255309334
H         -2.9069700832       -7.8559683377       -2.1463429449
H         -4.1462348396        7.6956223016        0.4590303358
H         -2.4051975405        8.6512924537       -1.0209769203
H         -0.3884822558        7.2974712780       -1.5361424917
H         -0.1494220844        5.0525127304       -0.6141552865
H         -1.6851342500        1.2226092650        1.5298613718
H         -3.3797428019       -0.1428995995        2.6149463441
H         -5.5481058248        0.8582614128        3.2952283105
H         -5.9325652723        3.2725951031        2.8915377155
H         12.8761174880        0.0191549199       -0.1177522560
