84
-133.84889507
C          6.5880157859        0.0002374786       -0.0051277811
C          7.2936640398        0.8824541424        0.8114265222
C          8.6728148103        0.8794936890        0.8111287306
C          9.3752861775       -0.0104821555       -0.0020390280
C          8.6677189233       -0.8945076832       -0.8174676293
C          7.2886725331       -0.8868292836       -0.8208514428
N          5.1890885988        0.0039596530       -0.0054372941
C          4.3913234207       -1.0848516453       -0.2108249373
C          3.0801996188       -0.6966721987       -0.1283213985
C          3.0828557792        0.7121397656        0.1206313920
C          4.3954627029        1.0956824746        0.2012530719
C          1.8687150593       -1.5061537911       -0.1996982789
C          0.8752473660       -1.3218100068        0.7632299203
C         -0.3249167603       -1.9935082260        0.6734912235
C         -0.5580897706       -2.8544101661       -0.3932380781
C          0.4383668061       -3.0799284565       -1.3325463359
C          1.6472970368       -2.4154513485       -1.2298717751
C          1.8725426914        1.5233942214        0.1944362485
C          1.6498741792        2.4272841380        1.2291060737
C          0.4396006570        3.0887708036        1.3356901105
C         -0.5567546963        2.8661877235        0.3954034852
C         -0.3218451831        2.0118843852       -0.6762058475
C          0.8794287334        1.3426921470       -0.7695432841
N         -1.8253468348       -3.4980214224       -0.5288068431
C         -2.9022282677       -2.7114946323       -0.9276330980
C         -4.1922303291       -3.2230952835       -1.0988665573
S         -4.5599173934       -4.9534690917       -0.9623845591
C         -3.1073846042       -5.5516877557       -0.1372882576
C         -1.9410269323       -4.7903516275       -0.0265562625
N         -1.8270373102        3.5032544315        0.5338110849
C         -2.9009259222        2.7058930489        0.9191233203
C         -4.1997627816        3.2014302576        1.0693247652
S         -4.5897486200        4.9259453339        0.9232647871
C         -3.1206331589        5.5518892121        0.1498323957
C         -1.9453625812        4.8026546207        0.0507329702
C         -3.1771145613       -6.8345571666        0.3790948862
C         -2.0842100601       -7.4048469587        1.0078897165
C         -0.9218321329       -6.6665473157        1.1277358934
C         -0.8554860137       -5.3792283020        0.6269519884
C         -2.7199163908       -1.3514070768       -1.1920889529
C         -3.7743936206       -0.5356776362       -1.5591419971
C         -5.0517090646       -1.0493498622       -1.6729254453
C         -5.2495449019       -2.4003028718       -1.4483082305
C         -3.1898450357        6.8442791920       -0.3425069991
C         -2.0891427309        7.4355533303       -0.9373366867
C         -0.9190916300        6.7082025511       -1.0487442703
C         -0.8523333324        5.4123330628       -0.5705731614
C         -2.7056273999        1.3490424073        1.1913681912
C         -3.7552766328        0.5205431356        1.5432434927
C         -5.0408795029        1.0177549092        1.6340242079
C         -5.2519249243        2.3656626587        1.4035958730
C         10.7904764865       -0.0177622981        0.0003192282
C         11.9913244647       -0.0269754525        0.0012721362
H          6.7591484257        1.5592857504        1.4594476760
H          9.2174176112        1.5615077784        1.4464382277
H          9.2086340306       -1.5807019018       -1.4514206120
H          6.7504085427       -1.5593996179       -1.4701977016
H          4.7997253975       -2.0676996349       -0.3326221381
H          4.8077495840        2.0769732529        0.3226186508
H          1.0511102393       -0.6455858958        1.5860354713
H         -1.0962096491       -1.8450007380        1.4151640523
H          0.2552120432       -3.7669309164       -2.1451605803
H          2.4148049303       -2.5764800262       -1.9716343400
H          2.4171316066        2.5856990095        1.9717058310
H          0.2552466361        3.7707187997        2.1522925570
H         -1.0933664482        1.8652434330       -1.4180247710
H          1.0561338210        0.6705871982       -1.5955324286
H         -4.1005141893       -7.3831487036        0.2695751474
H         -2.1470070028       -8.4088096874        1.3959394247
H         -0.0567395336       -7.0862869587        1.6173377116
H          0.0573366974       -4.8167043780        0.7412348736
H         -1.7335760609       -0.9241911296       -1.1116230818
H         -3.5916182027        0.5108321531       -1.7492699781
H         -5.8819790783       -0.4172849936       -1.9441741819
H         -6.2294167477       -2.8407070915       -1.5565661676
H         -4.1203067671        7.3827433881       -0.2426979085
H         -2.1523789579        8.4463340455       -1.3071748238
H         -0.0480109677        7.1433618152       -1.5136352578
H          0.0670027174        4.8592161453       -0.6780153453
H         -1.7124916361        0.9347486508        1.1289625657
H         -3.5622509340       -0.5228421598        1.7401311000
H         -5.8674744990        0.3754987481        1.8922018376
H         -6.2390136595        2.7937060475        1.4945455302
H         13.0403248345       -0.0329920434        0.0009840460
