84
-133.84850188
C          6.5205946976        0.0001939423       -0.0018089500
C          7.2235593011       -1.1120815863        0.4581641313
C          8.6027787902       -1.1130462397        0.4576922919
C          9.3079648725        0.0014842374        0.0024145106
C          8.6030914896        1.1152544572       -0.4552390548
C          7.2238991733        1.1130335844       -0.4598952751
N          5.1207860203       -0.0001736378       -0.0032520911
C          4.3250991038       -1.0920083202       -0.1978598817
C          3.0125380139       -0.7044681416       -0.1304520607
C          3.0120732007        0.7029359683        0.1231634105
C          4.3244203693        1.0912039027        0.1910340769
C          1.8102353094       -1.5263467114       -0.2167256076
C          0.8010177607       -1.3574242346        0.7322490461
C         -0.3798472709       -2.0625900550        0.6368911632
C         -0.5780434682       -2.9410782776       -0.4228294727
C          0.4328742613       -3.1448302524       -1.3518687066
C          1.6222730160       -2.4475612089       -1.2430886478
C          1.8094741173        1.5242063027        0.2103917782
C          1.6234210747        2.4468230509        1.2358883437
C          0.4342164046        3.1441206084        1.3461157288
C         -0.5786045666        2.9389873799        0.4194254475
C         -0.3825659914        2.0588441505       -0.6393040220
C          0.7982411342        1.3537265335       -0.7361535059
N         -1.8169762196       -3.6350420358       -0.5643834838
C         -2.9335474072       -2.8988645363       -0.9501530554
C         -4.1810899471       -3.4872060097       -1.1809771198
S         -4.4240384249       -5.2448131011       -1.1537464427
C         -2.9814895021       -5.7715798855       -0.2653382680
C         -1.8713448252       -4.9418919856       -0.0889256099
N         -1.8169798074        3.6336684232        0.5622293774
C         -2.9329318510        2.8990437176        0.9525847877
C         -4.1795714353        3.4884619513        1.1855394433
S         -4.4223128980        5.2460365386        1.1547307189
C         -2.9800762349        5.7713141571        0.2649455367
C         -1.8709997955        4.9405481419        0.0868791200
C         -2.9946456109       -7.0656074336        0.2269793706
C         -1.8967792497       -7.5787807508        0.8951514096
C         -0.7895264265       -6.7722041464        1.0805638330
C         -0.7816759464       -5.4736146633        0.6052702884
C         -2.8397988756       -1.5175415844       -1.1400564578
C         -3.9399949459       -0.7570618429       -1.4918271511
C         -5.1764344089       -1.3497373693       -1.6625386762
C         -5.2855424152       -2.7211195204       -1.5128876556
C         -2.9925438377        7.0654779421       -0.2270512404
C         -1.8951590537        7.5776590548       -0.8967708865
C         -0.7891203329        6.7698879127       -1.0841745748
C         -0.7819316603        5.4712246800       -0.6090794855
C         -2.8393296506        1.5180722848        1.1451031875
C         -3.9388703194        0.7588400773        1.5016036083
C         -5.1745042474        1.3524932054        1.6747084789
C         -5.2833860442        2.7235979260        1.5223695969
C         10.7232212637        0.0026604471        0.0048940855
C         11.9240772022        0.0049024374        0.0073567965
H          6.6874247326       -1.9699863061        0.8328059434
H          9.1451940686       -1.9744587416        0.8169909493
H          9.1458603620        1.9771396715       -0.8128614408
H          6.6881179516        1.9704334478       -0.8361928968
H          4.7352126651       -2.0651387540       -0.3772247997
H          4.7339452258        2.0645537835        0.3705334708
H          0.9501501049       -0.6697008459        1.5508525555
H         -1.1606325697       -1.9302618286        1.3718321561
H          0.2769741326       -3.8443106405       -2.1595878659
H          2.4017976997       -2.5946138799       -1.9751946521
H          2.4044419307        2.5950396276        1.9661558031
H          0.2799606651        3.8448457595        2.1530747188
H         -1.1648508068        1.9253295886       -1.3724333398
H          0.9457401165        0.6649751782       -1.5541854669
H         -3.8756249326       -7.6684672992        0.0657333037
H         -1.9131878599       -8.5921904663        1.2629161866
H          0.0772594577       -7.1472720979        1.6023954330
H          0.0874391617       -4.8572049134        0.7711829152
H         -1.8869540575       -1.0289387095       -1.0165937408
H         -3.8249705919        0.3079248501       -1.6229135267
H         -6.0421726295       -0.7620120167       -1.9223634827
H         -6.2296715933       -3.2209170264       -1.6696311232
H         -3.8726806435        7.6692015726       -0.0644329025
H         -1.9110619546        8.5911613719       -1.2642949576
H          0.0772100307        7.1440426088       -1.6074126427
H          0.0862256895        4.8539068175       -0.7765864695
H         -1.8870650406        1.0287802135        1.0198924438
H         -3.8239596076       -0.3059272089        1.6345589278
H         -6.0397797776        0.7657849215        1.9383488756
H         -6.2268291863        3.2241907199        1.6807263797
H         12.9730941129        0.0063001540        0.0094382750
