84
-133.84368175
C          6.2921033219        0.1755365850       -0.1155768464
C          6.9619956864        1.1089841103       -0.9054954651
C          8.3403854338        1.1454000559       -0.9232028163
C          9.0792286063        0.2446099830       -0.1552870953
C          8.4080528014       -0.6903137162        0.6336983083
C          7.0296306532       -0.7222011210        0.6552152777
N          4.8951200589        0.1381602770       -0.0984137432
C          4.1288490403       -0.9772230086        0.0826471017
C          2.8020405027       -0.6305144193        0.0309770822
C          2.7616858856        0.7846317160       -0.1782818569
C          4.0653825319        1.2068439911       -0.2646861407
C          1.6763243036       -1.5527027256        0.1022531921
C          1.6987459012       -2.6453037058        0.9660194347
C          0.6506145431       -3.5393052846        1.0217053255
C         -0.4677320267       -3.3867177493        0.1970245809
C         -0.5093338102       -2.2680560348       -0.6402301083
C          0.5441729403       -1.3810201555       -0.6915838417
C          1.5816769791        1.6371965734       -0.2357444488
C          0.5072597117        1.4246901587        0.6293205320
C         -0.6183846073        2.2196066055        0.5620592597
C         -0.6886474946        3.2457083002       -0.3740694235
C          0.3828054993        3.4835611297       -1.2227591267
C          1.5093316738        2.6863352625       -1.1503099503
N         -1.5346842960       -4.2756898839        0.2645537949
C         -1.5615642287       -5.3658537803        1.1556355992
C         -2.6377048672       -5.5206078648        2.0277513593
S         -3.9607202514       -4.3343054257        1.9835928881
C         -3.9501489922       -4.0783338427        0.2250927877
C         -2.7322034338       -4.0871735368       -0.4527469744
N         -1.8567235829        4.0614823831       -0.4817207599
C         -2.9303986599        3.5587606444       -1.2084133240
C         -4.0672677254        4.3183576958       -1.4994621828
S         -4.2030328842        6.0296929385       -1.0493581646
C         -2.9354427998        6.1553025698        0.1862222690
C         -1.9173259640        5.2054307726        0.3056804098
C         -5.1427818071       -3.8929094565       -0.4548708157
C         -5.1298027698       -3.7242528633       -1.8275568976
C         -3.9301476511       -3.7833240984       -2.5190992074
C         -2.7409269141       -3.9783144179       -1.8406244460
C         -0.5677969748       -6.3407170924        1.1420343593
C         -0.6158385475       -7.4000808125        2.0294651220
C         -1.6691050899       -7.5184152260        2.9226778106
C         -2.6918266840       -6.5873907985        2.9098700777
C         -2.9735961319        7.2712447765        1.0043626940
C         -1.9852578011        7.4884472766        1.9487462084
C         -0.9593286919        6.5696021012        2.0677745691
C         -0.9302997247        5.4438325882        1.2650143619
C         -2.8989971947        2.2480423342       -1.6910442174
C         -3.9527583924        1.7166964226       -2.4121006347
C         -5.0797831870        2.4750335536       -2.6676705165
C         -5.1284331658        3.7788742404       -2.2059832587
C         10.4938037015        0.2782617381       -0.1768722760
C         11.6942522011        0.3055544378       -0.1960155478
H          6.3995255457        1.7950549328       -1.5192952243
H          8.8565046909        1.8671018788       -1.5381960210
H          8.9766080596       -1.3851264732        1.2332248323
H          6.5192139063       -1.4347285683        1.2841950504
H          4.5674408060       -1.9510179411        0.1679914162
H          4.4452036156        2.2044992107       -0.3579079344
H          2.5449891488       -2.7857953454        1.6223709051
H          0.6923657297       -4.3484515377        1.7339527150
H         -1.3809200033       -2.0747630133       -1.2453166909
H          0.4885436999       -0.5397640047       -1.3666406068
H          0.5596663647        0.6292250319        1.3569608002
H         -1.4514701571        2.0498771967        1.2287024006
H          0.3224236427        4.2883390654       -1.9402923414
H          2.3351975717        2.8621503571       -1.8226236803
H         -6.0681580152       -3.8755727604        0.0997403314
H         -6.0564410755       -3.5656261705       -2.3561729809
H         -3.9194469225       -3.6838378162       -3.5934405395
H         -1.8076868643       -4.0452452261       -2.3786533756
H          0.2413946338       -6.2546308839        0.4330198183
H          0.1695798426       -8.1396761524        2.0182656695
H         -1.7038312789       -8.3421678892        3.6179455945
H         -3.5311777635       -6.6724513210        3.5824729487
H         -3.7819539835        7.9755642812        0.8775843730
H         -2.0191953650        8.3662163222        2.5740041849
H         -0.1734298952        6.7203515041        2.7917203535
H         -0.1250126200        4.7353240506        1.3772398470
H         -2.0303740504        1.6377814770       -1.5019340317
H         -3.8861473513        0.7009698438       -2.7704383821
H         -5.9083314750        2.0676859467       -3.2245082698
H         -5.9865047967        4.4038284034       -2.4028398089
H         12.7428268807        0.3300737013       -0.2122274345
