61
-96.64708844
C          3.8068303473        0.0058431583        0.0020945351
C          4.5052691681        1.2050543434       -0.1134665525
C          5.8856891154        1.2148880521       -0.1200580022
C          6.5884586500        0.0211748610       -0.0169919521
C          5.8967490561       -1.1797357564        0.0963513536
C          4.5176428861       -1.1877945805        0.1088714132
S          8.3555873408       -0.0263930583       -0.0253069549
N          2.4060445611        0.0001371992        0.0086041454
C          1.6152618220       -0.9948963289       -0.4855187295
C          0.3000830628       -0.6389368465       -0.3165208049
C          0.2974556236        0.6310724540        0.3344194719
C          1.6113650248        0.9919173196        0.5033760472
N         -0.8254568309       -1.3834456299       -0.6704947689
C         -1.9547796512       -0.8851680844       -1.2850403965
C         -2.9698660028       -1.8691051366       -1.2699309884
C         -2.4123761534       -3.0189569839       -0.6154573556
C         -1.0897527503       -2.6726383486       -0.2551151421
N         -0.8304813176        1.3737473533        0.6841370930
C         -1.0889653992        2.6660968900        0.2742511255
C         -2.4143467612        3.0122929668        0.6241710079
C         -2.9801941995        1.8589448798        1.2651123895
C         -1.9664537095        0.8736692554        1.2851389657
C         -4.2116626645       -1.5914792295       -1.8251070899
C         -4.4212829623       -0.3491662525       -2.3895821793
C         -3.4037344009        0.6017481468       -2.4287588051
C         -2.1580019009        0.3461736588       -1.8908188140
C         -0.2764219010       -3.5604305178        0.4336438226
C         -0.7929138776       -4.8049308626        0.7390732072
C         -2.0889510144       -5.1627503804        0.3728777545
C         -2.9080513831       -4.2771582070       -0.2992314029
C         -2.9044763192        4.2741144155        0.3137103278
C         -2.0770611030        5.1637455604       -0.3426479446
C         -0.7786333950        4.8058157658       -0.7000236573
C         -0.2678105937        3.5576002003       -0.4002742948
C         -2.1773794185       -0.3599199509        1.8836977786
C         -3.4295591794       -0.6173514324        2.4055893003
C         -4.4460730945        0.3342993705        2.3591544008
C         -4.2285204610        1.5796669349        1.8045487459
H          3.9693612748        2.1350908772       -0.2147939551
H          6.4121170036        2.1523987587       -0.2128116448
H          6.4463529003       -2.1044642049        0.1808152274
H          3.9926539628       -2.1232139039        0.2169766947
H          8.5335115364        1.2858779200       -0.1422242964
H          2.0226221975       -1.8614600456       -0.9641136644
H          2.0154968750        1.8590718158        0.9835048237
H         -4.9951154514       -2.3344171252       -1.8120540635
H         -5.3835336089       -0.1100467757       -2.8175012478
H         -3.5912722636        1.5594660753       -2.8915043644
H         -1.3722309587        1.0839209708       -1.9462456009
H          0.7231694522       -3.2837140205        0.7319644074
H         -0.1806699863       -5.5155776371        1.2744100281
H         -2.4557849532       -6.1464057658        0.6260088248
H         -3.9159213421       -4.5517109288       -0.5723698945
H         -3.9142922703        4.5484649462        0.5797602214
H         -2.4391755827        6.1505531115       -0.5902112716
H         -0.1598530411        5.5195406766       -1.2235646173
H          0.7335454810        3.2810540311       -0.6923337932
H         -1.3927952679       -1.0983367140        1.9460081655
H         -3.6229279408       -1.5773001398        2.8613063439
H         -5.4136471755        0.0934382306        2.7739027344
H         -5.0109521017        2.3235897590        1.7867298475
