61
-96.64704569
C          3.8461059333       -0.0075595057       -0.0071277646
C          4.5505297184        0.5409547328        1.0614159114
C          5.9311838605        0.5463323400        1.0612986219
C          6.6269360223       -0.0046628757       -0.0073224713
C          5.9285040010       -0.5580370579       -1.0749075748
C          4.5491464104       -0.5569744470       -1.0771701868
S          8.3938331795       -0.0275582950       -0.0593143053
N          2.4442724810       -0.0058797370       -0.0055430235
C          1.6492524858       -0.9606508820       -0.5687519073
C          0.3368090175       -0.6155852196       -0.3654873455
C          0.3407616041        0.6133330411        0.3605825481
C          1.6551568899        0.9526648511        0.5596335340
N         -0.8058260310       -1.3172831335       -0.7541587255
C         -1.1354290322       -2.5962048300       -0.3540767325
C         -2.4836551750       -2.8595268709       -0.6890582663
C         -2.9891678323       -1.6680101822       -1.3107141344
C         -1.9195117618       -0.7444443823       -1.3326200734
N         -0.7970001406        1.3195831092        0.7549833048
C         -1.1263902881        2.5979667049        0.3534165732
C         -2.4714100435        2.8656264750        0.6976968272
C         -2.9748443461        1.6775405030        1.3276977139
C         -1.9075258737        0.7511704306        1.3434456082
C         -3.0439471881       -4.0920525719       -0.3805787939
C         -2.2616778270       -5.0347866661        0.2569054760
C         -0.9378078127       -4.7599786236        0.5940019897
C         -0.3570664531       -3.5420800431        0.2962635263
C         -2.0618947138        0.5067568396       -1.9141950046
C         -3.3024030169        0.8459572373       -2.4167018487
C         -4.3734381039       -0.0437073630       -2.3675507028
C         -4.2248442317       -1.3069201916       -1.8304024828
C         -3.0311762513        4.0980193970        0.3875914630
C         -2.2515215903        5.0361065339       -0.2598860771
C         -0.9305365371        4.7572453319       -0.6049936426
C         -0.3503510971        3.5393953171       -0.3061314303
C         -2.0478354477       -0.4984365715        1.9288738137
C         -3.2845457730       -0.8329368672        2.4436577101
C         -4.3534307233        0.0597101182        2.4018899901
C         -4.2066731294        1.3209195817        1.8594796621
H          4.0188831931        0.9509558293        1.9051447845
H          6.4630570006        0.9735041305        1.8975473068
H          6.4728953170       -0.9810926229       -1.9049595087
H          4.0173632751       -0.9687535705       -1.9198647635
H          8.5792183471        0.5836320054        1.1066465574
H          2.0542238886       -1.8288111029       -1.0467058740
H          2.0650385356        1.8196553186        1.0353654808
H         -4.0724925858       -4.3028896541       -0.6325337421
H         -2.6795431937       -5.9993039037        0.5046471304
H         -0.3546031022       -5.5149773726        1.1002536860
H          0.6655293796       -3.3300167057        0.5694030968
H         -1.2339774029        1.1966017184       -1.9751927554
H         -3.4432971777        1.8216167267       -2.8580557327
H         -5.3297508702        0.2599726572       -2.7669516207
H         -5.0507726175       -2.0021889984       -1.8112730090
H         -4.0574420724        4.3123313265        0.6458393573
H         -2.6692780004        6.0002105684       -0.5094508043
H         -0.3495410329        5.5087487467       -1.1189269485
H          0.6696274305        3.3233731980       -0.5859363317
H         -1.2211278305       -1.1903185629        1.9833231629
H         -3.4240963404       -1.8069616134        2.8890167562
H         -5.3068470187       -0.2402695394        2.8108912582
H         -5.0313014718        2.0178483577        1.8454635426
