74
-116.81663044
C         -0.0265028286        3.9805687404        0.5527884197
C         -0.7552258003        4.7965637012       -0.3090774456
C         -0.7776892237        6.1624175770       -0.1159823348
C         -0.0639128556        6.7347855507        0.9377742319
C          0.6693570964        5.9145668687        1.7960689434
C          0.6840908399        4.5476703980        1.6075257804
C         -0.0847022159        8.1365078343        1.1341241464
C         -0.1042111847        9.3256829679        1.2994882181
N         -0.0121348033        2.5896190129        0.3573449128
C          1.1096484668        1.7934907024        0.2887620116
C          0.7184350703        0.4506985736        0.0676270174
C         -0.7153159777        0.4491047042        0.0102220857
C         -1.1241594405        1.7907092068        0.1925831330
C          1.6763245380       -0.5464237119       -0.0503271669
C          3.0099144203       -0.1896982846        0.0493029326
C          3.3906531469        1.1415185838        0.2458790275
C          2.4514152117        2.1454867536        0.3618931292
C         -2.4710401156        2.1255422611        0.2407888330
C         -3.3961607171        1.1153490445        0.0813392909
C         -3.0003358918       -0.2114633917       -0.1323136562
C         -1.6574201190       -0.5540472908       -0.1672160688
N          4.0130916967       -1.1838578116       -0.0551774659
C          4.5855541869       -1.6297912569       -1.2217376835
C          5.5572070733       -2.6144126007       -0.9217520037
C          5.5574045245       -2.7592734122        0.5066571402
C          4.5877007647       -1.8529991636        0.9981760642
N         -3.9833288550       -1.2036683122       -0.2941020293
C         -5.0396877771       -1.1557375840       -1.1788397050
C         -5.8210639456       -2.3268166447       -1.0401555115
C         -5.1965972814       -3.1127316979       -0.0138989725
C         -4.0643621468       -2.3822493464        0.4172693472
C          6.2736281336       -3.2096711432       -1.9525379407
C          6.0139700763       -2.8186551086       -3.2510958362
C          5.0540235891       -1.8474450443       -3.5334002929
C          4.3274291983       -1.2400487741       -2.5281461827
C          4.3263120646       -1.7362701983        2.3558594829
C          5.0481520575       -2.5374666899        3.2186131629
C          6.0066862266       -3.4337656037        2.7471413093
C          6.2694400894       -3.5534589515        1.3968434415
C         -6.9414664319       -2.5128514764       -1.8398319244
C         -7.2622021614       -1.5409297005       -2.7662962736
C         -6.4738955781       -0.4005907692       -2.9108270041
C         -5.3552005066       -0.1927236103       -2.1275817088
C         -3.2553846810       -2.8547902348        1.4415787351
C         -3.5752391301       -4.0742011570        2.0063985726
C         -4.6766217902       -4.8106455040        1.5737452069
C         -5.4971402628       -4.3368141201        0.5698078455
H         -1.2901863283        4.3549184002       -1.1359442636
H         -1.3409007804        6.7973959944       -0.7830475992
H          1.2179296661        6.3570108418        2.6138201536
H          1.2332743796        3.9111549283        2.2843744119
H         -0.1209142969       10.3644989241        1.4446006123
H          1.3965102122       -1.5751915425       -0.2173415227
H          4.4430624626        1.3748721454        0.3027274939
H          2.7559914022        3.1713938677        0.4951005072
H         -2.7910809226        3.1398560584        0.4194718663
H         -4.4504369164        1.3392435424        0.1357545615
H         -1.3553600975       -1.5764349820       -0.3322245263
H          7.0182422005       -3.9618987688       -1.7383726787
H          6.5615771273       -3.2696456029       -4.0654648482
H          4.8766442771       -1.5650390865       -4.5607363649
H          3.5839643040       -0.4873726125       -2.7449765626
H          3.5825963325       -1.0425216574        2.7189406584
H          4.8672530649       -2.4703433597        4.2813533263
H          6.5498373336       -4.0433649727        3.4541245955
H          7.0119506985       -4.2496744841        1.0361335397
H         -7.5441421534       -3.4028929899       -1.7375697834
H         -8.1307151281       -1.6654345821       -3.3958504996
H         -6.7426867154        0.3351858109       -3.6543411008
H         -4.7418148718        0.6858880588       -2.2569254698
H         -2.4092906992       -2.2848414272        1.7943231831
H         -2.9596620803       -4.4649288319        2.8032247043
H         -4.8915388149       -5.7612343298        2.0389050816
H         -6.3582960178       -4.9008345178        0.2440747775
