63
-106.79475865
C          3.3053600919        0.2681972745       -0.0014747844
C          3.9081606847        1.5164529515        0.1560075511
C          5.2816193835        1.6291325268        0.1585198233
C          6.0777427683        0.4917189319        0.0030426050
C          5.4746417542       -0.7584582584       -0.1551412243
C          4.1008821771       -0.8672617665       -0.1570929488
C          1.8474626513        0.1503352688       -0.0026040885
N          1.1391744611        1.2578454454        0.1905441435
C         -0.1864765234        1.0955990183        0.1905910089
N         -0.8077344711       -0.0650423596       -0.0016999306
C         -0.0076955649       -1.1103103466       -0.1947646670
N          1.3267777154       -1.0567474600       -0.1958145331
N         -0.5956248124       -2.3231863310       -0.3506466908
C          0.1725006101       -3.5025795575       -0.4648647855
C         -0.1368989824       -4.6085956878        0.3225342204
S         -1.4936068907       -4.5403546541        1.4616175912
C         -2.5500836725       -3.4496215720        0.5459967787
C         -1.9996943397       -2.4646209070       -0.2695988910
N         -0.9623493533        2.1976306892        0.3472560915
C         -0.3952620268        3.4859482204        0.4597519328
C         -0.8824649129        4.5270433973       -0.3262581226
S         -2.2134753180        4.2394151113       -1.4614134468
C         -3.0764568769        2.9923343424       -0.5425903039
C         -2.3710562543        2.1097792121        0.2709314538
C         -3.9258251384       -3.5877255076        0.6558794797
C         -4.7597565094       -2.7424219264       -0.0518394795
C         -4.2193439318       -1.7814569946       -0.8909848517
C         -2.8477575896       -1.6512476561       -1.0101565149
C          1.2211611895       -3.5920531460       -1.3713965061
C          1.9782071475       -4.7471765665       -1.4498494402
C          1.6807214962       -5.8344702768       -0.6439829085
C          0.6142546832       -5.7710667145        0.2332337932
C         -4.4567823860        2.9058798522       -0.6476470948
C         -5.1404196088        1.9371080207        0.0629623989
C         -4.4486772826        1.0767298613        0.9001716152
C         -3.0737012576        1.1702759082        1.0144691660
C          0.6276079387        3.7445738457        1.3632714785
C          1.1872335100        5.0073195051        1.4400210857
C          0.7147101237        6.0318732290        0.6355812332
C         -0.3298652742        5.7960842815       -0.2385746419
C          7.4881431907        0.6052428545        0.0061939904
C          8.6854571710        0.7007321620        0.0096895242
H          3.2785597738        2.3852162568        0.2721522635
H          5.7517443319        2.5935398665        0.2796160175
H          6.0935879738       -1.6350662585       -0.2744113127
H          3.6189564180       -1.8256167748       -0.2751907629
H         -4.3243657181       -4.3528060126        1.3034183567
H         -5.8290526727       -2.8422950757        0.0447004271
H         -4.8637712656       -1.1288633018       -1.4580150990
H         -2.4236114323       -0.9036562588       -1.6599536789
H          1.4473160049       -2.7425219755       -1.9950444568
H          2.8002106657       -4.7966373517       -2.1464362565
H          2.2717695539       -6.7344125244       -0.7032265127
H          0.3579011083       -6.6094315332        0.8616582460
H         -4.9761860746        3.5961091209       -1.2936259657
H         -6.2121262269        1.8626177124       -0.0296878357
H         -4.9769959547        0.3287816675        1.4695037855
H         -2.5318830766        0.5015332125        1.6627473042
H          0.9905247934        2.9430916722        1.9859144031
H          1.9923656448        5.1896292549        2.1342077433
H          1.1519335705        7.0158557379        0.6935080560
H         -0.7208334543        6.5816716397       -0.8658619362
H          9.7312593572        0.7846112852        0.0120175809
