77
-127.67664970
C         -0.4226325374        3.4769339170       -0.4638381579
C          0.3087795546        4.1277866637       -1.4594704820
C          0.1327512362        5.4744109037       -1.6870422930
C         -0.7677273688        6.2180623229       -0.9156652099
C         -1.4784745377        5.5631624183        0.0977019634
C         -1.3191188611        4.2145235863        0.3138143683
C         -0.9553313538        7.6430948154       -1.0973271351
S         -1.3477575592        8.6531948540        0.1436640222
S         -0.7516706029        8.3545287717       -2.6846447939
N         -0.2557777251        2.1134351649       -0.2426684426
C          0.9569657574        1.4426656128       -0.1508042915
C          0.7191270652        0.0745260360        0.0913528120
C         -0.7076880893       -0.0906135040        0.1358761617
C         -1.2703804133        1.1919302634       -0.0688073459
C          1.7654575800       -0.8183731174        0.2530952801
C          3.0755829451       -0.3451182530        0.2055906070
C          3.2939346454        1.0212848310       -0.0456443065
C          2.2580459885        1.9164185638       -0.2134709289
C         -2.6460433265        1.3620431655       -0.1437374082
C         -3.4481469315        0.2516983700        0.0340970114
C         -2.8988917869       -1.0089173543        0.2761647489
C         -1.5259638746       -1.1939153047        0.3218372075
N          4.1524337158       -1.2134637443        0.3407285181
C          3.9941951784       -2.6088847865        0.4610542137
C          4.6502532783       -3.4567821911       -0.4295869847
S          5.6947238459       -2.7514947885       -1.6821584285
C          6.3357677989       -1.4233497488       -0.6902663898
C          5.4931272971       -0.7958073828        0.2253816677
N         -3.7871297004       -2.1106134323        0.4721890690
C         -4.2593973335       -2.3232734508        1.7626913412
C         -5.2480755201       -3.2624062694        2.0681778782
S         -6.0460913217       -4.2415252471        0.8219692859
C         -4.9523548060       -4.0030798270       -0.5555291106
C         -4.0074878132       -2.9734079843       -0.5955230730
C          7.6594845131       -1.0358624529       -0.8209679285
C          8.1572487407       -0.0190837153       -0.0264885483
C          7.3416661607        0.5806537974        0.9203806641
C          6.0231317733        0.1869339721        1.0568830588
C          3.2512545878       -3.1722431480        1.4946563244
C          3.1047947631       -4.5446872301        1.5823751588
C          3.7215934312       -5.3753186370        0.6600318954
C          4.5126698950       -4.8322181134       -0.3359388090
C         -5.1204933323       -4.8637286106       -1.6268493378
C         -4.3741349057       -4.7098078023       -2.7821461949
C         -3.4587867340       -3.6766877557       -2.8527978507
C         -3.2764276657       -2.8268594669       -1.7769611613
C         -3.7377248599       -1.5789224278        2.8238174953
C         -4.1842783528       -1.7544047645        4.1209044076
C         -5.1581982876       -2.6932781900        4.4047106040
C         -5.6815790968       -3.4486736867        3.3698313443
H          0.9972028872        3.5655388862       -2.0699627245
H          0.7294269820        5.9599155086       -2.4445561554
H         -2.1611510330        6.1356507270        0.7067391107
H         -1.8657503081        3.7285456221        1.1063515963
H         -0.6838147662        7.2218385477       -3.3879381852
H          1.5510290017       -1.8644065375        0.3946425395
H          4.3033535379        1.3885250127       -0.1330726634
H          2.4756055825        2.9592208016       -0.3798176849
H         -3.0860602796        2.3245011870       -0.3494489840
H         -4.5219995432        0.3482686101       -0.0122887344
H         -1.1107877704       -2.1758989513        0.4894739369
H          8.2839612540       -1.5306177352       -1.5485062436
H          9.1841539369        0.2917815878       -0.1360384930
H          7.7351130969        1.3545462203        1.5608752262
H          5.3901787218        0.6392719322        1.8049681435
H          2.7904698382       -2.5249668545        2.2250513188
H          2.5119519601       -4.9669723786        2.3788629625
H          3.6026837131       -6.4452939767        0.7256619193
H          5.0216618872       -5.4625862742       -1.0484719934
H         -5.8590040107       -5.6472340127       -1.5462135645
H         -4.5184205868       -5.3822530202       -3.6125670353
H         -2.8755535291       -3.5248915138       -3.7479228825
H         -2.5580563000       -2.0269977908       -1.8564151407
H         -2.9718630617       -0.8464534260        2.6250962930
H         -3.7612068137       -1.1520305640        4.9099776793
H         -5.5120568034       -2.8391727306        5.4127541518
H         -6.4474997728       -4.1864270208        3.5564210985
