77
-127.67714563
C         -0.4349207165        3.4635281918       -0.3825266476
C         -1.3295395231        4.1871225142        0.4109505156
C         -1.5020422565        5.5358841078        0.2083220955
C         -0.7733292205        6.2155342664       -0.7759529057
C          0.1174095102        5.4836405087       -1.5708336372
C          0.2780217202        4.1298451245       -1.3822439638
C         -0.9992502729        7.6326187917       -0.9642292907
S         -2.4489541025        8.3503373701       -0.6489841738
S          0.2958681546        8.6495464581       -1.5612990995
N         -0.2596384258        2.0986784675       -0.1854651761
C          0.9587172044        1.4332413348       -0.1380210402
C          0.7343856996        0.0583789984        0.0767040670
C         -0.6902651529       -0.1171346647        0.1462223837
C         -1.2646218893        1.1665335676       -0.0106069218
C          1.7898296989       -0.8295387016        0.2021931553
C          3.0956629244       -0.3449658397        0.1446134424
C          3.2999886450        1.0272467302       -0.0864378721
C          2.2549211912        1.9177647577       -0.2172742643
C         -2.6432852434        1.3309371405       -0.0448067825
C         -3.4343624343        0.2126368437        0.1270900082
C         -2.8707725531       -1.0531916760        0.3144418243
C         -1.4983797270       -1.2316873196        0.3147776759
N          4.1804872542       -1.2066176670        0.2508211058
C          4.0352424196       -2.6040108476        0.3639818412
C          4.6891246453       -3.4399953895       -0.5394203027
S          5.7126149361       -2.7162228377       -1.7987523032
C          6.3549331890       -1.3919466676       -0.8020585335
C          5.5171095283       -0.7780714715        0.1271942013
N         -3.7221703636       -2.1867895312        0.4976580671
C         -4.1221333899       -2.4801061071        1.7965792061
C         -4.9022151938       -3.5931341883        2.1222220923
S         -5.4088045874       -4.7908075778        0.9146872374
C         -5.0397228890       -3.9390921928       -0.5976662282
C         -4.2396742601       -2.7936650808       -0.6410409070
C          7.6750159065       -0.9952011740       -0.9413917549
C          8.1741131992        0.0169728114       -0.1418735741
C          7.3639403049        0.6024607400        0.8184500552
C          6.0490897827        0.1995600474        0.9634557770
C          3.3097742953       -3.1807241009        1.4026091058
C          3.1781143800       -4.5550396478        1.4837938277
C          3.7923656909       -5.3740146625        0.5493868443
C          4.5661568391       -4.8172275226       -0.4526125371
C         -5.5546243669       -4.4974559409       -1.7552334597
C         -5.2703528984       -3.9485280629       -2.9935219025
C         -4.4599393267       -2.8308803866       -3.0581971558
C         -3.9578775469       -2.2618440555       -1.9019174374
C         -3.7372964896       -1.6431378360        2.8471016467
C         -4.1138966042       -1.8979553977        4.1532559855
C         -4.8997422576       -2.9945086859        4.4536255719
C         -5.2915078378       -3.8375175967        3.4282698405
H         -1.8656546566        3.6894384667        1.2032495838
H         -2.1849074781        6.0974558125        0.8273874857
H          0.6407287356        5.9656916413       -2.3828429480
H          0.9324481497        3.5701803781       -2.0313972185
H          1.2891289417        7.7642022001       -1.4532648312
H          1.5855899707       -1.8798273799        0.3260327668
H          4.3050806574        1.4028632953       -0.1862670434
H          2.4613504953        2.9650387084       -0.3680204036
H         -3.0941436903        2.2954369814       -0.2149346311
H         -4.5098891373        0.3046932170        0.1125039064
H         -1.0753432672       -2.2163636822        0.4380421654
H          8.2956550216       -1.4795975064       -1.6790932477
H          9.1982002424        0.3347302667       -0.2578156508
H          7.7590652864        1.3719854965        1.4631149325
H          5.4209882759        0.6399783195        1.7225826040
H          2.8507355283       -2.5425623948        2.1420510900
H          2.5988333239       -4.9879360425        2.2845515973
H          3.6849668655       -6.4455079512        0.6100756320
H          5.0729597776       -5.4383830432       -1.1747601694
H         -6.1723561909       -5.3789458496       -1.6703121114
H         -5.6722157941       -4.3961132796       -3.8883724225
H         -4.2133661939       -2.3901022085       -4.0118061711
H         -3.3285226706       -1.3896302309       -1.9764418925
H         -3.1274523844       -0.7798425812        2.6345600058
H         -3.7895842591       -1.2287336754        4.9351689388
H         -5.2030664355       -3.1997996124        5.4677466252
H         -5.8976024160       -4.7080728013        3.6296206208
