77
-127.67740089
C         -0.3488548888        3.4904254906       -0.2502184654
C          0.3081570172        4.3189423793        0.6633878249
C          0.1742229360        5.6864283206        0.5886000708
C         -0.6337087895        6.2736109351       -0.3931421209
C         -1.3081404294        5.4350133683       -1.2901391299
C         -1.1620458056        4.0697545400       -1.2286010068
C         -0.8315466996        7.7037555976       -0.4845817371
S         -2.2287141957        8.3738897570       -1.0464099690
S          0.4403290089        8.7953529950        0.0261774083
N         -0.2070842464        2.1105826019       -0.1788306856
C          0.9753809916        1.4217365285        0.0159165794
C          0.7096641707        0.0323128346        0.0396288437
C         -0.7057179240       -0.1192056789       -0.1587240016
C         -1.2332274452        1.1812816576       -0.2912483996
C          1.7437054757       -0.8775136493        0.2025426865
C          3.0348979341       -0.3911605115        0.3152082311
C          3.2972976325        0.9804618577        0.2439625568
C          2.2773919483        1.8987037349        0.0937041924
C         -2.6032764520        1.3622140729       -0.4012108743
C         -3.4098199363        0.2460840270       -0.4748398320
C         -2.8908387494       -1.0609690078       -0.4399361479
C         -1.5242951965       -1.2341999598       -0.2244209916
N          4.1150005366       -1.3120672570        0.4778795971
C          4.6739019499       -1.4388950292        1.7449421902
C          5.6951904103       -2.3473555465        2.0385693351
S          6.3028109836       -3.5190996763        0.8524985209
C          5.6442060154       -2.8575312380       -0.6563836290
C          4.6483497133       -1.8772438261       -0.6759427923
N         -3.7433711306       -2.1541507202       -0.5263170844
C         -5.1368913171       -2.0295877659       -0.6896900325
C         -5.9954402527       -2.6920612939        0.1857184741
S         -5.3017279779       -3.6898474682        1.4825042176
C         -3.9309445556       -4.3194336354        0.5429432938
C         -3.2990175963       -3.4829663083       -0.3756088710
C          6.1516993841       -3.3872144159       -1.8307861232
C          5.6726790819       -2.9708032992       -3.0605253341
C          4.6848869919       -2.0048414186       -3.0999704630
C          4.1883018877       -1.4627453697       -1.9285532302
C          4.2082669490       -0.6457504749        2.7967491122
C          4.7539771115       -0.7277640452        4.0649333560
C          5.7907055994       -1.6036378401        4.3258228607
C          6.2520368229       -2.4154943238        3.3043732180
C         -3.5176893131       -5.6307132572        0.7137706265
C         -2.4699796424       -6.1231164676       -0.0429482383
C         -1.8673127662       -5.3165807774       -0.9955124232
C         -2.2874195205       -4.0110068187       -1.1730289049
C         -5.6858101593       -1.3171398887       -1.7524697410
C         -7.0577431149       -1.2109798569       -1.8878340209
C         -7.9013623042       -1.8366139859       -0.9832388652
C         -7.3701736225       -2.5940208302        0.0448529181
H          0.8951430087        3.8796187721        1.4541987775
H          0.6499365246        6.3012392370        1.3378076502
H         -1.9272077657        5.8835611818       -2.0519951579
H         -1.6550920413        3.4419370796       -1.9533979037
H          1.4140946081        7.8925777167        0.1625774492
H          1.5553218355       -1.9394319918        0.2280805451
H          4.3212618648        1.3162915112        0.3067952103
H          2.4993734796        2.9507359329        0.0175558330
H         -3.0468702119        2.3451997861       -0.4085177769
H         -4.4766005107        0.3899504529       -0.5307698757
H         -1.0991517207       -2.2134673361       -0.0807139096
H          6.9215371124       -4.1413187849       -1.7639342088
H          6.0685216790       -3.3983999313       -3.9677667455
H          4.2948294974       -1.6618340925       -4.0458035898
H          3.4244224602       -0.7039001599       -1.9836047443
H          3.3971198002        0.0414683411        2.6188867388
H          4.3618171301       -0.0981955188        4.8486866239
H          6.2296779328       -1.6687762714        5.3084988834
H          7.0444576878       -3.1276381813        3.4797722198
H         -4.0174670087       -6.2498420267        1.4424519504
H         -2.1383207942       -7.1395395087        0.0989330750
H         -1.0703511060       -5.7071366573       -1.6090609148
H         -1.8347002510       -3.3892184484       -1.9300040252
H         -5.0265376304       -0.8458234134       -2.4651541008
H         -7.4693614322       -0.6426759521       -2.7073051099
H         -8.9713810556       -1.7495269339       -1.0863754677
H         -8.0095584887       -3.1069610872        0.7463719903
