77
-127.68487439
C         -0.3992196633        3.4417412335        0.0796318298
C          0.3314605092        4.2541107584       -0.7895745375
C          0.1758174402        5.6209060390       -0.7567913220
C         -0.7146564207        6.2203554144        0.1428743939
C         -1.4438217709        5.3953430875        1.0096241226
C         -1.2897201467        4.0291129333        0.9806909968
C         -0.8915458229        7.6541945937        0.1897600066
S         -2.0120818364        8.4078631267        1.1345571807
S          0.1711278820        8.6047485629       -0.8321376238
N         -0.2406566904        2.0563380098        0.0476951265
C          0.9650351196        1.3800542371        0.0238809601
C          0.7192383768       -0.0120572987       -0.0020727440
C         -0.7072903653       -0.1757632053        0.0029004003
C         -1.2617838840        1.1244863851        0.0365830265
C          1.7762262861       -0.9117290063       -0.0141195134
C          3.0642386732       -0.4076978314        0.0159635964
C          3.3009413456        0.9697587971        0.0795589490
C          2.2606288059        1.8764983660        0.0881065462
C         -2.6364126661        1.3172153519       -0.0120458894
C         -3.4445653359        0.1991376573       -0.0474130065
C         -2.9020374695       -1.0904978484       -0.0427075225
C         -1.5332706933       -1.2908742367       -0.0290606888
N          4.1689219663       -1.3136648452       -0.0031811419
C          4.7884168935       -1.5440733852       -1.2269366276
C          5.8413589764       -2.4487435521       -1.3891838681
S          6.4400834778       -3.4676292757       -0.0651120275
C          5.6891822518       -2.6884081121        1.3412105814
C          4.6588700725       -1.7516425419        1.2224970425
N         -3.7732909996       -2.2227410915       -0.0667873913
C         -4.1660186282       -2.7018911262       -1.3120868247
C         -4.9634749134       -3.8379295189       -1.4750115123
S         -5.5072658974       -4.8286528869       -0.1068976202
C         -5.1406780382       -3.7617519181        1.2629487278
C         -4.3165384415       -2.6391699558        1.1439270465
C          6.1561932731       -3.0852281851        2.5828060311
C          5.5999044828       -2.5779077039        3.7440876861
C          4.5705330053       -1.6608829334        3.6464395808
C          4.1132651342       -1.2509474988        2.4071586544
C          4.3545754364       -0.8611812243       -2.3658910018
C          4.9504877949       -1.0546317637       -3.5989529097
C          6.0086413090       -1.9331974680       -3.7345268674
C          6.4470846505       -2.6286957961       -2.6211996470
C         -5.6819666096       -4.1262597854        2.4841162244
C         -5.4005307368       -3.4007953775        3.6286430544
C         -4.5649609646       -2.3039652662        3.5352528746
C         -4.0365218985       -1.9282502409        2.3135420814
C         -3.7567285230       -2.0389513485       -2.4717051172
C         -4.1241066085       -2.4829926786       -3.7290123981
C         -4.9254702608       -3.6001527718       -3.8699524864
C         -5.3434159423       -4.2712044690       -2.7340029146
H          0.9993048357        3.8045893473       -1.5070758214
H          0.7359724509        6.2354698296       -1.4450676911
H         -2.1220814974        5.8496309756        1.7153816320
H         -1.8369142735        3.4099967056        1.6737721433
H         -0.3289327361        9.7894552961       -0.4912683493
H          1.6053638367       -1.9762537217       -0.0390237865
H          4.3215491558        1.3178568769        0.1245789340
H          2.4576241786        2.9338667417        0.1585977627
H         -3.0679896199        2.3047103654       -0.0366545153
H         -4.5177499644        0.3090318584       -0.0814241074
H         -1.1260264291       -2.2892481035       -0.0494469120
H          6.9561999553       -3.8091917102        2.6238921317
H          5.9667164616       -2.9014105007        4.7050269145
H          4.1161372908       -1.2541201327        4.5366157131
H          3.3124518390       -0.5309992360        2.3551147059
H          3.5301660440       -0.1715133960       -2.2842546755
H          4.5809924299       -0.5100589330       -4.4540498200
H          6.4847832377       -2.0867973876       -4.6896586857
H          7.2606963963       -3.3345723136       -2.6957839329
H         -6.3179055838       -4.9978645098        2.5249691969
H         -5.8234126793       -3.6984153723        4.5747835800
H         -4.3190514641       -1.7293348585        4.4148448412
H         -3.3868399408       -1.0694084683        2.2650953429
H         -3.1349810062       -1.1624164242       -2.3854865066
H         -3.7801912095       -1.9451914030       -4.5989396520
H         -5.2212590742       -3.9524942688       -4.8451149751
H         -5.9631318611       -5.1521609137       -2.8091679527
