77
-127.68163259
C         -0.4119345360        3.4994884483       -0.3148964716
C          0.3187035242        4.1764283876       -1.2966433474
C          0.1532900936        5.5280963455       -1.4762039587
C         -0.7445170707        6.2573997202       -0.6827332758
C         -1.4698860599        5.5708734276        0.3010190517
C         -1.3084768870        4.2179965815        0.4822363599
C         -0.9039346276        7.6749321541       -0.8881375097
S         -0.0056927826        8.5571146950       -1.9546893095
S         -2.1416788260        8.4709772433        0.0713515927
N         -0.2483666665        2.1322186907       -0.1349409463
C          0.9637526401        1.4543811176       -0.0970770330
C          0.7259603948        0.0769269969        0.0837708394
C         -0.7010698424       -0.0877562429        0.1375029123
C         -1.2636258118        1.2048390633        0.0141544187
C          1.7715803675       -0.8220835177        0.2071428425
C          3.0824093238       -0.3472348250        0.1809969726
C          3.3010488922        1.0269593097       -0.0231208439
C          2.2651020173        1.9287874223       -0.1506099770
C         -2.6401461340        1.3802070544       -0.0178475205
C         -3.4408429766        0.2636578873        0.1253493539
C         -2.8909441108       -1.0113012471        0.2737362371
C         -1.5174242352       -1.2005937682        0.2633374528
N          4.1564487679       -1.2204454788        0.2944679659
C          3.9939551651       -2.6164556253        0.4031359536
C          4.6529284253       -3.4581486033       -0.4909843597
S          5.7022462130       -2.7427345796       -1.7341104542
C          6.3440626204       -1.4278767233       -0.7251962144
C          5.4998105330       -0.8071459964        0.1937671569
N         -3.7799517400       -2.1198936613        0.4068591172
C         -4.3441998033       -2.6223417902       -0.7618742164
C         -5.3732075828       -3.5674183616       -0.7660591224
S         -6.0975001909       -4.1815338158        0.7319909797
C         -4.8672055399       -3.7059812561        1.9199122814
C         -3.9102629707       -2.7215162479        1.6546504346
C          7.6705956019       -1.0462877153       -0.8437811427
C          8.1699599534       -0.0433220018       -0.0329339024
C          7.3531804959        0.5470628209        0.9186973766
C          6.0315920719        0.1594052970        1.0428605758
C          3.2456499471       -3.1860329327        1.4294592627
C          3.0985756936       -4.5588875516        1.5075209242
C          3.7195775430       -5.3834829979        0.5824539577
C          4.5144781073       -4.8341660063       -0.4070624311
C         -4.9442347655       -4.3166790202        3.1600709038
C         -4.0942961524       -3.9431219693        4.1862949837
C         -3.1715559103       -2.9401578758        3.9562677249
C         -3.0792299482       -2.3433489286        2.7119642645
C         -3.8749115260       -2.1850658019       -2.0030299924
C         -4.4171068016       -2.6504635991       -3.1870324186
C         -5.4348872067       -3.5858167718       -3.1710375842
C         -5.9020254058       -4.0465250169       -1.9525809801
H          0.9895795798        3.6259663601       -1.9369623833
H          0.7050054601        6.0443035663       -2.2469637927
H         -2.1525767781        6.1140075705        0.9371053835
H         -1.8508586119        3.7115228309        1.2646809636
H         -1.9308033458        9.6909410503       -0.4150683398
H          1.5576679041       -1.8729231435        0.3082370590
H          4.3101933682        1.3966792693       -0.1023543242
H          2.4825739271        2.9772464034       -0.2775493105
H         -3.0836860602        2.3518160634       -0.1631934388
H         -4.5151307530        0.3654362758        0.1112377177
H         -1.0996310835       -2.1922890158        0.3454828971
H          8.2962626770       -1.5352263601       -1.5742177139
H          9.1991944762        0.2630284058       -0.1328694357
H          7.7481278779        1.3086464894        1.5728584397
H          5.3986992708        0.6033499340        1.7959205698
H          2.7811068092       -2.5430871466        2.1612353174
H          2.5020294572       -4.9862512663        2.2984457385
H          3.6006777960       -6.4538579284        0.6408767014
H          5.0262083378       -5.4598901152       -1.1216728020
H         -5.6954580758       -5.0768608394        3.3132055992
H         -4.1672986161       -4.4211528323        5.1500103251
H         -2.5124157470       -2.6144185786        4.7461164220
H         -2.3549968072       -1.5597099737        2.5599978244
H         -3.0739910795       -1.4639198125       -2.0383565338
H         -4.0333072374       -2.2781039677       -4.1243152077
H         -5.8635857117       -3.9552823187       -4.0888340275
H         -6.6969935859       -4.7755084649       -1.9048558961
