77
-127.68168711
C         -0.3620432375        3.5105802275        0.2763132896
C         -1.3480206439        4.1406871208       -0.4893316402
C         -1.4993623832        5.5058490862       -0.4413257802
C         -0.6742733153        6.2936791210        0.3735067628
C          0.3105623047        5.6522723284        1.1390516738
C          0.4657094743        4.2881995883        1.0925086429
C         -0.8182947876        7.7263448920        0.4344156056
S          0.1886021951        8.7171396121        1.2871634863
S         -2.1596191225        8.4174891629       -0.4652227554
N         -0.2088745752        2.1312758874        0.2255643712
C          0.9888029983        1.4497975225        0.1079046641
C          0.7320099946        0.0588863793        0.0603480579
C         -0.6915378128       -0.1017813017        0.1782670376
C         -1.2353042346        1.1955273120        0.2660693405
C          1.7730702531       -0.8433023797       -0.0900066462
C          3.0643790223       -0.3477342010       -0.1862518292
C          3.3093452995        1.0266888219       -0.1670523132
C          2.2803025820        1.9386015117       -0.0323343501
C         -2.6021415730        1.3611631145        0.4268147295
C         -3.3987117296        0.2370694590        0.4944417163
C         -2.8712712477       -1.0649979702        0.4286767145
C         -1.4985325015       -1.2248576411        0.2432753291
N          4.1748425309       -1.2325388020       -0.3349818913
C          4.6107923543       -1.9394526861        0.7810088950
C          5.7733317668       -2.7163393701        0.7755022664
S          6.8759171367       -2.7700099824       -0.6144623713
C          5.8303426284       -2.1372278813       -1.9001431026
C          4.6483889074       -1.4443245382       -1.6261138019
N         -3.7130459076       -2.1680309800        0.4884551089
C         -3.2484147807       -3.4888196059        0.3252077571
C         -3.8276419911       -4.3085222591       -0.6416395391
S         -5.1582889203       -3.6682986046       -1.6300422987
C         -5.9230531151       -2.7080753485       -0.3447697736
C         -5.1146892488       -2.0623012898        0.5889990205
C          6.2611529080       -2.3334513620       -3.2012547523
C          5.5382414802       -1.8298372103       -4.2684759824
C          4.3674149196       -1.1393595752       -4.0169341620
C          3.9259701591       -0.9586487609       -2.7188662054
C          3.8901034807       -1.8840322696        1.9765071292
C          4.2875081933       -2.5916071812        3.0965032556
C          5.4169701996       -3.3873201096        3.0588178841
C          6.1583356445       -3.4397709435        1.8914273348
C         -7.3039160710       -2.6246479262       -0.2691438077
C         -7.8915170292       -1.9005331437        0.7521988658
C         -7.0991015598       -1.2953470754        1.7150803613
C         -5.7210653226       -1.3864521310        1.6441952681
C         -2.2679615739       -4.0246321618        1.1554401232
C         -1.8259438449       -5.3214745736        0.9675029273
C         -2.3760048850       -6.1111311112       -0.0301058572
C         -3.3924747369       -5.6112937382       -0.8236301781
H         -1.9692776559        3.5525761813       -1.1458385728
H         -2.2527401182        5.9783316281       -1.0535734131
H          0.9399036922        6.2479965102        1.7824616274
H          1.2071065431        3.8095559615        1.7124665944
H         -1.9023624803        9.6832013025       -0.1470965547
H          1.5887162076       -1.9056498474       -0.1364932186
H          4.3261360744        1.3729795674       -0.2716174986
H          2.4862652782        2.9965937089       -0.0504171334
H         -3.0499258579        2.3383533194        0.5102977443
H         -4.4640860403        0.3729173097        0.5824454046
H         -1.0567340399       -2.2014032793        0.1364764779
H          7.1812163234       -2.8748021000       -3.3627847599
H          5.8901654278       -1.9770229091       -5.2769826043
H          3.7847709239       -0.7384845174       -4.8319347199
H          3.0046077322       -0.4259666695       -2.5455102965
H          3.0082131279       -1.2668393904        2.0327863507
H          3.7035248985       -2.5165561715        4.0008147145
H          5.7298916235       -3.9497784124        3.9238665673
H          7.0603369554       -4.0304620962        1.8352954580
H         -7.9034826492       -3.1230896582       -1.0148683494
H         -8.9660438567       -1.8246430779        0.8048525935
H         -7.5555716565       -0.7550541717        2.5297004824
H         -5.1019227598       -0.9327896681        2.4028774896
H         -1.8564274086       -3.4149363057        1.9451480779
H         -1.0533802118       -5.7186459669        1.6074408293
H         -2.0273956279       -7.1207843379       -0.1796259704
H         -3.8505227435       -6.2179166688       -1.5893278451
