77
-127.67993238
C         -0.3888125707        3.4467662167        0.0032928151
C         -1.2562775239        4.0652932841       -0.8977542101
C         -1.4091089422        5.4332910757       -0.8827596560
C         -0.7180022186        6.2207667906        0.0441430441
C          0.1533138027        5.5942322189        0.9406320016
C          0.3208434417        4.2263363782        0.9161995978
C         -0.8917952469        7.6623272488        0.0127938929
S         -1.1832688825        8.4854987205       -1.3820383418
S         -0.7784552322        8.5801524278        1.4975958580
N         -0.2290095016        2.0590010573       -0.0145117784
C          0.9747146492        1.3805889464       -0.0133602232
C          0.7262932465       -0.0111432676       -0.0533860162
C         -0.7002735410       -0.1715325593       -0.0688981154
C         -1.2514922658        1.1303657529       -0.0462837171
C          1.7819092238       -0.9123302713       -0.0742498720
C          3.0711008975       -0.4106947292       -0.0561096435
C          3.3107648807        0.9677513703       -0.0427855434
C          2.2721318647        1.8761647009       -0.0313251127
C         -2.6254258150        1.3250777636        0.0142972652
C         -3.4363929412        0.2087677797        0.0168161316
C         -2.8977741508       -1.0816000130       -0.0397812713
C         -1.5297911944       -1.2846114840       -0.0763029381
N          4.1740309936       -1.3188308997       -0.0504236216
C          4.6155441229       -1.7716069575        1.1888674658
C          5.6387870385       -2.7114717966        1.3384660176
S          6.4528646107       -3.4674793799       -0.0452101280
C          5.9055580171       -2.4331101774       -1.3792591949
C          4.8404937317       -1.5367519822       -1.2512851007
N         -3.7696456987       -2.2131174788       -0.0312634612
C         -4.0582636865       -2.7833639427        1.2048564006
C         -4.8229471705       -3.9440426215        1.3490900884
S         -5.4638197497       -4.8427032539       -0.0402414783
C         -5.2473567944       -3.6595546210       -1.3450768668
C         -4.4188409433       -2.5409268883       -1.2167554736
C          6.5634801350       -2.5958544544       -2.5866087219
C          6.1658531331       -1.8930867350       -3.7106177549
C          5.0924105491       -1.0282938198       -3.6116763377
C          4.4442510562       -0.8517118501       -2.4026663779
C          4.0267906453       -1.2803707710        2.3568727482
C          4.4305668023       -1.7078830514        3.6086613539
C          5.4495842003       -2.6326357117        3.7369617113
C          6.0523083891       -3.1263067935        2.5931909207
C         -5.9051432564       -3.9314199251       -2.5326463669
C         -5.7362269802       -3.1164448732       -3.6383921529
C         -4.8905945322       -2.0275882610       -3.5419121256
C         -4.2466872473       -1.7439158814       -2.3511711641
C         -3.5758660730       -2.1892723879        2.3737694362
C         -3.8334256436       -2.7283663524        3.6210948228
C         -4.5974305751       -3.8734953066        3.7443353773
C         -5.0939028950       -4.4725971820        2.5998977905
H         -1.7881794425        3.4714158831       -1.6240079292
H         -2.0708340367        5.9159730744       -1.5852799262
H          0.7337606318        6.1823858852        1.6351968418
H          0.9879199602        3.7538198845        1.6194615426
H         -0.7589488789        7.5503372023        2.3475849991
H          1.6090777436       -1.9765656662       -0.1005632461
H          4.3326141511        1.3153032305       -0.0469581441
H          2.4725380769        2.9351317661       -0.0467855520
H         -3.0533405926        2.3125627374        0.0763233902
H         -4.5088733004        0.3200658774        0.0662958586
H         -1.1253755537       -2.2842536699       -0.0951930495
H          7.3854483139       -3.2944234799       -2.6340547194
H          6.6836101310       -2.0319366810       -4.6461645458
H          4.7513218442       -0.4810447661       -4.4768832988
H          3.6077913209       -0.1736319946       -2.3511724000
H          3.2342335168       -0.5536284699        2.2811587649
H          3.9428475737       -1.3089636682        4.4845738989
H          5.7742953552       -2.9710489634        4.7078599003
H          6.8483048268       -3.8529768222        2.6576550892
H         -6.5408709751       -4.8028411207       -2.5805531037
H         -6.2501954456       -3.3413114224       -4.5591879449
H         -4.7268205516       -1.3873629090       -4.3949541481
H         -3.5892219799       -0.8911697629       -2.3014086598
H         -2.9842905958       -1.2908582201        2.3025395890
H         -3.4338367886       -2.2425263452        4.4977553026
H         -4.8063846348       -4.3007862686        4.7119931057
H         -5.6908770354       -5.3702275001        2.6603732074
