77
-127.68003177
C         -0.3926303911        3.4429068407        0.0721751677
C          0.3108255962        4.2183455549        0.9944738856
C          0.1532748636        5.5858131375        1.0112505319
C         -0.6932957097        6.2202911378        0.0960446382
C         -1.3986672147        5.4360388141       -0.8220161555
C         -1.2555244028        4.0651634726       -0.8294665448
C         -0.8473672191        7.6629914794        0.1615647969
S         -0.7528963011        8.4965898500        1.5773027955
S         -1.1589134846        8.5676763091       -1.3027452280
N         -0.2376491091        2.0544652733        0.0570946917
C          0.9664564525        1.3772744513        0.0746741895
C          0.7200363613       -0.0150232188        0.0588009081
C         -0.7062161674       -0.1769949503        0.0367149891
C         -1.2592916622        1.1246180965        0.0304968740
C          1.7772693727       -0.9146186860        0.0441244754
C          3.0651782730       -0.4100404298        0.0277860008
C          3.3023518296        0.9689584526        0.0132361841
C          2.2623995502        1.8755276224        0.0345393742
C         -2.6346139086        1.3175146277        0.0545929496
C         -3.4440976361        0.2001007547        0.0401529311
C         -2.9024223066       -1.0898093420        0.0190210616
C         -1.5338771949       -1.2914139388        0.0289482976
N          4.1694201004       -1.3163983521       -0.0005849729
C          4.8316759756       -1.5647104008        1.1966600525
C          5.8926201815       -2.4681484695        1.3066289593
S          6.4405442353       -3.4696611837       -0.0520657591
C          5.6465557872       -2.6638353030       -1.4193086317
C          4.6218907693       -1.7287998680       -1.2498626975
N         -3.7749059220       -2.2210202544       -0.0109851947
C         -4.1430061605       -2.7056673554       -1.2618507360
C         -4.9376865738       -3.8417596818       -1.4368649884
S         -5.5151880855       -4.8239519572       -0.0763321027
C         -5.1668777553       -3.7559452408        1.2974831414
C         -4.3368859700       -2.6362113132        1.1911773846
C          6.0744880163       -3.0362392976       -2.6824185877
C          5.4836696711       -2.5050794762       -3.8155922061
C          4.4609299488       -1.5873611287       -3.6677687629
C          4.0431607075       -1.2015419898       -2.4070408154
C          4.4351173297       -0.9041081146        2.3620525042
C          5.0770378902       -1.1135297047        3.5691337147
C          6.1450623434       -1.9867650125        3.6515030375
C          6.5447389180       -2.6634256943        2.5122636470
C         -5.7289466160       -4.1179959922        2.5099142314
C         -5.4631102243       -3.3933273126        3.6586712046
C         -4.6205639199       -2.3007862993        3.5786127217
C         -4.0709265778       -1.9275942262        2.3655012333
C         -3.7115582890       -2.0464529545       -2.4156867551
C         -4.0519447003       -2.4958718448       -3.6786062857
C         -4.8485483123       -3.6147987138       -3.8317043966
C         -5.2904643132       -4.2807219070       -2.7018443331
H          0.9594911713        3.7416402319        1.7121214496
H          0.6873749814        6.1876016795        1.7302583213
H         -2.0935201645        5.8955450624       -1.5085306003
H         -1.7972818187        3.4719725727       -1.5488502093
H         -0.9443007055        7.5806137025       -2.1762496462
H          1.6065300259       -1.9794501175        0.0328528076
H          4.3232189488        1.3179092010       -0.0193697599
H          2.4591547095        2.9349394260        0.0033437949
H         -3.0661878275        2.3043827042        0.0955853651
H         -4.5177538172        0.3102082224        0.0501272685
H         -1.1278109904       -2.2905329869        0.0298226285
H          6.8715592226       -3.7601675865       -2.7624208390
H          5.8196348061       -2.8102438670       -4.7936479972
H          3.9811235901       -1.1610741725       -4.5351284104
H          3.2478031707       -0.4795392127       -2.3161670189
H          3.6031731395       -0.2197424197        2.3222888354
H          4.7357200794       -0.5855124707        4.4461086163
H          6.6575682945       -2.1516349107        4.5857268032
H          7.3633669043       -3.3666639004        2.5460647462
H         -6.3689022394       -4.9871204260        2.5408367368
H         -5.9027830979       -3.6886894639        4.5978544423
H         -4.3855162251       -1.7274103982        4.4620108389
H         -3.4155456577       -1.0724582430        2.3280664205
H         -3.0931821801       -1.1686709274       -2.3199968827
H         -3.6905877392       -1.9613789582       -4.5434636509
H         -5.1229250741       -3.9720961714       -4.8113226483
H         -5.9085763103       -5.1619888732       -2.7861738641
