77
-127.67908701
C         -0.3941523163        3.5437723726        0.0466264842
C          0.5245744032        4.3267705090       -0.6646066587
C          0.3732549457        5.6883960814       -0.7319541093
C         -0.6967343008        6.3320460080       -0.0891808501
C         -1.6122205193        5.5405038115        0.6218165699
C         -1.4675578617        4.1772662182        0.6863983079
C         -0.8339943529        7.7591484905       -0.1684713787
S          0.2582030132        8.7557336849       -0.9070451175
S         -2.2694156042        8.4541894714        0.5764372859
N         -0.2479433894        2.1714344343        0.1151808853
C          0.9419517505        1.4789475970        0.3058687499
C          0.6835345670        0.0927951800        0.3079240767
C         -0.7312094238       -0.0630903406        0.0983790510
C         -1.2688863817        1.2360503474       -0.0060039193
C          1.6935291709       -0.8268934889        0.5253037115
C          2.9866849999       -0.3709153417        0.7796636417
C          3.2295235696        1.0132492063        0.7667962643
C          2.2281098519        1.9369729443        0.5455527162
C         -2.6117593134        1.3996637716       -0.3091126258
C         -3.4090030599        0.2773940290       -0.4054641553
C         -2.9052881449       -1.0207568175       -0.2131346275
C         -1.5349555044       -1.1834063778       -0.0097462412
N          4.0289323499       -1.2670711933        0.9867026434
C          5.3639022095       -0.8603919139        1.1775920091
C          6.3667468800       -1.3726795712        0.3563424281
S          5.9320249430       -2.5411267397       -0.9099257154
C          4.6773929684       -3.3921105551        0.0175920191
C          3.8624981488       -2.6628931715        0.8815176802
N         -3.7438166327       -2.1237981944       -0.3188356488
C         -5.1216386528       -2.0177011302       -0.5892985154
C         -5.6760945959       -2.7412801514       -1.6437178562
S         -4.6233401752       -3.7889193681       -2.6194904293
C         -3.5885635646       -4.3409490648       -1.2844275271
C         -3.2668527421       -3.4486448174       -0.2632535900
C          4.5332049321       -4.7642959659       -0.1088346527
C          3.5754415032       -5.4243593272        0.6392121502
C          2.7951552629       -4.7175092291        1.5405081543
C          2.9463470987       -3.3493920337        1.6735580777
C          5.7230142443       -0.0089765552        2.2188923667
C          7.0408765290        0.3758978209        2.3837379610
C          8.0226545129       -0.1044964680        1.5312765571
C          7.6886686276       -0.9947401452        0.5269376082
C         -3.1291300335       -5.6478116566       -1.2591532860
C         -2.3492089062       -6.0798814695       -0.2019777198
C         -2.0673068207       -5.2171951832        0.8454573771
C         -2.5341160236       -3.9157515275        0.8244699449
C         -5.9663154357       -1.2606295982        0.2180449446
C         -7.3160130163       -1.1745494662       -0.0695777565
C         -7.8477394592       -1.8639148946       -1.1481686833
C         -7.0301066226       -2.6631963688       -1.9262860413
H          1.3324206916        3.8490672004       -1.1957767086
H          1.0719575743        6.2843123754       -1.2995310899
H         -2.4325707694        6.0134407457        1.1409275294
H         -2.1622671808        3.5894358946        1.2648435959
H         -1.9751648218        9.7183836506        0.2872165003
H          1.4680154507       -1.8791841156        0.4791346653
H          4.2331301708        1.3774428572        0.9149498085
H          2.4612024554        2.9894530687        0.5749901670
H         -3.0371580535        2.3733572039       -0.4936727829
H         -4.4455860891        0.4095276949       -0.6701914860
H         -1.0865114563       -2.1621166460        0.0313145051
H          5.1692275166       -5.2992684470       -0.7968384799
H          3.4533547770       -6.4904450121        0.5313258504
H          2.0707097436       -5.2346752684        2.1498828245
H          2.3561593990       -2.7996749455        2.3905221260
H          4.9586283292        0.3492049335        2.8913963135
H          7.3026056073        1.0487311369        3.1854688822
H          9.0496580413        0.1998574682        1.6570789284
H          8.4410967183       -1.3969782340       -0.1335048731
H         -3.3825156255       -6.3104941253       -2.0720025975
H         -1.9794680694       -7.0928931946       -0.1887084440
H         -1.4878767762       -5.5609635926        1.6879212650
H         -2.3340224513       -3.2485198171        1.6486342039
H         -5.5522490224       -0.7393444561        1.0674355485
H         -7.9560634351       -0.5717740709        0.5556546974
H         -8.8997248683       -1.7930228523       -1.3750008251
H         -7.4278694231       -3.2243425088       -2.7575598502
