77
-127.68218820
C         -0.4292123804        3.4884522753        0.4322364384
C          0.2494568105        4.1853191144        1.4372861488
C          0.0880937265        5.5426748380        1.5709122543
C         -0.7531112845        6.2585406901        0.7062663367
C         -1.4246758741        5.5524145190       -0.3016395861
C         -1.2672349120        4.1939136285       -0.4372109686
C         -0.9096571690        7.6822371275        0.8640252392
S         -0.0642336517        8.5856318122        1.9558471294
S         -2.0836617242        8.4621630640       -0.1847490497
N         -0.2687215082        2.1163067910        0.2983803219
C          0.9360415782        1.4284275738        0.3718508100
C          0.7021935188        0.0498929381        0.1935063344
C         -0.7150636637       -0.1028485191        0.0067937738
C         -1.2762819056        1.1944855440        0.0794046566
C          1.7446394188       -0.8609650065        0.2061878441
C          3.0456583755       -0.4011575684        0.4091209790
C          3.2677944278        0.9851725014        0.4939073140
C          2.2356036859        1.8996506722        0.4762801502
C         -2.6503389726        1.3794572987        0.0140005941
C         -3.4474879157        0.2669140526       -0.1749163413
C         -2.8955670406       -1.0102024418       -0.2865973294
C         -1.5272406200       -1.2091630322       -0.1863551081
N          4.1147777368       -1.2867276589        0.4349719490
C          5.4569407285       -0.8706315190        0.5386090382
C          6.3883591172       -1.3076767109       -0.4016039644
S          5.8577906540       -2.3998161677       -1.6992174770
C          4.7041251352       -3.3329649139       -0.7214536474
C          3.9555441344       -2.6751557436        0.2527383229
N         -3.7761914908       -2.1160747918       -0.4940109344
C         -4.1529543261       -2.8647545573        0.6151431996
C         -5.1042956118       -3.8871496251        0.5532166255
S         -6.0047950626       -4.2634451372       -0.9293055326
C         -5.0316264754       -3.4172317330       -2.1481785872
C         -4.0782359139       -2.4535221092       -1.8086761437
C          4.5707847831       -4.6976704506       -0.9203096169
C          3.6902399697       -5.4214377762       -0.1370384890
C          2.9751537950       -4.7863677018        0.8663358370
C          3.1162063157       -3.4260497792        1.0710132649
C          5.8980873541       -0.0878079242        1.6019305947
C          7.2205366685        0.3095890823        1.6753198228
C          8.1271215967       -0.0911268253        0.7064057133
C          7.7153124645       -0.9170820360       -0.3235928577
C         -5.2917118012       -3.7324882504       -3.4709746396
C         -4.6257226015       -3.0845523387       -4.4967441265
C         -3.6875082194       -2.1200984378       -4.1804902734
C         -3.4142711408       -1.8155625957       -2.8593578217
C         -3.5794468512       -2.6034925718        1.8619684877
C         -3.9212633957       -3.3351803746        2.9848189549
C         -4.8423597598       -4.3619591928        2.8979981368
C         -5.4312907143       -4.6303725383        1.6745932839
H          0.8769443681        3.6463936861        2.1292105654
H          0.5986704526        6.0748451085        2.3589426338
H         -2.0610563208        6.0844990296       -0.9927041865
H         -1.7651747865        3.6721149698       -1.2388439768
H         -1.8884545911        9.6931072397        0.2801081839
H          1.5409944672       -1.9040449099        0.0296933726
H          4.2781436603        1.3570727215        0.5431711501
H          2.4535184643        2.9548900973        0.5206090254
H         -3.0958803969        2.3546534399        0.1248826082
H         -4.5194045286        0.3751622025       -0.2357041636
H         -1.1120522086       -2.2031901347       -0.2505387701
H          5.1537312304       -5.1772139464       -1.6911901101
H          3.5762582843       -6.4815548021       -0.2995401786
H          2.3087857966       -5.3533882816        1.4976121204
H          2.5755954862       -2.9325036347        1.8640075665
H          5.1941526835        0.2071075987        2.3649075555
H          7.5453437836        0.9293287920        2.4964896114
H          9.1572086460        0.2237026511        0.7607729824
H          8.4101606431       -1.2594479448       -1.0745985983
H         -6.0361920748       -4.4849432463       -3.6838395797
H         -4.8441128958       -3.3313478565       -5.5233995163
H         -3.1571720212       -1.5981126959       -4.9619746771
H         -2.6742214916       -1.0643108157       -2.6346403826
H         -2.8591157446       -1.8066243458        1.9534540481
H         -3.4585267709       -3.0961709297        3.9299015859
H         -5.1107472480       -4.9426436188        3.7659819424
H         -6.1683103523       -5.4131812431        1.5758402174
