77
-127.68030381
C         -0.3855423330        3.4733058385        0.0184749874
C          0.3638347826        4.2670835488       -0.8512613030
C          0.2242348964        5.6360047992       -0.8323192143
C         -0.6831175247        6.2521509993        0.0365269509
C         -1.4273589667        5.4503101604        0.9084664158
C         -1.2742548844        4.0810262339        0.9055790644
C         -0.7862919844        7.6995242855        0.0356618627
S          0.4961442283        8.6746363236       -0.3023797637
S         -2.3156100929        8.4590252055        0.4163171819
N         -0.2409734256        2.0850397502        0.0050092469
C          0.9581965312        1.3981547869        0.0009545811
C          0.7009169173        0.0082342242       -0.0308369047
C         -0.7270177258       -0.1423547472       -0.0481007491
C         -1.2707807259        1.1632715305       -0.0179690481
C          1.7497268671       -0.9006704532       -0.0153628717
C          3.0410380936       -0.4085702649        0.0537467727
C          3.2879628371        0.9670423956        0.1209823502
C          2.2562312031        1.8831863678        0.0958287125
C         -2.6429445872        1.3667103854       -0.0686213035
C         -3.4610791039        0.2546633793       -0.1015057347
C         -2.9310414517       -1.0376773500       -0.1018966343
C         -1.5616176232       -1.2493728903       -0.0911789571
N          4.1347293182       -1.3267231542        0.0869107601
C          4.8693069067       -1.5036557927       -1.0808342681
C          5.9223009854       -2.4171264062       -1.1851803632
S          6.3582719309       -3.5274558303        0.1287714137
C          5.4982191027       -2.7968543061        1.4979610653
C          4.5051820303       -1.8279488733        1.3310826630
N         -3.8369469859       -2.1412268695       -0.1295361969
C         -4.2869810229       -2.5666884225       -1.3752106025
C         -5.2911705642       -3.5251617166       -1.5344801356
S         -6.1402231085       -4.2475509710       -0.1540066469
C         -5.0487318442       -3.8185686412        1.1783651148
C         -4.0807433534       -2.8166856042        1.0619968114
C          5.8413067671       -3.2616452643        2.7563764916
C          5.1948411046       -2.7906791684        3.8857121552
C          4.2054075292       -1.8367781810        3.7398791690
C          3.8730214060       -1.3588179792        2.4853481619
C          4.5575828520       -0.7598799389       -2.2215930926
C          5.2763669831       -0.8957414518       -3.3954228158
C          6.3383191527       -1.7772179589       -3.4679385387
C          6.6517258952       -2.5388247194       -2.3557065193
C         -5.2429164449       -4.4924989032        2.3720707476
C         -4.5011582991       -4.1703248252        3.4951815839
C         -3.5634575367       -3.1587464846        3.4083604088
C         -3.3545282187       -2.4972878730        2.2117510949
C         -3.7266145518       -2.0301137755       -2.5368918737
C         -4.1502477854       -2.4231503019       -3.7934093729
C         -5.1383981121       -3.3797589088       -3.9314052948
C         -5.7008304850       -3.9308317782       -2.7932262618
H          1.0376127306        3.8036734361       -1.5542359167
H          0.7969658225        6.2524188525       -1.5079818782
H         -2.0855402567        5.9039857280        1.6339065257
H         -1.8221431980        3.4766536878        1.6108976894
H         -3.0737109737        7.3598831449        0.4002258548
H          1.5704047081       -1.9639016355       -0.0407168332
H          4.3097194844        1.3065184873        0.1976546295
H          2.4607630326        2.9391597344        0.1689313508
H         -3.0665590770        2.3573196140       -0.0924407293
H         -4.5330176737        0.3729778133       -0.1340177862
H         -1.1612353454       -2.2510099495       -0.1153573221
H          6.6163926545       -4.0092351159        2.8345866851
H          5.4637411666       -3.1681645123        4.8592517745
H          3.6857606132       -1.4533992273        4.6043288652
H          3.1042121535       -0.6082477516        2.3969908824
H          3.7314021355       -0.0682446072       -2.1902726124
H          4.9998044121       -0.3036947345       -4.2541134680
H          6.9108512230       -1.8845078076       -4.3752872766
H          7.4611883618       -3.2527582332       -2.3851912986
H         -5.9982318081       -5.2630460386        2.4110285324
H         -4.6660413951       -4.6973431482        4.4213115664
H         -2.9832704759       -2.8776553861        4.2736774959
H         -2.6181566542       -1.7112726514        2.1699601449
H         -2.9485837723       -1.2885138395       -2.4521988868
H         -3.6975569858       -1.9773921737       -4.6656031493
H         -5.4736219388       -3.6952133649       -4.9064800893
H         -6.4792453678       -4.6754662556       -2.8661982741
