77
-127.67661262
C         -0.4141415856        3.4934871186       -0.3276931596
C          0.3020114413        4.1507017498       -1.3322856092
C          0.1307944676        5.4988380627       -1.5379470490
C         -0.7752180286        6.2362485827       -0.7647928400
C         -1.4815949399        5.5739413823        0.2468490377
C         -1.2982580341        4.2277257279        0.4668252469
C         -0.9152897436        7.6552327709       -1.0105909723
S          0.3177059999        8.5833005463       -1.5891666819
S         -2.4412045085        8.4502378697       -0.6802413939
N         -0.2447767569        2.1295750696       -0.1218773957
C          0.9686035579        1.4544853153       -0.0946707016
C          0.7352848405        0.0764424855        0.0879196826
C         -0.6909394027       -0.0913539682        0.1498509304
C         -1.2564566103        1.2009138753        0.0391116172
C          1.7847290285       -0.8179576089        0.2147417257
C          3.0934468024       -0.3376005376        0.1902347635
C          3.3073116281        1.0351415570       -0.0276311386
C          2.2680016374        1.9327678002       -0.1579926534
C         -2.6336599787        1.3747324215        0.0348023257
C         -3.4299015067        0.2567485001        0.1860334845
C         -2.8775849344       -1.0210928154        0.3071872364
C         -1.5041097529       -1.2075297790        0.2702713838
N          4.1700175315       -1.2064002385        0.3183633934
C          4.0107043223       -2.5981741588        0.4722424614
C          4.6804217874       -3.4665928546       -0.3876557465
S          5.7332127135       -2.7867775785       -1.6480800484
C          6.3655273620       -1.4396653753       -0.6762382809
C          5.5133509208       -0.7935817986        0.2178059689
N         -3.7673473637       -2.1284602950        0.4305276764
C         -4.4442968360       -2.5196646235       -0.7222788244
C         -5.5137791960       -3.4181879909       -0.7124784883
S         -6.1303689757       -4.1334257587        0.7882896040
C         -4.7794626463       -3.8082772649        1.8927678749
C         -3.8164511162       -2.8276214494        1.6331116829
C          7.6924232086       -1.0601269977       -0.7962141056
C          8.1849361291       -0.0336218451       -0.0109991135
C          7.3610086194        0.5813886814        0.9185330689
C          6.0389874466        0.1956890494        1.0444050565
C          3.2571547904       -3.1363462496        1.5117662510
C          3.1175241448       -4.5064167001        1.6365204690
C          3.7511608945       -5.3590221196        0.7460065341
C          4.5499305813       -4.8396353362       -0.2565165538
C         -4.7707537555       -4.5294885405        3.0746302702
C         -3.8276084929       -4.2716549937        4.0536994082
C         -2.9034818001       -3.2665370297        3.8394404127
C         -2.8970985983       -2.5600311941        2.6504481956
C         -4.0502388741       -2.0125186935       -1.9632489889
C         -4.7116368263       -2.3538069180       -3.1286370446
C         -5.7768255323       -3.2345621754       -3.0968350855
C         -6.1636235816       -3.7735077284       -1.8825698336
H          0.9693472462        3.5895089850       -1.9667870882
H          0.6736493631        6.0041288525       -2.3221188103
H         -2.1324061136        6.1292179825        0.9054493424
H         -1.8144067964        3.7410205350        1.2790022511
H         -3.1790890503        7.3559156108       -0.4806361195
H          1.5756469345       -1.8694230031        0.3206325400
H          4.3149083180        1.4075142667       -0.1135556477
H          2.4814766522        2.9812255753       -0.2925270890
H         -3.0812460537        2.3465188440       -0.0947878275
H         -4.5044266855        0.3577471876        0.1940607957
H         -1.0817169727       -2.1992051456        0.3248497247
H          8.3239475537       -1.5693390516       -1.5075279753
H          9.2143968725        0.2714639075       -0.1125502999
H          7.7507233756        1.3608251286        1.5546002112
H          5.4018224628        0.6582782722        1.7824636473
H          2.7827516689       -2.4711014073        2.2168077641
H          2.5171804993       -4.9095965126        2.4372165398
H          3.6388157194       -6.4274389608        0.8414981866
H          5.0708325358       -5.4867521002       -0.9449668355
H         -5.5296690758       -5.2830620152        3.2226041619
H         -3.8321809543       -4.8369546476        4.9718342767
H         -2.1755875780       -3.0247671730        4.5984944428
H         -2.1713697595       -1.7750565110        2.5147895317
H         -3.2128872306       -1.3349508266       -2.0128710843
H         -4.3840373380       -1.9278472883       -4.0643869643
H         -6.3009179455       -3.5046600703       -3.9996209643
H         -6.9879315498       -4.4682285109       -1.8230668999
