77
-127.67976098
C         -0.4133838407        3.4794712046        0.6393559696
C         -1.3147430697        4.2464015834       -0.1111116269
C         -1.4655764040        5.5863233088        0.1394557961
C         -0.7297049363        6.2223531309        1.1527357162
C          0.1683547257        5.4463349388        1.9022344032
C          0.3261303293        4.1065984312        1.6509110327
C         -0.9043835242        7.6254297702        1.4006335144
S         -2.0138127313        8.5730406563        0.6238976761
S          0.1491181132        8.3479869967        2.6120091639
N         -0.2560400289        2.1308328188        0.3878145087
C          0.9477916379        1.4351947205        0.3778502072
C          0.7034505512        0.0784997838        0.0829046730
C         -0.7180128522       -0.0564682786       -0.0889973572
C         -1.2719113462        1.2259311800        0.1014797672
C          1.7380384079       -0.8324948274       -0.0240949658
C          3.0483205464       -0.4012448982        0.1813425137
C          3.2811080688        0.9690558869        0.3913535845
C          2.2543144072        1.8864795844        0.4860345253
C         -2.6495928430        1.3818369633        0.1022844037
C         -3.4397670452        0.2848538768       -0.1757567428
C         -2.8974211118       -0.9827223608       -0.4498715850
C         -1.5168006479       -1.1537873005       -0.3526169855
N          4.1123217867       -1.2897642742        0.0832237034
C          5.4565019480       -0.8923955526        0.2172637872
C          6.3765331961       -1.2176872809       -0.7778950955
S          5.8270644239       -2.1368798693       -2.1954872548
C          4.6686217863       -3.1743136584       -1.3357376895
C          3.9401329478       -2.6424140391       -0.2731765175
N         -3.7310674632       -2.0626110258       -0.7150272716
C         -3.2488239835       -3.3810727280       -0.8404779761
C         -3.8047554235       -4.3956884621       -0.0631688278
S         -5.1395779169       -4.0051573224        1.0428519598
C         -5.9256315893       -2.7977273856        0.0035760151
C         -5.1334955698       -1.9511332506       -0.7700197453
C          4.5116977099       -4.4977592986       -1.7148437863
C          3.6266560441       -5.3077443686       -1.0268264619
C          2.9357010748       -4.8048405327        0.0643572760
C          3.1029106878       -3.4874052601        0.4503829554
C          5.9109164865       -0.2377553128        1.3588903387
C          7.2358190032        0.1431571646        1.4653680976
C          8.1320167270       -0.1474719098        0.4486185970
C          7.7062542339       -0.8448155281       -0.6672509198
C         -7.3079276654       -2.7148395689       -0.0387454162
C         -7.9138940037       -1.7857398867       -0.8647716352
C         -7.1378040879       -0.9675102090       -1.6707816289
C         -5.7585316461       -1.0574959646       -1.6355535899
C         -2.2682855652       -3.7153564005       -1.7706784640
C         -1.7971994976       -5.0129440782       -1.8547956062
C         -2.3211069849       -6.0023644165       -1.0377824235
C         -3.3425754693       -5.6985839708       -0.1562731834
H         -1.8638011465        3.7851078390       -0.9164724873
H         -2.1455006004        6.1766416912       -0.4560600220
H          0.7302223153        5.9070893670        2.7010941160
H          0.9951578469        3.5204464383        2.2604047935
H         -0.3543596367        9.5751363670        2.5165830322
H          1.5184148494       -1.8512216905       -0.2966790303
H          4.2948738716        1.3314399594        0.4470368109
H          2.4849747818        2.9321387807        0.6142466644
H         -3.1141117370        2.3260594683        0.3388167499
H         -4.5104843003        0.4072762261       -0.1451904112
H         -1.0635071846       -2.1264795309       -0.4455551566
H          5.0794471702       -4.8764459814       -2.5505030396
H          3.4923552193       -6.3336382792       -1.3311765953
H          2.2672282812       -5.4415612660        0.6226991685
H          2.5835326957       -3.1005147863        1.3136329860
H          5.2137590286       -0.0276900238        2.1555028478
H          7.5706706351        0.6634892302        2.3491295440
H          9.1643445413        0.1539625194        0.5297669387
H          8.3921714975       -1.0985232114       -1.4605260781
H         -7.8944702946       -3.3742443297        0.5819616647
H         -8.9895954913       -1.7120783368       -0.8892307846
H         -7.6081576452       -0.2595665198       -2.3352932455
H         -5.1513509495       -0.4331919493       -2.2730764847
H         -1.8784327528       -2.9489846266       -2.4228453066
H         -1.0218938535       -5.2517750988       -2.5660433873
H         -1.9498657788       -7.0130511668       -1.0992980726
H         -3.7835732625       -6.4590504839        0.4692115551
