82
-137.23917434
C         -0.0296825219        4.5789297038       -0.5973322070
C          1.1691423289        5.2797863707       -0.7330368281
C          1.1676939856        6.6490030345       -0.8879830093
C         -0.0405603755        7.3395556816       -0.9097051289
C         -1.2428444483        6.6487181177       -0.7756495225
C         -1.2362517519        5.2805928149       -0.6209448132
S         -0.1053164331        9.0886900322       -1.1054165153
C         -0.0218220560        3.1291552248       -0.4362035888
N         -1.1930841028        2.5063590168       -0.3099618785
C         -1.1405656091        1.1813464365       -0.1857645195
N         -0.0094853540        0.4777562342       -0.1870976893
C          1.1162391379        1.1815884611       -0.2948444399
N          1.1565426999        2.5068442293       -0.4213021073
C          2.3822799338        0.4552233243       -0.2618098804
C          2.3939367145       -0.9398073355       -0.2797242455
C          3.5873167229       -1.6274831692       -0.2341145680
C          4.7942831767       -0.9322396931       -0.1609438362
C          4.7859221965        0.4624709675       -0.1459517005
C          3.5915877829        1.1481075644       -0.1996335925
C         -2.3972404070        0.4551931125       -0.0277163521
C         -2.4080683172       -0.9400019009       -0.0231260621
C         -3.5910021095       -1.6271410753        0.1424508938
C         -4.7875391215       -0.9312257368        0.3145262025
C         -4.7803530433        0.4635061662        0.3071086975
C         -3.5969843617        1.1485586486        0.1342000515
N         -5.9932419735       -1.6341447435        0.5008899419
C         -6.1498300198       -2.4988685800        1.5890822109
C         -7.3550439906       -3.1951551260        1.7479137176
O         -8.4142280778       -3.0463002525        0.8822498959
C         -8.2510573237       -2.1768884683       -0.1717971418
C         -7.0587650784       -1.4744401949       -0.3904632227
N          6.0130705924       -1.6344542220       -0.0975641780
C          6.9906716786       -1.4563768018       -1.0814379976
C          8.2035188780       -2.1503784043       -0.9815873347
O          8.4703630001       -3.0283355804        0.0437934022
C          7.4920412043       -3.2041065279        0.9953788501
C          6.2715298627       -2.5173735429        0.9560419139
C          7.7752030308       -4.0860205773        2.0219722185
C          6.8580253526       -4.2903826943        3.0420014560
C          5.6692965576       -3.5886984433        3.0353801030
C          5.3807679319       -2.7054951827        2.0064804237
C         -5.1686004915       -2.6587767730        2.5606181109
C         -5.3568066465       -3.5244080899        3.6269843248
C         -6.5330439403       -4.2362403723        3.7506427815
C         -7.5381166454       -4.0595782932        2.8114630168
C          6.7866271259       -0.6512796547       -2.1960452433
C          7.7769475547       -0.4976212698       -3.1539396084
C          8.9838386020       -1.1549652160       -3.0236828990
C          9.1898698138       -1.9924824631       -1.9375774203
C         -9.3229562592       -2.0371323836       -1.0338820579
C         -9.2256802864       -1.2100237611       -2.1429122948
C         -8.0418501274       -0.5447342089       -2.3909909827
C         -6.9658481848       -0.6801045210       -1.5273592931
H          2.0970656599        4.7310774801       -0.7160645102
H          2.1010817923        7.1812776371       -0.9923581765
H         -2.1737446432        7.1947792704       -0.7948021155
H         -2.1597271820        4.7340315591       -0.5177506007
H          1.2087301055        9.2776738343       -1.1888793304
H          1.4555346780       -1.4671328420       -0.3388597690
H          3.5970993136       -2.7065520855       -0.2612941874
H          5.7206711109        0.9982754827       -0.0797443254
H          3.5728996313        2.2258370039       -0.1779584658
H         -1.4779780579       -1.4678303471       -0.1590263164
H         -3.6013996678       -2.7065210489        0.1344370836
H         -5.7058078923        1.0002921705        0.4507198490
H         -3.5783986159        2.2265586879        0.1376421526
H          8.7240622225       -4.5980064769        2.0063462327
H          7.0853909900       -4.9831123380        3.8360610880
H          4.9547877671       -3.7180602173        3.8330085053
H          4.4566264195       -2.1507355239        2.0269524299
H         -4.2519772327       -2.0957653920        2.4892844895
H         -4.5740381202       -3.6319770465        4.3612539325
H         -6.6828152581       -4.9155096989        4.5742020043
H         -8.4792014585       -4.5802719452        2.8884456794
H          5.8423329025       -0.1465056637       -2.3219875694
H          7.5915138887        0.1389356927       -4.0047396847
H          9.7600610986       -1.0346982858       -3.7620019466
H         10.1104600545       -2.5403933397       -1.8149828417
H        -10.2233020152       -2.5910519379       -0.8211195006
H        -10.0679001675       -1.1038454477       -2.8073587129
H         -7.9414925640        0.0840523136       -3.2616412646
H         -6.0417895829       -0.1693946542       -1.7456135696
