82
-137.23458803
C          0.0008131018        4.6024160696        0.0958978833
C         -1.2039096625        5.3050947159        0.0791333189
C         -1.2143503670        6.6823584137        0.1289239982
C         -0.0115989048        7.3788184905        0.1962714951
C          1.1967059995        6.6866121149        0.2134072536
C          1.2013517350        5.3102813863        0.1638822831
S          0.0379120376        9.1389066159        0.2621572115
C          0.0039605228        3.1425064118        0.0446206335
N         -1.1677901901        2.5184065454       -0.0247616046
C         -1.1236839835        1.1832936604       -0.0603134786
N          0.0129232912        0.4808864606       -0.0219640719
C          1.1364499614        1.1881558587        0.0351236981
N          1.1833635471        2.5198985224        0.0675718733
C          2.4044954067        0.4592016711        0.0594557770
C          3.6151303362        1.1512617067        0.0516573171
C          4.8106994928        0.4647063023        0.0665928805
C          4.8159593209       -0.9287857121        0.0930095295
C          3.6080736742       -1.6240682553        0.1039668292
C          2.4139565297       -0.9351220031        0.0857322177
C         -2.3751845810        0.4579860155       -0.1513002710
C         -3.5958237205        1.1351380699       -0.2050570033
C         -4.7811274358        0.4516512402       -0.3228201061
C         -4.8039725098       -0.9502378428       -0.4050175508
C         -3.5801133842       -1.6277069607       -0.2809705092
C         -2.3976310912       -0.9386925312       -0.1653640124
N         -5.9902718914       -1.6371464193       -0.5607644026
C         -7.2551720524       -1.0084762859       -0.4642612889
C         -8.1653857484       -1.5202786079        0.4642524775
O         -7.8689241661       -2.6564754213        1.1835411863
C         -7.0179333902       -3.5202374667        0.5308731119
C         -6.0907697740       -3.0400854107       -0.3981094184
N          6.0390174004       -1.6313197529        0.1062003645
C          6.3822713380       -2.4423244140        1.1906911368
C          7.6030419728       -3.1297530295        1.1770172870
O          8.4970359078       -3.0274483711        0.1350846240
C          8.1406461689       -2.2272957789       -0.9269518563
C          6.9258919295       -1.5305958290       -0.9685917345
C          9.0359271344       -2.1498612109       -1.9773610600
C          8.7353468741       -1.3895558349       -3.0981689973
C          7.5271161514       -0.7254152485       -3.1640531617
C          6.6271425562       -0.7991130136       -2.1119047323
C         -7.6433110565        0.0443366146       -1.2824162282
C         -8.8797628556        0.6411237579       -1.1035502692
C         -9.7434542435        0.1807635866       -0.1240503808
C         -9.3996898863       -0.9167522293        0.6460865829
C          5.5760385825       -2.5581593846        2.3167295207
C          5.9498363283       -3.3677218493        3.3784955561
C          7.1395347774       -4.0665034050        3.3397121470
C          7.9710204755       -3.9374647765        2.2367273754
C         -7.1262410708       -4.8793519729        0.7793487267
C         -6.3327201914       -5.7679958596        0.0747523817
C         -5.4738274859       -5.3049555152       -0.9075850527
C         -5.3587059497       -3.9470931596       -1.1529423770
H         -2.1273317397        4.7508621804        0.0269925284
H         -2.1528440383        7.2158145375        0.1158401813
H          2.1236743797        7.2373204416        0.2658917878
H          2.1297653292        4.7623842646        0.1773152435
H         -1.2783927427        9.3261045008        0.2226722045
H          3.5977178253        2.2292111823        0.0383119732
H          5.7486233465        0.9992540543        0.0642929165
H          3.6168245106       -2.7034723993        0.1178971267
H          1.4726169131       -1.4607139845        0.0843641896
H         -3.5937841899        2.2121107231       -0.1486994611
H         -5.7033854758        1.0085377293       -0.3238862341
H         -3.5583577318       -2.7042582990       -0.2481273154
H         -1.4647848640       -1.4728699411       -0.0788036584
H          9.9615709422       -2.6974993459       -1.8999281191
H          9.4407505349       -1.3328076082       -3.9113818947
H          7.2696472827       -0.1460279646       -4.0367542900
H          5.6797585419       -0.2891218122       -2.1835977606
H         -6.9748181153        0.3894048582       -2.0552832794
H         -9.1657069750        1.4692146453       -1.7323664197
H        -10.6988808877        0.6575520642        0.0255447471
H        -10.0700816534       -1.3195550120        1.3880603482
H          4.6523029461       -2.0042672165        2.3678912641
H          5.3012619550       -3.4415333552        4.2372543720
H          7.4335840857       -4.7006397846        4.1603944814
H          8.9167881342       -4.4523807139        2.1809849060
H         -7.8327188850       -5.2166193709        1.5205367098
H         -6.4082111215       -6.8244458287        0.2766443088
H         -4.8880995060       -6.0007281191       -1.4870160545
H         -4.7045881176       -3.5848811644       -1.9301869322
