82
-137.23825199
C          0.0414925221        4.5681809702        1.1051314817
C         -1.1573051407        5.2589834154        1.2864301759
C         -1.1554002555        6.6156998910        1.5272896466
C          0.0530010227        7.3035968773        1.5905498370
C          1.2551514145        6.6224443856        1.4122917675
C          1.2483781078        5.2667567496        1.1720355624
S          0.1182766334        9.0369837363        1.8949006548
C          0.0331380792        3.1318552571        0.8530030108
N         -1.1458060920        2.5131362690        0.7886786309
C         -1.1036868716        1.1947303629        0.6085481004
N          0.0236296675        0.4925200132        0.5042367476
C          1.1522228650        1.1987256005        0.5123786508
N          1.2044061194        2.5174149776        0.6861619156
C          2.4034668978        0.4797916506        0.2825649133
C          3.5784026188        1.1801242308        0.0111146110
C          4.7435540169        0.4991337788       -0.2724233089
C          4.7549205976       -0.8944510224       -0.2753058843
C          3.5891936399       -1.5974348788        0.0230440907
C          2.4221001029       -0.9149168332        0.2918850379
C         -2.3646251115        0.4703271816        0.4835744642
C         -2.3819040448       -0.9232502911        0.5463362349
C         -3.5616129989       -1.6132645332        0.3725660718
C         -4.7463909810       -0.9232358301        0.1142733045
C         -4.7342803544        0.4708172937        0.0660858586
C         -3.5557071207        1.1598335342        0.2568197696
N         -5.9396373595       -1.6340801318       -0.1127217638
C         -6.0263106767       -2.5521447759       -1.1654935930
C         -7.2209426841       -3.2546422402       -1.3703223194
O         -8.3369760612       -3.0583927693       -0.5901233304
C         -8.2431085434       -2.1346425930        0.4253226109
C         -7.0642014273       -1.4263648753        0.6922471352
N          5.9394493235       -1.5902522649       -0.5969881446
C          6.5537986422       -2.4241437248        0.3392351881
C          7.7039901557       -3.1370063356       -0.0234181916
O          8.2654922854       -3.0442164718       -1.2772034077
C          7.6350007632       -2.2327669071       -2.1935146529
C          6.4784905205       -1.5055109365       -1.8831105695
C          8.1865649316       -2.1750165156       -3.4597300947
C          7.5926067537       -1.4023991125       -4.4472139582
C          6.4370557091       -0.7042630277       -4.1602161187
C          5.8808288828       -0.7588599779       -2.8913376474
C         -4.9835637120       -2.7618937727       -2.0607278630
C         -5.1022053458       -3.6826819284       -3.0901799817
C         -6.2692544032       -4.4013085173       -3.2546885034
C         -7.3348208649       -4.1743081127       -2.3967342758
C          6.0941349619       -2.5358093268        1.6458329051
C          6.7349631185       -3.3631123834        2.5554356294
C          7.8501904795       -4.0841595377        2.1789127090
C          8.3383784830       -3.9623707446        0.8858923066
C         -9.3731770278       -1.9454856503        1.1992457929
C         -9.3491064954       -1.0625532607        2.2684087207
C         -8.1801094792       -0.3921173548        2.5679274436
C         -7.0460495408       -0.5766780351        1.7922249031
H         -2.0851790663        4.7120465752        1.2368329733
H         -2.0885272417        7.1403854498        1.6665130396
H          2.1860966650        7.1662235989        1.4649395794
H          2.1717377063        4.7275399275        1.0345032157
H         -1.1956849288        9.2207743245        1.9907512129
H          3.5560341175        2.2581214317        0.0171576726
H          5.6524772833        1.0373354063       -0.4946723761
H          3.6050878374       -2.6768106475        0.0229579235
H          1.5076166497       -1.4463732979        0.5001448881
H         -1.4595924885       -1.4475248505        0.7378520051
H         -3.5777128161       -2.6908841382        0.4329459101
H         -5.6499191153        1.0036258803       -0.1408934357
H         -3.5321300927        2.2366615081        0.2057669502
H          9.0792557118       -2.7478317128       -3.6539085009
H          8.0308729680       -1.3622096149       -5.4313139837
H          5.9528213458       -0.1134660630       -4.9218545840
H          4.9684064347       -0.2222843714       -2.6857841227
H         -4.0719602422       -2.1954020516       -1.9599072627
H         -4.2719683796       -3.8281177481       -3.7632620017
H         -6.3648759159       -5.1240951117       -4.0487376938
H         -8.2707249981       -4.6977173910       -2.5098321717
H          5.2334516441       -1.9648693149        1.9558967036
H          6.3544559153       -3.4333183271        3.5623213529
H          8.3509138239       -4.7313804558        2.8807321781
H          9.2172762540       -4.4972072132        0.5630185355
H        -10.2602816422       -2.5057429159        0.9504834843
H        -10.2362907581       -0.9177672380        2.8634047658
H         -8.1371551100        0.2792634627        3.4110190033
H         -6.1352929312       -0.0614058413        2.0515183444
