82
-137.23907254
C          0.0116276387        4.5500441434        0.8658339141
C         -1.1906855590        5.2416039558        1.0176005042
C         -1.1934203793        6.5880421815        1.3106024779
C          0.0140453506        7.2647802668        1.4564660096
C          1.2197381106        6.5833294822        1.3059492192
C          1.2173640176        5.2379717720        1.0130662638
S          0.0734464739        8.9848082922        1.8305592394
C          0.0079208955        3.1251878474        0.5534501212
N         -1.1700515943        2.5148518579        0.4265385445
C         -1.1271584836        1.2207525393        0.1147202807
N          0.0004364721        0.5369510239       -0.0726634912
C          1.1320863806        1.2166048056        0.1051500392
N          1.1823840681        2.5104348355        0.4168725003
C          2.3918595164        0.4924890061       -0.0363222385
C          3.5966731142        1.0942973837        0.3275433662
C          4.7823103031        0.3991505240        0.2240583397
C          4.7867623957       -0.9108584495       -0.2549001513
C          3.5851494295       -1.5099584087       -0.6329741259
C          2.3999323415       -0.8162811158       -0.5197012913
C         -2.3907285934        0.5012106528       -0.0156986724
C         -2.4077356413       -0.8077137852       -0.4984233621
C         -3.5964306190       -1.4971051329       -0.6011551016
C         -4.7925446560       -0.8934819245       -0.2129966591
C         -4.7792054908        0.4166978145        0.2653076492
C         -3.5901838230        1.1075157385        0.3582918587
N         -6.0036416577       -1.6065084162       -0.2969454223
C         -6.1774957564       -2.7971273445        0.4165113616
C         -7.3887967081       -3.4929956692        0.3107324352
O         -8.4379266846       -3.0386135529       -0.4548991856
C         -8.2564608395       -1.8578485733       -1.1377834721
C         -7.0571558913       -1.1355027950       -1.0867223446
N          5.9944170063       -1.6283219236       -0.3497236128
C          6.1702739038       -2.8196192281        0.3621514735
C          7.3783262896       -3.5194775502        0.2461477726
O          8.4225728943       -3.0684020020       -0.5280761852
C          8.2394173004       -1.8868673416       -1.2091243535
C          7.0430182808       -1.1604972834       -1.1478895376
C          9.2949805514       -1.4475733178       -1.9866361912
C          9.1766696017       -0.2860413803       -2.7351691756
C          7.9880120475        0.4156201622       -2.7149882832
C          6.9284030429       -0.0201694337       -1.9344527297
C         -5.2082276645       -3.2982364475        1.2777760670
C         -5.4134233182       -4.4819829764        1.9695125912
C         -6.5952589238       -5.1804988806        1.8251037214
C         -7.5888735425       -4.6746650246        1.0003426873
C          5.2065141867       -3.3177586031        1.2312816720
C          5.4135077791       -4.5023864723        1.9209789733
C          6.5917730934       -5.2047857501        1.7665921891
C          7.5801914834       -4.7020111178        0.9337622219
C         -9.3169781661       -1.4151876761       -1.9066040554
C         -9.2009817750       -0.2542514779       -2.6564321179
C         -8.0098202686        0.4433685753       -2.6463764935
C         -6.9452314441        0.0042256573       -1.8745458925
H         -2.1180059114        4.7043274330        0.8999166940
H         -2.1294708687        7.1134165224        1.4255552211
H          2.1499305749        7.1188423844        1.4204072815
H          2.1434184417        4.6994042555        0.8923125843
H         -1.2426456591        9.1731891677        1.8732290561
H          3.5804669472        2.1033296234        0.7071754243
H          5.7118800831        0.8578643138        0.5252403102
H          3.5931424447       -2.5180972425       -1.0187284864
H          1.4657257324       -1.2696988336       -0.8092384886
H         -1.4777197370       -1.2646615423       -0.7957947606
H         -3.6113606242       -2.5053961297       -0.9863169107
H         -5.7045517964        0.8787048724        0.5743037100
H         -3.5668058459        2.1165029115        0.7374864971
H         10.1993878287       -2.0346594175       -1.9962289920
H         10.0063274635        0.0513134960       -3.3351244187
H          7.8710720347        1.3079602715       -3.3095648353
H          6.0001223651        0.5280324102       -1.9447725892
H         -4.2874073709       -2.7552034859        1.4171554080
H         -4.6393271940       -4.8486688995        2.6250901095
H         -6.7581568990       -6.1048246197        2.3553704032
H         -8.5340761145       -5.1798401938        0.8816349209
H          4.2887539804       -2.7716170020        1.3784631550
H          4.6436805009       -4.8666545943        2.5828915795
H          6.7560027321       -6.1297837350        2.2952630758
H          8.5227201615       -5.2102270389        0.8071006740
H        -10.2233804864       -1.9992735356       -1.9085565828
H        -10.0344729735        0.0856812667       -3.2495881007
H         -7.8948426944        1.3350462686       -3.2423112070
H         -6.0151276988        0.5490843645       -1.8929130350
