82
-137.23899749
C         -0.0097142352        4.5620751216       -0.5013421926
C         -1.2157195673        5.2600262205       -0.5747096336
C         -1.2253618568        6.6295983398       -0.7259046774
C         -0.0213581755        7.3232562654       -0.8068560317
C          1.1878916840        6.6352625376       -0.7347867678
C          1.1925477507        5.2667961188       -0.5830502590
S          0.0291587094        9.0730062011       -1.0006916417
C         -0.0063862344        3.1124362037       -0.3410451351
N         -1.1799703576        2.4816124535       -0.3218516237
C         -1.1311813446        1.1604760718       -0.1617805539
N         -0.0006222713        0.4643005895       -0.0524743135
C          1.1264143717        1.1726405319       -0.0931594190
N          1.1697823453        2.4972083476       -0.2213623356
C          2.3932561151        0.4515219008        0.0042908386
C          3.5910814838        1.1501865052        0.1548522149
C          4.7876574222        0.4706202215        0.2378146516
C          4.8073638217       -0.9210992367        0.1611403806
C          3.6122298734       -1.6225513411        0.0105311578
C          2.4156347614       -0.9416438047       -0.0621972762
C         -2.3941669855        0.4313617824       -0.0991495249
C         -2.4186407335       -0.8995943714        0.3183778169
C         -3.6128386993       -1.5831098081        0.3971327175
C         -4.8064089223       -0.9514147068        0.0475166001
C         -4.7829758995        0.3760696389       -0.3806908829
C         -3.5892594057        1.0613985897       -0.4470023934
N         -6.0276280150       -1.6467873157        0.1290829573
C         -7.0575502015       -1.1814470338        0.9535021269
C         -8.2682012059       -1.8843922188        1.0071615619
O         -8.4828905172       -3.0422527817        0.2955756427
C         -7.4542046402       -3.4957902252       -0.4977368933
C         -6.2335960772       -2.8171623956       -0.6086812998
N          6.0320111387       -1.6166816849        0.2319393590
C          6.8207740716       -1.5520820064        1.3831489715
C          8.0421311133       -2.2373576399        1.4205077419
O          8.4993725903       -2.9901290945        0.3625297151
C          7.7086912975       -3.0439672602       -0.7630993874
C          6.4851337471       -2.3678404322       -0.8555954586
C          8.1854770432       -3.7900004728       -1.8247592033
C          7.4622555116       -3.8676217255       -3.0060475608
C          6.2709256264       -3.1797485162       -3.1193187672
C          5.7883896228       -2.4316462149       -2.0563780523
C         -6.9112177042       -0.0676640490        1.7723549795
C         -7.9535868635        0.3673784374        2.5761116124
C         -9.1568497231       -0.3090906871        2.5880712989
C         -9.3066498512       -1.4458765103        1.8079864215
C          6.4143156338       -0.8704901548        2.5240210260
C          7.2171266232       -0.8339442053        3.6538305393
C          8.4336033648       -1.4861331287        3.6681625786
C          8.8404277518       -2.1968214665        2.5483407739
C         -7.6853420174       -4.6580150831       -1.2102673516
C         -6.7145373708       -5.1602324923       -2.0638441073
C         -5.5244591947       -4.4769527497       -2.2137218968
C         -5.2879986886       -3.3129677765       -1.4988081814
H         -2.1401654919        4.7091391895       -0.5082439346
H         -2.1640871451        7.1598809216       -0.7806540670
H          2.1152836244        7.1838137708       -0.7992832143
H          2.1213782455        4.7222920869       -0.5280226337
H         -1.2879102122        9.2586605062       -1.0178658803
H          3.5636260579        2.2270168984        0.2007886987
H          5.7162420493        1.0092560094        0.3514200837
H          3.6326743834       -2.7005632002       -0.0417240247
H          1.4836637026       -1.4725281538       -0.1721181309
H         -1.4913481492       -1.3753932263        0.5947665754
H         -3.6341663074       -2.6062773227        0.7404800994
H         -5.7057426184        0.8580356517       -0.6659677951
H         -3.5593386922        2.0862111867       -0.7806459926
H          9.1293025954       -4.2981784503       -1.7077708747
H          7.8409456640       -4.4535422081       -3.8278934367
H          5.7062806811       -3.2139838009       -4.0377691511
H          4.8652800697       -1.8851090860       -2.1648929612
H         -5.9715424507        0.4604472258        1.7900784184
H         -7.8115895541        1.2391782367        3.1951865557
H         -9.9734045315        0.0282352661        3.2057595077
H        -10.2229540268       -2.0142903169        1.8102604634
H          5.4586802053       -0.3711022436        2.5322191072
H          6.8776534565       -0.2933344238        4.5233382702
H          9.0638095697       -1.4583565181        4.5423556276
H          9.7752535426       -2.7339875524        2.5310921748
H         -8.6364511020       -5.1507023166       -1.0862807599
H         -6.9015430204       -6.0695306667       -2.6118420987
H         -4.7683171052       -4.8404804661       -2.8916089359
H         -4.3615528061       -2.7807525753       -1.6424605995
