82
-137.23894044
C         -0.0003862051        4.5906542594        0.0066996504
C         -1.2026302770        5.2963329992        0.0668874973
C         -1.2076846066        6.6742437594        0.0700451293
C         -0.0027755651        7.3687850816        0.0133490995
C          1.2027961160        6.6731443607       -0.0464937424
C          1.2028341914        5.2963404569       -0.0500836557
S          0.0536065811        9.1289797173        0.0144239768
C         -0.0011747014        3.1322992343        0.0029536217
N         -1.1723966241        2.5054534695        0.1104633045
C         -1.1277773856        1.1749689869        0.0875481370
N         -0.0022623509        0.4688179028       -0.0050685053
C          1.1238697860        1.1745879151       -0.0927184668
N          1.1693965595        2.5051026829       -0.1076737145
C          2.3863522393        0.4443026380       -0.1742487870
C          2.4151091305       -0.9351127729        0.0315245027
C          3.6085567480       -1.6227413611       -0.0274937367
C          4.7939427911       -0.9429375567       -0.3031009572
C          4.7674837506        0.4341269960       -0.5183535970
C          3.5744797078        1.1213770299       -0.4493788391
C         -2.3904459859        0.4446523403        0.1665929271
C         -2.4199591695       -0.9331912987       -0.0494061378
C         -3.6130973218       -1.6214051843        0.0091480074
C         -4.7973772157       -0.9438753210        0.2948377548
C         -4.7702755240        0.4316376759        0.5196340312
C         -3.5776246397        1.1195908732        0.4508634400
N         -6.0184018624       -1.6466738589        0.3536509246
C         -6.5262737888       -2.2835931157       -0.7815748083
C         -7.7430631062       -2.9729433417       -0.6977003313
O         -8.4749454229       -3.0411054004        0.4662200596
C         -7.9635962736       -2.4011616746        1.5725794614
C         -6.7460495934       -1.7087075363        1.5446925985
N          6.0153840671       -1.6450123145       -0.3605303501
C          6.7513532356       -1.6953429250       -1.5469965153
C          7.9711814684       -2.3838706267       -1.5720655377
O          8.4770714539       -3.0307948294       -0.4672864438
C          7.7380581096       -2.9724415378        0.6926420738
C          6.5186979994       -2.2873315383        0.7737527154
C          8.2637158847       -3.6124067233        1.7995279942
C          7.5948973162       -3.5722075847        3.0142370090
C          6.4088412048       -2.8731311744        3.1135134377
C          5.8773752724       -2.2312779565        2.0054210881
C         -5.8923851291       -2.2176170671       -2.0165956059
C         -6.4284903995       -2.8538772067       -3.1256851202
C         -7.6118604021       -3.5571483542       -3.0239568082
C         -8.2733378046       -3.6073142468       -1.8055923986
C          6.2924006442       -1.1281175573       -2.7298067913
C          7.0434683934       -1.2041987638       -3.8927267384
C          8.2595947289       -1.8571991170       -3.8977975291
C          8.7178742085       -2.4557433978       -2.7332219932
C         -8.7022888464       -2.4842499309        2.7380939942
C         -8.2381045757       -1.8931731901        3.9041538212
C         -7.0240847965       -1.2363074769        3.8959788769
C         -6.2810180636       -1.1490088691        2.7287101739
H         -2.1280390804        4.7446621062        0.1083051475
H         -2.1435729053        7.2103588027        0.1158743685
H          2.1309596983        7.2224870817       -0.0894261144
H          2.1288740266        4.7461458155       -0.0941371505
H         -1.2612500926        9.3197466706        0.0791009960
H          1.4905929921       -1.4502043345        0.2373738411
H          3.6337210528       -2.6900921524        0.1318144953
H          5.6886214483        0.9564750582       -0.7279763544
H          3.5425075337        2.1881417701       -0.6022878869
H         -1.4961819136       -1.4466655725       -0.2624751523
H         -3.6386969353       -2.6875644189       -0.1579445961
H         -5.6907213389        0.9520252761        0.7369483651
H         -3.5449700078        2.1851235701        0.6116285040
H          9.2021503953       -4.1321399523        1.6902125306
H          8.0113938862       -4.0760314201        3.8714598186
H          5.8864969381       -2.8157370841        4.0555362124
H          4.9593501029       -1.6740286281        2.1018134187
H         -4.9764973509       -1.6571470484       -2.1146945493
H         -5.9119078004       -2.7888745654       -4.0703932127
H         -8.0319064938       -4.0567083381       -3.8819505475
H         -9.2094788615       -4.1307252051       -1.6941250958
H          5.3361619403       -0.6300530407       -2.7440810506
H          6.6639758608       -0.7507075589       -4.7948703411
H          8.8498060202       -1.9165133655       -4.7979497591
H          9.6536761599       -2.9907614226       -2.7054853968
H         -9.6365406981       -3.0220890140        2.7125162640
H         -8.8220881106       -1.9613033305        4.8077417185
H         -6.6399508355       -0.7886357759        4.7990644760
H         -5.3261807510       -0.6482234709        2.7405038078
