82
-137.23860446
C          0.0293318579        4.6499173792        0.4939524126
C          1.2336667153        5.3537851105        0.4608664408
C          1.2441592167        6.7297312722        0.5346009313
C          0.0427225603        7.4239851939        0.6434084833
C         -1.1647744414        6.7301002581        0.6787021115
C         -1.1702922958        5.3552265761        0.6047267033
S         -0.0066120781        9.1818020843        0.7411996769
C          0.0248292827        3.1933154425        0.4180429752
N         -1.1515429384        2.5675089924        0.4507747703
C         -1.1057486542        1.2369861519        0.4234558452
N          0.0227087444        0.5312703107        0.3738114412
C          1.1487127541        1.2373968999        0.2878315890
N          1.1969929261        2.5679608858        0.3092656966
C          2.3996298205        0.5010743716        0.1324858512
C          3.5661372639        1.1628308578       -0.2508123198
C          4.7323534219        0.4572175998       -0.4561176615
C          4.7574081996       -0.9246890346       -0.2678776055
C          3.5984307604       -1.5847227052        0.1412415363
C          2.4302171809       -0.8794429403        0.3314028963
C         -2.3660385651        0.5002605419        0.4188449589
C         -2.3719890503       -0.8806150504        0.6175821220
C         -3.5543453346       -1.5862117306        0.5682580398
C         -4.7543855718       -0.9260830524        0.3029563400
C         -4.7526623056        0.4561806115        0.1156606876
C         -3.5704417109        1.1620907240        0.1801703225
N         -5.9546125285       -1.6556731972        0.2113323861
C         -6.0944322494       -2.6721528611       -0.7402115419
C         -7.2958999525       -3.3891783690       -0.8107023835
O         -8.3688015301       -3.1161132923        0.0062066086
C         -8.2226332375       -2.0996458029        0.9219814453
C         -7.0338187157       -1.3701630304        1.0536094520
N          5.9383138543       -1.6539781289       -0.5020917564
C          7.1108394371       -1.3667944560        0.2038493617
C          8.2752622225       -2.0968779883       -0.0678921161
O          8.3103539542       -3.1157775193       -0.9919577215
C          7.1471193341       -3.3904872590       -1.6734405669
C          5.9628291327       -2.6729002781       -1.4609242375
C          7.2007464639       -4.4077624616       -2.6085571132
C          6.0828062631       -4.7210041963       -3.3669997804
C          4.9230253090       -3.9919075153       -3.1972901316
C          4.8648120598       -2.9731316869       -2.2589548650
C         -5.1002590229       -2.9705366636       -1.6649862358
C         -5.2710554632       -3.9870530375       -2.5919702201
C         -6.4430732801       -4.7156705596       -2.6229618091
C         -7.4617581667       -4.4041965284       -1.7350422362
C          7.1573797155       -0.4124748378        1.2134709630
C          8.3375582043       -0.1514117884        1.8923780150
C          9.4895676274       -0.8474537039        1.5856157461
C          9.4512564752       -1.8315118846        0.6091441200
C         -9.3086230186       -1.8361184696        1.7361845935
C         -9.2290261613       -0.8545543931        2.7126681470
C         -8.0483675154       -0.1591263110        2.8804077223
C         -6.9584335346       -0.4183761211        2.0638738548
H          2.1562920085        4.8019635293        0.3785191293
H          2.1816181053        7.2644436067        0.5084188717
H         -2.0901018326        7.2791967203        0.7647114537
H         -2.0975959609        4.8060431713        0.6331294043
H          1.3082389788        9.3714582310        0.6733530447
H          3.5320001151        2.2291065456       -0.4074217969
H          5.6275557910        0.9657644399       -0.7803958120
H          3.6255381235       -2.6509980195        0.3071235217
H          1.5275636072       -1.3808779147        0.6412184059
H         -1.4384098992       -1.3820841106        0.8154840236
H         -3.5609679231       -2.6527827513        0.7342772202
H         -5.6805316866        0.9650005428       -0.0973122104
H         -3.5559731464        2.2287529378        0.0227126962
H          8.1314742790       -4.9382744404       -2.7309652146
H          6.1320420035       -5.5190956705       -4.0899869923
H          4.0514104966       -4.2055265381       -3.7957149322
H          3.9571478891       -2.4010717350       -2.1539874786
H         -4.1864110096       -2.3987071882       -1.6683825097
H         -4.4776680041       -4.1992352095       -3.2912289175
H         -6.5790573850       -5.5119892991       -3.3367270893
H         -8.4006557067       -4.9343091751       -1.7460822757
H          6.2615790019        0.1255120578        1.4787377272
H          8.3440379064        0.6000130829        2.6661608730
H         10.4120152511       -0.6440996436        2.1050600191
H         10.3245895417       -2.4128279727        0.3599611379
H        -10.2057489473       -2.4167868545        1.5922808929
H        -10.0822533267       -0.6525335367        3.3397803436
H         -7.9615903541        0.5904741559        3.6511279708
H         -6.0372228019        0.1192740806        2.2207187748
