64
-104.07267852
C          4.1926095228        0.0023511046        0.0006900354
C          4.8931906922        1.1624940712        0.3228510854
C          6.2726004007        1.1621443273        0.3259360746
C          6.9770670094        0.0023487000        0.0012710537
C          6.2727474996       -1.1574542041       -0.3236174995
C          4.8933586933       -1.1577995016       -0.3211027060
C          8.3922919375        0.0023295026        0.0011759542
C          9.5931141873        0.0015576982        0.0015469771
N          2.7896559684        0.0022348063        0.0003303763
C          1.9990529210        0.7316157884        0.8403027730
C          0.6881102223        0.4702883127        0.5376685707
C          0.6885330354       -0.4679401615       -0.5370531534
C          1.9997669482       -0.7278979374       -0.8396864885
N         -0.5001316674        0.9805484365        1.1027353773
C         -0.8895703952        2.2824617456        0.7828969111
C         -2.2177906906        2.7116047710        0.8191409728
S         -3.5773801299        1.6380934241        1.1978248090
C         -2.7383530900        0.1793484851        1.7500629395
C         -1.3551793570        0.0248783615        1.6539977343
N         -0.4993385281       -0.9794335697       -1.1015130086
C         -1.3561517133       -0.0249501586       -1.6520411857
C         -2.7394165062       -0.1805717458       -1.7447562720
S         -3.5755665146       -1.6394264349       -1.1884333252
C         -2.2136725338       -2.7138105634       -0.8204508939
C         -0.8858958623       -2.2831236202       -0.7857139290
C         -3.5314680127       -0.8273675119        2.2764264971
C         -2.9714882391       -2.0117457405        2.7199292174
C         -1.5991105121       -2.1680069641        2.6638568109
C         -0.8061913489       -1.1599305664        2.1496831588
C          0.0723119169        3.2206433101        0.4068294832
C         -0.2661910027        4.5211209196        0.0828453503
C         -1.5846226777        4.9320884933        0.1358892870
C         -2.5542299913        4.0185960248        0.5066558757
C         -2.5475359203       -4.0228595415       -0.5139231125
C         -1.5757005045       -4.9367672521       -0.1500262071
C         -0.2577878613       -4.5240314313       -0.0974652440
C          0.0781750959       -3.2215382891       -0.4159667106
C         -0.8089877539        1.1595750121       -2.1503345068
C         -1.6037950564        2.1664561049       -2.6639407229
C         -2.9762034613        2.0091831001       -2.7166116745
C         -3.5344462334        0.8249672532       -2.2704605422
H          4.3569956415        2.0691184191        0.5552518985
H          6.8150404496        2.0618403404        0.5730902162
H          6.8152482445       -2.0571555778       -0.5705367139
H          4.3573034000       -2.0644699953       -0.5536557385
H         10.6421569619        0.0015548395        0.0020362629
H          2.4127845916        1.3432073650        1.6161104311
H          2.4142443911       -1.3387297153       -1.6156945281
H         -4.5995834009       -0.6729621146        2.3129379929
H         -3.6029851119       -2.7956443632        3.1064021933
H         -1.1375939521       -3.0775677874        3.0152941710
H          0.2642323398       -1.2899829537        2.1193584513
H          1.1039708076        2.9166821072        0.3511638764
H          0.5090739361        5.2118933495       -0.2105443241
H         -1.8619496948        5.9441600519       -0.1119148683
H         -3.5955427232        4.3016815740        0.5439111439
H         -3.5885281968       -4.3072543007       -0.5500599217
H         -1.8509165620       -5.9505446020        0.0931175133
H          0.5190558016       -5.2150704106        0.1910840239
H          1.1094548734       -2.9162333703       -0.3608593199
H          0.2614324452        1.2902685133       -2.1224149235
H         -1.1437720070        3.0759056930       -3.0175951302
H         -3.6090974659        2.7922269254       -3.1025326954
H         -4.6025462519        0.6698539258       -2.3042837053
