77
-127.67701419
C         -0.4270998790        3.4978042850       -0.2662730390
C          0.2618817057        4.1788863576       -1.2729569558
C          0.1058901078        5.5370636960       -1.4306392312
C         -0.7565881710        6.2592469773       -0.5965919459
C         -1.4603062191        5.5656293723        0.3961426271
C         -1.2917024336        4.2121122426        0.5678957846
C         -0.9796686591        7.6805085408       -0.7530326152
S         -2.4159203483        8.3998707150       -0.3842631262
S          0.3036139675        8.7012662961       -1.3691069350
N         -0.2591604447        2.1276360874       -0.1044046802
C          0.9531698720        1.4496613765       -0.1150697328
C          0.7217732995        0.0709983853        0.0643729580
C         -0.7022085082       -0.0935726675        0.1700139718
C         -1.2682242778        1.2002510049        0.0750319247
C          1.7715999266       -0.8289639609        0.1393805994
C          3.0802356401       -0.3538579230        0.0652190529
C          3.2912213719        1.0217584217       -0.1370133921
C          2.2513626300        1.9245076972       -0.2167921375
C         -2.6448499669        1.3770659805        0.0950295516
C         -3.4406679386        0.2603644108        0.2609882615
C         -2.8866055398       -1.0157626909        0.3818496303
C         -1.5147883277       -1.2063251890        0.3201987270
N          4.1586327850       -1.2277259190        0.1283778498
C          4.0011257204       -2.6246944598        0.2281242238
C          4.6259348430       -3.4565529934       -0.6992585673
S          5.6271205559       -2.7279853481       -1.9737666501
C          6.3055885885       -1.4216395537       -0.9773878614
C          5.4964958794       -0.8113721103       -0.0206123343
N         -3.7715334894       -2.1244213196        0.5420525839
C         -3.8704386852       -2.7192280763        1.7956085921
C         -4.8228904979       -3.6990306458        2.0923943896
S         -6.0850574674       -4.1796279884        0.9404271600
C         -5.4057749829       -3.5670610529       -0.5793956489
C         -4.3745316968       -2.6248026415       -0.6077140105
C          7.6257843590       -1.0359366228       -1.1438959395
C          8.1543162818       -0.0389699008       -0.3441799576
C          7.3739754180        0.5409123712        0.6437979619
C          6.0591048722        0.1487938894        0.8158858312
C          3.2923348854       -3.2060853901        1.2757157212
C          3.1479165946       -4.5797492338        1.3440248936
C          3.7333517623       -5.3939520427        0.3871541154
C          4.4907157873       -4.8334166408       -0.6252658627
C         -5.9731717188       -4.0444077551       -1.7486526768
C         -5.5434323439       -3.5849654419       -2.9813030270
C         -4.5244369166       -2.6520795235       -3.0294172782
C         -3.9440384381       -2.1881554458       -1.8630975925
C         -3.0084435233       -2.3391993084        2.8272028826
C         -3.0689198729       -2.9283388828        4.0770888152
C         -3.9896009782       -3.9254872912        4.3384555775
C         -4.8685328812       -4.3018019434        3.3379430408
H          0.8928515661        3.6276192608       -1.9518712307
H          0.6087378471        6.0312588675       -2.2482642331
H         -2.1205340313        6.1196933626        1.0457890167
H         -1.8074333154        3.7028536204        1.3663341002
H          1.2946671430        7.8092461149       -1.3045963871
H          1.5612898915       -1.8806249429        0.2398926505
H          4.2967188671        1.3913638931       -0.2534891640
H          2.4636070148        2.9736793676       -0.3445805269
H         -3.0926459624        2.3500490810       -0.0276038804
H         -4.5147546305        0.3629586781        0.2871933648
H         -1.0957770947       -2.1989826843        0.3827944741
H          8.2234625393       -1.5168415102       -1.9025566995
H          9.1782217017        0.2707551557       -0.4814859293
H          7.7925561172        1.2975537704        1.2889207404
H          5.4550914436        0.5841389210        1.5971384118
H          2.8559016934       -2.5717258428        2.0319136428
H          2.5814146404       -5.0160028840        2.1520629529
H          3.6162921885       -6.4649437698        0.4379947952
H          4.9749965521       -5.4512555160       -1.3654806601
H         -6.7683880248       -4.7710582364       -1.6757813053
H         -6.0019495048       -3.9532739975       -3.8850382468
H         -4.1697489637       -2.2803846007       -3.9783411254
H         -3.1433975965       -1.4683700201       -1.9233210369
H         -2.2849369312       -1.5601410549        2.6500778529
H         -2.3866556529       -2.6012443976        4.8464841584
H         -4.0385560094       -4.3971896054        5.3067971574
H         -5.6182104161       -5.0580742075        3.5160641355
