77
-127.68214969
C         -0.4429470011        3.4948716083        0.2854913642
C         -1.2126602486        4.1867519729       -0.6553331346
C         -1.3658193740        5.5483951309       -0.5597780945
C         -0.7592302559        6.2728574837        0.4769450831
C          0.0125237362        5.5709840994        1.4137337909
C          0.1698358577        4.2090949268        1.3201311670
C         -0.9362107985        7.7003178489        0.5611851382
S         -1.9157392198        8.5678036865       -0.4445132183
S         -0.0362146134        8.5279749806        1.8226906268
N         -0.2840769703        2.1189863906        0.1957320793
C          0.9083831317        1.4275998625        0.3704068565
C          0.6778502990        0.0457648904        0.2164348448
C         -0.7254914236       -0.1057729404       -0.0564560133
C         -1.2805275703        1.1963023079       -0.0658152794
C          1.7125617023       -0.8689191908        0.3145290028
C          3.0015590980       -0.4092400412        0.5830279501
C          3.2247468724        0.9778900416        0.6527118124
C          2.2011028184        1.8959406348        0.5478610239
C         -2.6448639645        1.3858112396       -0.2364115526
C         -3.4347643049        0.2717450237       -0.4455646959
C         -2.8879080502       -1.0124273605       -0.4657715508
C         -1.5322836896       -1.2146051412       -0.2569229703
N          4.0656979609       -1.2950384160        0.6878330935
C          5.3966354885       -0.8752099479        0.8818191486
C          6.3918443655       -1.3104858530        0.0087559364
S          5.9534982959       -2.4001852859       -1.3249840652
C          4.7362894880       -3.3368595746       -0.4314504333
C          3.9229046885       -2.6835830583        0.4928063133
N         -3.7645120138       -2.1197519807       -0.6783187009
C         -4.4212873669       -2.6341946390        0.4347635448
C         -5.4276687272       -3.5995444061        0.3462837112
S         -6.0139041911       -4.2178041969       -1.2101530822
C         -4.7133621983       -3.6917112222       -2.2972605826
C         -3.7919651267       -2.7025305624       -1.9406293699
C          4.6186002146       -4.7008503032       -0.6442733898
C          3.6889950753       -5.4290486088        0.0756232208
C          2.9090066901       -4.7992038460        1.0327430522
C          3.0339121465       -3.4394224409        1.2518116997
C          5.7602209199       -0.0884346046        1.9712183330
C          7.0736495318        0.3108272068        2.1369559797
C          8.0468737639       -0.0910304676        1.2354147991
C          7.7095505492       -0.9179933393        0.1794506888
C         -4.6903725189       -4.2737687297       -3.5531845575
C         -3.7691045972       -3.8692182609       -4.5034600725
C         -2.8725488005       -2.8681306558       -4.1805102141
C         -2.8815713069       -2.2985713759       -2.9201479193
C         -4.0771239804       -2.1868352132        1.7127587636
C         -4.7097434889       -2.6696313863        2.8438551741
C         -5.6976223879       -3.6305627633        2.7371006430
C         -6.0469029616       -4.0952073740        1.4811027788
H         -1.6592825720        3.6517566134       -1.4783431302
H         -1.9467894397        6.0815293991       -1.2967997573
H          0.4759156367        6.1044901985        2.2299750826
H          0.7421281481        3.6800655050        2.0653753639
H         -0.4945139652        9.7452594798        1.5446073065
H          1.5137050085       -1.9147396147        0.1496887663
H          4.2320436619        1.3464105062        0.7583580650
H          2.4217640235        2.9509481925        0.5799158235
H         -3.0899392397        2.3666490551       -0.1933405771
H         -4.4988031120        0.3839570593       -0.5865048922
H         -1.1224330328       -2.2129009770       -0.2470956294
H          5.2524573808       -5.1764243330       -1.3765022591
H          3.5874839271       -6.4885531032       -0.0987487691
H          2.2040870875       -5.3699903024        1.6170159437
H          2.4428536525       -2.9508786334        2.0111476663
H          5.0028873813        0.2085889706        2.6803303686
H          7.3389871512        0.9330357448        2.9773445474
H          9.0703389037        0.2245997494        1.3620393513
H          8.4557907426       -1.2595468247       -0.5209218232
H         -5.4189465439       -5.0377178598       -3.7796897106
H         -3.7650963699       -4.3245536377       -5.4808360487
H         -2.1548304529       -2.5229835666       -4.9087041888
H         -2.1738361898       -1.5178695103       -2.6925878508
H         -3.3038883971       -1.4429107342        1.8187591679
H         -4.4207534696       -2.2898735417        3.8116556837
H         -6.1952765955       -4.0150193892        3.6129624583
H         -6.8187129953       -4.8407267023        1.3621294332
