77
-127.67755775
C         -0.3591718945        3.5101582786       -0.2678401625
C          0.4528038198        4.2353635656       -1.1445994842
C          0.3002131630        5.5960754085       -1.2663319437
C         -0.6811255625        6.2798697967       -0.5372754029
C         -1.4894858845        5.5475588648        0.3412913026
C         -1.3267279106        4.1881888569        0.4784317266
C         -0.7940102194        7.7145893666       -0.6851844078
S          0.4928446569        8.6734909688       -1.0618474277
S         -2.3435682071        8.4967865779       -0.4480894408
N         -0.2076179676        2.1359058116       -0.1339005057
C          0.9886757466        1.4528209926       -0.0203082420
C          0.7254262475        0.0676103793        0.1070077888
C         -0.7032027506       -0.0859875971        0.0673026201
C         -1.2406401104        1.2087259389       -0.0784786800
C          1.7671785501       -0.8330584025        0.2633903339
C          3.0618723782       -0.3395511414        0.3039088988
C          3.3138041628        1.0303004945        0.2134426233
C          2.2859724534        1.9403146728        0.0577700661
C         -2.6071600315        1.3740326275       -0.2430017853
C         -3.4180195972        0.2609136761       -0.1696431268
C         -2.9062391293       -1.0284194648        0.0634058484
C         -1.5240356259       -1.1993555090        0.1316772773
N          4.1709782084       -1.2275289194        0.4582371122
C          4.5373509980       -1.5837964263        1.7510033139
C          5.6772421824       -2.3401503894        2.0377937652
S          6.8229243902       -2.8522896513        0.7826340297
C          5.8779117124       -2.5580629659       -0.6903702358
C          4.7164230612       -1.7805717638       -0.6945281510
N         -3.7623151865       -2.1200773925        0.1302142555
C         -5.1601410751       -2.0103430720       -0.0071466053
C         -5.8246020193       -2.7994853221       -0.9442300106
S         -4.8846353378       -3.9375873488       -1.9345420071
C         -3.7344206815       -4.4084319142       -0.6645380608
C         -3.2988464990       -3.4459065975        0.2445861101
C          6.3763869593       -3.1070709186       -1.8594863008
C          5.7476714370       -2.8812767919       -3.0716766684
C          4.6083415182       -2.0992994193       -3.0981038624
C          4.0992198342       -1.5637607243       -1.9289919797
C          3.7523386762       -1.1791396130        2.8335522430
C          4.0805219705       -1.5177561150        4.1337538198
C          5.2006111745       -2.2837820165        4.3961971195
C          5.9945207636       -2.6922919140        3.3386328725
C         -3.2983072459       -5.7204511034       -0.5760621161
C         -2.4257216931       -6.0858984505        0.4328114009
C         -2.0240209517       -5.1488183143        1.3718028328
C         -2.4679514379       -3.8417150033        1.2890230044
C         -5.9117789912       -1.1830952873        0.8228507758
C         -7.2826834908       -1.0950396604        0.6652055253
C         -7.9265414337       -1.8505654578       -0.3022658412
C         -7.1992386997       -2.7183839936       -1.0964471415
H          1.1823174630        3.7201621268       -1.7488551494
H          0.9200787899        6.1546269779       -1.9509498644
H         -2.2074711538        6.0554606366        0.9674050340
H         -1.9259294934        3.6438110341        1.1907246256
H         -3.1003601939        7.3977377849       -0.4096246445
H          1.5818060364       -1.8919976474        0.3579946987
H          4.3348589573        1.3745473945        0.2731964859
H          2.4973230734        2.9966699086        0.0177025246
H         -3.0400184752        2.3400272876       -0.4478320844
H         -4.4762856387        0.3882519434       -0.3290884779
H         -1.0835341237       -2.1798999952        0.2027122658
H          7.2750954930       -3.7030812484       -1.8056767412
H          6.1504063561       -3.3069186661       -3.9768051686
H          4.1039328328       -1.9016128215       -4.0313612464
H          3.2073980906       -0.9593760160       -1.9720931337
H          2.8733612422       -0.5820068476        2.6513912096
H          3.4506071010       -1.1781964381        4.9414055369
H          5.4631900989       -2.5566011051        5.4057633353
H          6.8839783022       -3.2799054678        3.5098837389
H         -3.6420955940       -6.4402279573       -1.3026219578
H         -2.0752691745       -7.1040482981        0.4948812025
H         -1.3672554719       -5.4379021592        2.1775516749
H         -2.1735046600       -3.1160273060        2.0315267186
H         -5.4097992838       -0.6101131745        1.5872385995
H         -7.8511928113       -0.4387460529        1.3054431887
H         -8.9952041082       -1.7781895110       -0.4282577072
H         -7.6839431278       -3.3318959185       -1.8399076327
