77
-127.68010507
C         -0.3870073016        3.4665751187        0.0470473055
C          0.3354730612        4.2624264458       -0.8425381732
C          0.1882162280        5.6310256016       -0.8223386350
C         -0.6673039863        6.2457853282        0.0979666058
C         -1.3929479685        5.4410985645        0.9819554755
C         -1.2597228467        4.0695826332        0.9524209967
C         -0.8090227835        7.6909501598        0.0721115562
S         -0.6861950412        8.5647465495       -1.3168509217
S         -1.1373580997        8.5549814914        1.5574041406
N         -0.2424456988        2.0771187568        0.0275779856
C          0.9558314155        1.3895116855        0.0098326631
C          0.6970128518       -0.0006872275       -0.0010151395
C         -0.7309799304       -0.1501975749        0.0030345067
C         -1.2729181538        1.1564436862        0.0213517362
C          1.7456683654       -0.9102306023       -0.0049588188
C          3.0382157700       -0.4176932782        0.0127392586
C          3.2881323796        0.9582473528        0.0562510024
C          2.2563776730        1.8745434502        0.0610623915
C         -2.6448031384        1.3620519559       -0.0320061928
C         -3.4644271412        0.2512747308       -0.0624153226
C         -2.9363639300       -1.0419049209       -0.0460900026
C         -1.5678087135       -1.2563896652       -0.0206933979
N          4.1353430258       -1.3333286594       -0.0048335770
C          4.6845901116       -1.7009152459        1.2187027320
C          5.7259258652       -2.6251857899        1.3400061695
S          6.4075982952       -3.4875009839       -0.0533656624
C          5.7354265494       -2.5537856479       -1.4044741390
C          4.6935690762       -1.6364470306       -1.2419468722
N         -3.8438626162       -2.1448185703       -0.0628781104
C         -4.0828921283       -2.7762152779       -1.2785430069
C         -5.0447949372       -3.7783809573       -1.4357935484
S         -6.1334000816       -4.2706788755       -0.1234033659
C         -5.3118185970       -3.5708995387        1.2853635969
C         -4.3121732852       -2.6021012972        1.1644950290
C          6.2746916650       -2.8106342437       -2.6536063889
C          5.7802687877       -2.1801057939       -3.7820817133
C          4.7363788923       -1.2850776776       -3.6435507064
C          4.2068703894       -1.0149685580       -2.3947211530
C          4.1888096227       -1.1412416963        2.3988443576
C          4.7100272041       -1.4761657097        3.6354210943
C          5.7541276122       -2.3762338148        3.7340778911
C          6.2569421173       -2.9466368493        2.5776639837
C         -5.7392762452       -4.0074785515        2.5278263323
C         -5.1995973049       -3.4790622466        3.6875776795
C         -4.2169002997       -2.5122615885        3.5877010870
C         -3.7762881565       -2.0873267937        2.3474982355
C         -3.3536598914       -2.4104442433       -2.4125180304
C         -3.5559659542       -3.0260684191       -3.6344712061
C         -4.4897132709       -4.0368018210       -3.7633071918
C         -5.2329044760       -4.4057232965       -2.6555651027
H          0.9907539468        3.8016748607       -1.5645240575
H          0.7376051405        6.2489870749       -1.5156573868
H         -2.0953132294        5.8860817620        1.6703877020
H         -1.8174444957        3.4601799337        1.6456178722
H         -0.9429782310        7.5414365724        2.4048885919
H          1.5653553799       -1.9734697570       -0.0187274902
H          4.3123723565        1.2971336204        0.0889022839
H          2.4634126464        2.9310606509        0.1142833131
H         -3.0664390978        2.3534008348       -0.0669299040
H         -4.5360268513        0.3711490078       -0.1010993528
H         -1.1697368712       -2.2591890376       -0.0269492434
H          7.0817119520       -3.5240580735       -2.7284100731
H          6.2041077760       -2.3941875729       -4.7501492315
H          4.3267158246       -0.7870193959       -4.5087094895
H          3.3942259251       -0.3116429513       -2.3105049425
H          3.3760328862       -0.4350126362        2.3455769961
H          4.2937861077       -1.0245006358        4.5225518209
H          6.1718348862       -2.6402599514        4.6924126659
H          7.0641601546       -3.6624577526        2.6204415056
H         -6.5132644036       -4.7590334114        2.5706821530
H         -5.5481659958       -3.8196510630        4.6494126478
H         -3.7819481239       -2.0833380334        4.4771461362
H         -3.0032946596       -1.3378623924        2.2923962050
H         -2.6205773723       -1.6236675844       -2.3373175269
H         -2.9740950185       -2.7094956354       -4.4863256907
H         -4.6500692106       -4.5279394117       -4.7097285159
H         -5.9841360449       -5.1780275450       -2.7265429233
