77
-127.67708328
C         -0.3524619788        3.4784769513       -0.3173761829
C         -1.3526599113        4.1321235926        0.4076080186
C         -1.4900344089        5.4974474520        0.3242179770
C         -0.6225367750        6.2621051055       -0.4661383873
C          0.3734010881        5.6003736604       -1.1948034925
C          0.5008684901        4.2316433795       -1.1277456243
C         -0.8139352999        7.6949845520       -0.5351122820
S         -2.2916448941        8.4032938700       -0.3608403722
S          0.5582942005        8.7442882757       -0.8262610084
N         -0.2134862288        2.0974914683       -0.2407961689
C          0.9742018280        1.4096153710       -0.0790120231
C          0.7079647048        0.0209247169       -0.0287798708
C         -0.7127802186       -0.1311337106       -0.1826960058
C         -1.2446341897        1.1689407076       -0.3011645404
C          1.7423228287       -0.8858714607        0.1491725643
C          3.0292113249       -0.3949655792        0.2850389699
C          3.2832954132        0.9798058344        0.2681317260
C          2.2639574648        1.8945662672        0.0947408237
C         -2.6051373703        1.3434681511       -0.5007043355
C         -3.4091122952        0.2249274244       -0.5699584512
C         -2.8947946510       -1.0800216751       -0.4665815630
C         -1.5283720257       -1.2485615563       -0.2485408084
N          4.1124019706       -1.3122228987        0.4545483166
C          4.5364311493       -1.5756118543        1.7518783915
C          5.5464276610       -2.4940757036        2.0524121156
S          6.3372212240       -3.4864951119        0.8118733919
C          5.8108089587       -2.6723645602       -0.6747065662
C          4.7778637606       -1.7310365168       -0.6921130011
N         -3.7483513571       -2.1751814394       -0.5212895086
C         -5.1444835845       -2.0526469794       -0.6670308907
C         -5.9910355147       -2.6534713184        0.2627910237
S         -5.2801815691       -3.5768044171        1.6046704043
C         -3.9302289768       -4.2713640911        0.6808254453
C         -3.3094219437       -3.4957490242       -0.2967056479
C          6.4576497900       -3.0473026383       -1.8400841091
C          6.0838186329       -2.5133674844       -3.0610286281
C          5.0530134750       -1.5935413176       -3.1001322214
C          4.4160464074       -1.2058745400       -1.9353299727
C          3.9397731686       -0.9115727162        2.8266591411
C          4.3384231906       -1.1384587271        4.1314408293
C          5.3559462426       -2.0322191423        4.4070181153
C          5.9549049816       -2.7076576932        3.3579269673
C         -3.5221741776       -5.5731281240        0.9224188886
C         -2.4909610442       -6.1169565110        0.1783789933
C         -1.8990775257       -5.3724103444       -0.8298089693
C         -2.3139928384       -4.0765252882       -1.0773581652
C         -5.7076807476       -1.4031932132       -1.7620194962
C         -7.0812536581       -1.2947432486       -1.8789827680
C         -7.9121354728       -1.8560390329       -0.9219164995
C         -7.3674545798       -2.5528950116        0.1413397226
H         -2.0004884051        3.5642693391        1.0561250789
H         -2.2552836065        6.0040818967        0.8922138192
H          1.0116384870        6.1543302512       -1.8666388051
H          1.2421016864        3.7312687937       -1.7303825172
H          1.5223472734        7.8346188273       -0.6678215250
H          1.5553246750       -1.9476460347        0.1864136424
H          4.2990522989        1.3207445471        0.3992424254
H          2.4728711567        2.9518814608        0.1107801175
H         -3.0425505722        2.3229515560       -0.6105889586
H         -4.4708324588        0.3677559160       -0.6876912314
H         -1.0978745632       -2.2267352144       -0.1143784454
H          7.2523759860       -3.7753255855       -1.7753916752
H          6.5903472927       -2.8192280046       -3.9624136029
H          4.7377966435       -1.1673940946       -4.0400408759
H          3.6164889683       -0.4846716566       -1.9883461340
H          3.1441808773       -0.2095770754        2.6352665180
H          3.8469983096       -0.6074293523        4.9320535945
H          5.6786084414       -2.2119523719        5.4200389325
H          6.7427772816       -3.4232577888        3.5397398410
H         -4.0129183874       -6.1444429315        1.6950014578
H         -2.1637753624       -7.1258562296        0.3742116571
H         -1.1150172789       -5.8045168193       -1.4320210025
H         -1.8702040260       -3.5030911813       -1.8766870789
H         -5.0581555074       -0.9823619505       -2.5142555564
H         -7.5041468130       -0.7751701106       -2.7246466660
H         -8.9832557967       -1.7666799312       -1.0107743021
H         -7.9973057192       -3.0161836947        0.8847945691
