77
-127.67732940
C         -0.3699403820        3.4725546144        0.5108264784
C         -1.2967415930        4.2113383243       -0.2306082723
C         -1.4460179198        5.5594888482       -0.0093838533
C         -0.6636339411        6.2244562365        0.9437572281
C          0.2552904312        5.4765351987        1.6903868374
C          0.3940384890        4.1231380748        1.4832144275
C         -0.8642519527        7.6419812856        1.1514687486
S         -2.3162871211        8.3807046345        0.9013915262
S          0.4669341212        8.6399994813        1.7011641151
N         -0.2201082424        2.1097044102        0.2886296433
C          0.9771868140        1.4269717919        0.1804019588
C          0.7139894205        0.0602427149       -0.0766826803
C         -0.7157110588       -0.0847709372       -0.1122168649
C         -1.2534754152        1.1987870798        0.1110359009
C          1.7571744662       -0.8322849345       -0.2675645820
C          3.0558204851       -0.3528984381       -0.1904576869
C          3.3090132556        1.0007904410        0.0402081798
C          2.2797969568        1.9051160182        0.2158545069
C         -2.6249261844        1.3619011387        0.2298961969
C         -3.4364266942        0.2622326854        0.0452907998
C         -2.9207057658       -1.0114764774       -0.2549168897
C         -1.5376873795       -1.1851893697       -0.2881200842
N          4.1700564344       -1.2250751668       -0.3790866968
C          4.7511728433       -1.2441742284       -1.6434359189
C          5.9596209603       -1.8900531068       -1.9164051137
S          6.9004952458       -2.7059943939       -0.6529429309
C          5.6770812050       -2.8719257578        0.6223218353
C          4.5108748627       -2.1007360177        0.6465997390
N         -3.7784297708       -2.0916993574       -0.4211865146
C         -3.3155547161       -3.4131216763       -0.5821995641
C         -3.7819952796       -4.4155411693        0.2664388162
S         -4.9733495389       -4.0023763141        1.5185493144
C         -5.8757435091       -2.8106936599        0.5576146732
C         -5.1790454772       -1.9804818667       -0.3185310299
C          5.9681709046       -3.7652146044        1.6391444644
C          5.1251366295       -3.8951402905        2.7289262819
C          3.9893978241       -3.1099318661        2.7912622682
C          3.6863563239       -2.2317553423        1.7665810755
C          4.1162696058       -0.6017205676       -2.7093185280
C          4.6668081655       -0.5878562072       -3.9778467073
C          5.8628358127       -1.2339304399       -4.2290725525
C          6.4998628708       -1.8914314109       -3.1912248437
C         -7.2537161338       -2.7263585541        0.6738540667
C         -7.9516687808       -1.8132165923       -0.0954121890
C         -7.2747737670       -1.0139078244       -1.0033250011
C         -5.9004768211       -1.1051240445       -1.1256246639
C         -2.4509579243       -3.7622584395       -1.6158079599
C         -2.0050615404       -5.0651042137       -1.7438758691
C         -2.4378368923       -6.0433875704       -0.8625285125
C         -3.3435715052       -5.7229690459        0.1323017510
H         -1.8767817129        3.7237099475       -0.9977511592
H         -2.1524929946        6.1327723917       -0.5900032822
H          0.8200091414        5.9461466053        2.4817087372
H          1.0710361546        3.5524609070        2.0987426907
H          1.4450660776        7.7455193420        1.5432214643
H          1.5684347352       -1.8742066171       -0.4763938026
H          4.3338379072        1.3379318012        0.0664068940
H          2.4947878829        2.9513423790        0.3596680508
H         -3.0623165516        2.3140333858        0.4855080845
H         -4.4997867494        0.3860395856        0.1707855732
H         -1.0985517709       -2.1609163154       -0.4131462593
H          6.8773452126       -4.3436390423        1.5714743930
H          5.3647351686       -4.5894874809        3.5183003402
H          3.3261735007       -3.1769379198        3.6398951145
H          2.7967026832       -1.6277315354        1.8413270680
H          3.1773203484       -0.1004182445       -2.5370119210
H          4.1498894822       -0.0700397594       -4.7709843682
H          6.2998060195       -1.2294894046       -5.2148151088
H          7.4366094625       -2.4033008287       -3.3528919139
H         -7.7640973256       -3.3723647789        1.3711988554
H         -9.0230144621       -1.7382293753        0.0034069365
H         -7.8196599068       -0.3199965487       -1.6242072888
H         -5.3720715861       -0.4959813798       -1.8428939206
H         -2.1321047963       -3.0035141339       -2.3138743796
H         -1.3219293766       -5.3181321593       -2.5397367949
H         -2.0855344166       -7.0581676854       -0.9591977961
H         -3.7118101071       -6.4744825590        0.8132708797
