77
-127.67692914
C         -0.4248715518        3.4969320469        0.2520037948
C         -1.1656183047        4.1850118471       -0.7126298971
C         -1.3209827183        5.5485255723       -0.6253584443
C         -0.7637426138        6.2701738730        0.4376448600
C         -0.0129554969        5.5762452333        1.3939092203
C          0.1613440669        4.2141875985        1.2975812164
C         -0.9448359073        7.7062912695        0.4840740265
S         -1.1184825615        8.6263138211       -0.8718670758
S         -0.9734676171        8.5315991073        2.0289481127
N         -0.2651891864        2.1181563111        0.1720645497
C          0.9231452039        1.4259116294        0.3663436447
C          0.6900941283        0.0430896317        0.2252546004
C         -0.7104348882       -0.1073621073       -0.0597249655
C         -1.2605398352        1.1964594756       -0.0924525767
C          1.7220961883       -0.8732016720        0.3404696707
C          3.0097016865       -0.4142622315        0.6138378561
C          3.2353995404        0.9727635026        0.6759161343
C          2.2150384311        1.8924412584        0.5538674107
C         -2.6213151229        1.3885134181       -0.2885132777
C         -3.4115774746        0.2748675479       -0.4957644617
C         -2.8704473026       -1.0124991583       -0.4865318266
C         -1.5193552430       -1.2162710762       -0.2526829359
N          4.0727610097       -1.3014016939        0.7313374514
C          5.4016716157       -0.8808529779        0.9350961745
C          6.4046719061       -1.3148652124        0.0703461885
S          5.9781676408       -2.4012036976       -1.2700754070
C          4.7516117588       -3.3394470053       -0.3909080389
C          3.9315924224       -2.6890232131        0.5295475593
N         -3.7509146440       -2.1175144892       -0.6909394088
C         -4.4859705716       -2.5518964327        0.4079981359
C         -5.5180876714       -3.4886967610        0.3122668076
S         -6.0277069507       -4.1781104981       -1.2409928806
C         -4.6354565925       -3.7705336564       -2.2635314220
C         -3.7118265418       -2.7809063061       -1.9128161337
C          4.6333706215       -4.7021244019       -0.6115193066
C          3.6963814524       -5.4323371580        0.0966953132
C          2.9103295221       -4.8060087190        1.0510810433
C          3.0360706033       -3.4476000652        1.2781700950
C          5.7554789094       -0.0932705650        2.0272153634
C          7.0671762526        0.3065489087        2.2045672929
C          8.0486194378       -0.0955847808        1.3121145729
C          7.7207419148       -0.9223457748        0.2529952838
C         -4.5440886928       -4.4423379190       -3.4705771198
C         -3.5509829988       -4.1277261417       -4.3816142210
C         -2.6550412429       -3.1221972294       -4.0710030470
C         -2.7323396880       -2.4638666419       -2.8570943603
C         -4.1961134219       -2.0502495938        1.6793753123
C         -4.9105402855       -2.4474280833        2.7948460242
C         -5.9278150352       -3.3764120607        2.6804717198
C         -6.2198769325       -3.8994238346        1.4329389562
H         -1.5909420172        3.6478416117       -1.5453703670
H         -1.8834229236        6.0816730089       -1.3764933006
H          0.4711398223        6.1111558107        2.1970442573
H          0.7338656221        3.6915018210        2.0471005994
H         -1.0451226929        7.4535399555        2.8131997268
H          1.5215767283       -1.9198646645        0.1831469756
H          4.2426910485        1.3395520907        0.7882790006
H          2.4382938991        2.9471707316        0.5789480583
H         -3.0627855397        2.3717257116       -0.2685497396
H         -4.4727135146        0.3889159257       -0.6562495927
H         -1.1133502568       -2.2156823247       -0.2181870556
H          5.2723681740       -5.1750394717       -1.3410455066
H          3.5939166317       -6.4906120802       -0.0845092412
H          2.1998435326       -5.3785323035        1.6268761457
H          2.4404179690       -2.9622173345        2.0359296183
H          4.9914483142        0.2041826449        2.7289349875
H          7.3248886102        0.9293573017        3.0469077227
H          9.0709087491        0.2201357204        1.4478343847
H          8.4732041354       -1.2632506627       -0.4410539171
H         -5.2767438808       -5.2037453649       -3.6924791455
H         -3.4927444497       -4.6532365297       -5.3213341634
H         -1.8841404750       -2.8427656043       -4.7725748025
H         -2.0243013914       -1.6802650876       -2.6411970792
H         -3.3997317561       -1.3321658284        1.7919497912
H         -4.6622173816       -2.0266641744        3.7569390280
H         -6.4902769424       -3.6931115282        3.5441593260
H         -7.0097225235       -4.6248330542        1.3082399471
