64
-105.73614489
C          4.0522107823        0.0003125164       -0.0003562041
C          4.7527107654        0.2158728802        1.1844717918
C          6.1321855631        0.2180532659        1.1848363048
C          6.8370775901       -0.0015935653        0.0008968935
C          6.1329279810       -0.2201721788       -1.1837057159
C          4.7534558440       -0.2161182268       -1.1845825287
C          8.2523434675       -0.0027827004        0.0015421463
C          9.4531741015       -0.0026741566        0.0013521330
N          2.6494892699        0.0008364921       -0.0008720156
C          1.8580729486        0.7636024557        0.8078885868
C          0.5465328728        0.4955306151        0.5143724751
C          0.5466430997       -0.4937954641       -0.5166261697
C          1.8582389718       -0.7618850017       -0.8098408435
N         -0.6162101349        1.0575711277        1.0723524923
C         -1.0135059877        2.3532189311        0.7221431170
C         -2.3656908938        2.7073866306        0.7974648915
O         -3.3475171049        1.8169616677        1.1754040693
C         -2.9384294363        0.5633280451        1.5689950294
C         -1.5937724592        0.1767615884        1.5438434665
N         -0.6158810745       -1.0565966987       -1.0743506642
C         -1.0123147435       -2.3521982090       -0.7228322831
C         -2.3642826091       -2.7073008637       -0.7972109897
O         -3.3468186217       -1.8179622546       -1.1759206062
C         -2.9388194254       -0.5640118551       -1.5695495996
C         -1.5944352686       -0.1764171654       -1.5450563639
C         -3.9120479984       -0.3156592959        2.0043646919
C         -3.5633012019       -1.5873424148        2.4366342286
C         -2.2353859784       -1.9631606341        2.4548947585
C         -1.2570066992       -1.0848988892        2.0174286954
C         -0.1027787135        3.3118315275        0.2993662752
C         -0.5199030656        4.5907472178       -0.0340991774
C         -1.8542016860        4.9328090652        0.0526597297
C         -2.7774033730        3.9852927752        0.4695275962
C         -3.9133328498        0.3143057802       -2.0042903568
C         -3.5658030056        1.5863337906       -2.4365234589
C         -2.2381938916        1.9632162627       -2.4553113370
C         -1.2589086138        1.0856109756       -2.0185120446
C         -0.1008677907       -3.3098629758       -0.2994131179
C         -0.5171213858       -4.5885844643        0.0358012142
C         -1.8512874771       -4.9314934810       -0.0498148997
C         -2.7751675181       -3.9850199375       -0.4674705964
H          4.2155466391        0.3644590373        2.1079306835
H          6.6743408981        0.3825896491        2.1034707975
H          6.6756967861       -0.3854647352       -2.1018384232
H          4.2168952007       -0.3641124520       -2.1084904430
H         10.5022197391       -0.0043266092        0.0017617089
H          2.2696592809        1.4585613417        1.5108740589
H          2.2700196648       -1.4568752928       -1.5126836944
H         -4.9399654517        0.0106119879        1.9873025784
H         -4.3321094167       -2.2706991840        2.7599670134
H         -1.9494597319       -2.9450892649        2.7975956430
H         -0.2197015221       -1.3813578321        2.0302720980
H          0.9385867328        3.0474161917        0.2155171607
H          0.2082034061        5.3153024502       -0.3636615119
H         -2.1869001521        5.9254756062       -0.2052669857
H         -3.8294719867        4.2135162247        0.5330580134
H         -4.9409907835       -0.0127761593       -1.9867610329
H         -4.3353362934        2.2691186231       -2.7593541021
H         -1.9531917550        2.9454427176       -2.7979336213
H         -0.2218413178        1.3828924396       -2.0318262510
H          0.9403995251       -3.0448327361       -0.2163635510
H          0.2115482847       -5.3123146188        0.3659272729
H         -2.1832842310       -5.9239941615        0.2096404665
H         -3.8271578994       -4.2138032070       -0.5302382804
