63
-103.09991137
C          6.6881057674        0.3622335215       -0.2624635476
C          5.9824743641        1.3445912357        0.4233318661
C          4.6035886024        1.3263786293        0.4374549842
C          3.9063431988        0.3203590691       -0.2294614434
C          4.6194513902       -0.6618930919       -0.9131109128
C          5.9995368682       -0.6406050054       -0.9328223191
H          4.0668532308        2.1038759257        0.9573328694
H          4.0953593268       -1.4582587884       -1.4168689453
H          6.5371679548       -1.4109960844       -1.4641046230
H          6.5208710877        2.1246390469        0.9392279032
S          8.4549870467        0.4343294667       -0.2493545129
H          8.6477157626       -0.6521902014       -0.9907470965
N          2.5080586693        0.2947316290       -0.2056797346
C          1.7023698546       -0.1853701593       -1.2048928937
C          1.7245686656        0.7223248851        0.8173365620
C          0.3862585309       -0.0532368339       -0.8274445201
C          0.4074669435        0.5201130592        0.4840215961
H          2.1247610394       -0.5884430749       -2.0992822428
H          2.1287135949        1.1105038449        1.7300722506
N         -0.7416370260       -0.5097889766       -1.4982161281
N         -0.6981885592        0.7825540227        1.3251012956
C         -0.6716842260       -1.4583637080       -2.5321662717
C         -1.4939713369       -2.5849260165       -2.4941639075
S         -2.6311892338       -2.7990156543       -1.1427766267
C         -3.0205417940       -1.0865305780       -0.8963861629
C         -2.0308246540       -0.1268816660       -1.1006255026
C         -4.2936802449       -0.7174886180       -0.4983057699
C         -4.5936632900        0.6198198747       -0.3091579322
C         -3.6303621602        1.5853349361       -0.5530907775
C         -2.3619981338        1.2169875804       -0.9603505999
H         -5.5789363469        0.9061746487        0.0234600763
H         -5.0334645619       -1.4834887206       -0.3230951624
H         -1.6087088274        1.9658552116       -1.1544291720
H         -3.8641987349        2.6308685533       -0.4211212147
C         -1.4414026926       -3.5369184169       -3.4989085020
C         -0.5692704954       -3.3721895276       -4.5602548697
C          0.2136014618       -2.2322079223       -4.6353519007
C          0.1509504305       -1.2742709052       -3.6392767480
H         -0.5182598837       -4.1220833630       -5.3336584446
H         -2.0800930766       -4.4039165059       -3.4328914990
H          0.8686979219       -2.0798589951       -5.4790548067
H          0.7259089884       -0.3664546164       -3.7225223412
C         -1.3708686078       -0.3238729293        1.8402002627
C         -2.5819060667       -0.2387231632        2.5302908125
S         -3.3716969261        1.3005581646        2.9051713618
C         -2.1898540383        2.4728927128        2.2963638082
C         -1.0500826789        2.1065371961        1.5752482422
C         -0.8284954389       -1.6000348346        1.6720840190
C         -1.4799533891       -2.7349988005        2.1178829762
C         -2.6973503251       -2.6324619411        2.7626221737
C         -3.2338248873       -1.3755074325        2.9768875820
H         -1.0296504974       -3.7011959149        1.9505780930
H          0.1231975480       -1.7063134211        1.1766272306
H         -3.2218167171       -3.5109701025        3.1028390384
H         -4.1743175032       -1.2567998113        3.4942453231
C         -0.2566684901        3.1460003533        1.0821572102
C         -0.5614442685        4.4742305865        1.3156974534
C         -1.6759944425        4.8149535796        2.0583156575
C         -2.4877624259        3.8037660299        2.5399594592
H          0.0805839986        5.2413618271        0.9108051239
H          0.6119919251        2.9065014092        0.4909316223
H         -3.3784806952        4.0324267046        3.1057811453
H         -1.9210786847        5.8466400800        2.2533781106
