63
-103.10483324
C          6.8645852929       -0.0077702297       -0.0120228649
C          6.1686378225        0.1878409420        1.1760648861
C          4.7892839640        0.1860692773        1.1806723551
C          4.0852313111       -0.0053760215       -0.0057364839
C          4.7858114563       -0.1979286049       -1.1930491364
C          6.1665030756       -0.2024981898       -1.1973068185
H          4.2589841865        0.3176156934        2.1102193630
H          4.2517158868       -0.3286755680       -2.1206217228
H          6.6966503057       -0.3507960530       -2.1254428226
H          6.7149362513        0.3339343713        2.0949650461
S          8.6310175808        0.0007047647        0.0411874689
H          8.8145458051       -0.2175383704       -1.2573540993
N          2.6818150449       -0.0037900926       -0.0043761668
C          1.8936542836        0.7555165064        0.8107652379
C          1.8897798099       -0.7611107442       -0.8176826103
C          0.5819223091        0.4925486268        0.5127552440
C          0.5794339696       -0.4947199906       -0.5166741359
H          2.3103176892        1.4407584730        1.5206033646
H          2.3026409590       -1.4481742201       -1.5279188531
N         -0.6054899537        1.0362465428        1.0488277155
N         -0.6103553785       -1.0359337010       -1.0502481593
C         -0.9968996748        2.3142044747        0.6454848659
C         -2.3255868646        2.7432069406        0.6535134520
S         -3.6838760721        1.6953771430        1.1024755054
C         -2.8433553804        0.2739730594        1.7430634198
C         -1.4600101316        0.1150782914        1.6568655404
C         -3.6356925129       -0.6992846049        2.3300303967
C         -3.0747563290       -1.8534921821        2.8459969135
C         -1.7023179031       -2.0119219712        2.7994389701
C         -0.9102461396       -1.0370006668        2.2236602127
H         -3.7056039547       -2.6124536030        3.2803256302
H         -4.7039514327       -0.5438615065        2.3567397097
H          0.1600777971       -1.1688812121        2.1995109205
H         -1.2400887783       -2.8977920337        3.2060866308
C         -2.6635128495        4.0266462270        0.2565254956
C         -1.6946522471        4.9152125314       -0.1722233981
C         -0.3756311943        4.5034254603       -0.1972150566
C         -0.0354527754        3.2270480710        0.2102896042
H         -1.9729347490        5.9087639700       -0.4853387873
H         -3.7051467474        4.3103963163        0.2749699589
H          0.3993967981        5.1747200679       -0.5333624552
H          0.9972122722        2.9228599278        0.1762488912
C         -1.0047135803       -2.3115697081       -0.6420391911
C         -2.3342767219       -2.7378664024       -0.6478340307
S         -3.6906672107       -1.6901576577       -1.1024809518
C         -2.8478380149       -0.2697110345       -1.7420938450
C         -1.4642532020       -0.1127757636       -1.6563145810
C         -0.0450852383       -3.2249702530       -0.2039385920
C         -0.3877857725       -4.4988857205        0.2091190625
C         -1.7077602174       -4.9077012544        0.1871472035
C         -2.6748086072       -4.0187620116       -0.2448474422
H          0.3860163353       -5.1704801301        0.5474722453
H          0.9882952483       -2.9230771029       -0.1715550438
H         -1.9881610876       -5.8991479948        0.5049892513
H         -3.7171167236       -4.3001824897       -0.2613725522
C         -0.9133683615        1.0392263353       -2.2222265943
C         -1.7043566308        2.0155717833       -2.7970700609
C         -3.0769845118        1.8587858147       -2.8436641903
C         -3.6391127506        0.7049554142       -2.3282271787
H         -1.2411919209        2.9012973944       -3.2029612545
H          0.1570424966        1.1701040017       -2.1978975429
H         -4.7075565639        0.5507364171       -2.3547871260
H         -3.7070398996        2.6186770255       -3.2775286106
