63
-103.10506214
C          6.8631209068        0.0067316953        0.0029407456
C          6.1652322887        1.1605498656        0.3369709184
C          4.7846593975        1.1567053575        0.3332729981
C          4.0829686000        0.0007422710        0.0024854619
C          4.7874672594       -1.1544000707       -0.3286058379
C          6.1667074223       -1.1497461658       -0.3310634526
H          4.2520252506        2.0627274411        0.5742739098
H          4.2580929557       -2.0621960929       -0.5698036985
H          6.7126744007       -2.0449150872       -0.5855110390
H          6.6954950958        2.0647450847        0.5933741169
S          8.6296228082       -0.0450774063       -0.0131731174
H          8.8133400319        1.2188562007        0.3558181607
N          2.6803188968       -0.0002603869        0.0023853551
C          1.8905240994       -0.7274584609       -0.8402715348
C          1.8894949040        0.7265039138        0.8445250590
C          0.5791780521       -0.4681088153       -0.5371679820
C          0.5785546174        0.4666745961        0.5403113377
H          2.3050685472       -1.3365441276       -1.6175459761
H          2.3027519343        1.3352949646        1.6226443061
N         -0.6087571636       -0.9773432182       -1.1036062905
N         -0.6095696497        0.9767377921        1.1057244389
C         -1.4634086993       -0.0209609824       -1.6543697694
C         -2.8467986278       -0.1742206064       -1.7487744318
S         -3.6861754956       -1.6319502235       -1.1941342921
C         -2.3267631831       -2.7082817279       -0.8230012893
C         -0.9982116044       -2.2800801736       -0.7874346856
C         -2.6634207664       -4.0162817493       -0.5150683262
C         -1.6936478434       -4.9315690181       -0.1491392915
C         -0.3749477599       -4.5213962936       -0.0962784889
C         -0.0361750621       -3.2199389827       -0.4160781230
H         -1.9710264830       -5.9444555685        0.0952451945
H         -3.7049130818       -4.2987687123       -0.5517260356
H          0.9957163519       -2.9165458016       -0.3607934419
H          0.4003686841       -5.2136012504        0.1936301704
C         -3.6395033905        0.8328958161       -2.2750063435
C         -3.0787165897        2.0163409629       -2.7199971337
C         -1.7061374705        2.1713754394       -2.6653665832
C         -0.9136440907        1.1629852049       -2.1511237817
H         -3.7098099001        2.8004923142       -3.1065877029
H         -4.7077869474        0.6794743611       -2.3104008771
H         -1.2441891173        3.0802203559       -3.0180409693
H          0.1569587584        1.2917571322       -2.1216311809
C         -1.4655857806        0.0207838696        1.6550880953
C         -2.8486869631        0.1760987252        1.7508028702
S         -3.6866412708        1.6360047294        1.2001043869
C         -2.3263117187        2.7088098717        0.8218916885
C         -0.9983633022        2.2789513011        0.7859455001
C         -0.9175877992       -1.1650575316        2.1493585818
C         -1.7114065252       -2.1731790454        2.6620917815
C         -3.0836765920       -2.0159732711        2.7180103173
C         -3.6426876172       -0.8306986246        2.2756873619
H         -1.2506433140       -3.0835338310        3.0124868940
H          0.1527494194       -1.2959592559        2.1189631294
H         -3.7158265797       -2.7998882913        3.1033811886
H         -4.7107149097       -0.6756297076        2.3120434723
C         -0.0357823136        3.2166170785        0.4104073155
C         -0.3734361457        4.5173456397        0.0865756695
C         -1.6916377804        4.9290878838        0.1393353007
C         -2.6618838716        4.0161004265        0.5096173286
H          0.4022333345        5.2077818776       -0.2065062515
H          0.9956161063        2.9117597582        0.3549196728
H         -3.7030334654        4.2997669885        0.5466686291
H         -1.9683291004        5.9413590292       -0.1083394347
