63
-103.10052461
C          6.7227701580        0.3816239599       -0.4239342257
C          5.9391750603        1.5255710473       -0.5057366128
C          4.5701454540        1.4363360668       -0.3532293068
C          3.9642396436        0.2056830926       -0.1106798270
C          4.7565966272       -0.9377387036       -0.0257639007
C          6.1237920876       -0.8501022469       -0.1842905533
H          3.9683724562        2.3265675921       -0.4432400012
H          4.3048158892       -1.8956091391        0.1773447717
H          6.7364510705       -1.7359006805       -0.1175020609
H          6.3930036948        2.4859121785       -0.6969320368
S          8.4795022613        0.4368797557       -0.6181898749
H          8.5596893069        1.7485830577       -0.8191911891
N          2.5756611489        0.1163424296        0.0369928028
C          1.8043455678       -0.9341895038       -0.3469139505
C          1.7681402081        1.0876313313        0.5678705842
C          0.4924537805       -0.6430982691       -0.0684052415
C          0.4635906555        0.6563689947        0.5322480512
H          2.2116858496       -1.8020156479       -0.8246540892
H          2.1903297280        2.0012533454        0.9244303468
N         -0.6293557772       -1.4430782715       -0.3810862343
N         -0.7038912143        1.3340734496        0.8713406549
C         -0.8473760728       -2.6161765490        0.3361165857
C         -2.0167115409       -3.3727840910        0.2211639934
S         -3.3951688865       -2.8736752377       -0.7748958726
C         -2.6973504268       -1.5378184822       -1.7042244513
C         -1.4402598039       -0.9986710241       -1.4241045186
C         -3.4758232577       -1.0422131779       -2.7364195353
C         -3.0289490258        0.0048556451       -3.5221366019
C         -1.7777218807        0.5363586915       -3.2754223041
C         -0.9969259496        0.0370356604       -2.2497083727
H         -3.6513609352        0.3925883929       -4.3125759861
H         -4.4450056191       -1.4870844457       -2.9067652693
H         -0.0211367785        0.4634325910       -2.0803306814
H         -1.4006418111        1.3484328039       -3.8777361243
C         -2.1848492588       -4.5462181389        0.9374502489
C         -1.2079035931       -4.9931170214        1.8090016379
C         -0.0570108977       -4.2428668903        1.9588771913
C          0.1189934080       -3.0801682988        1.2317597450
H         -1.3540814724       -5.9049411160        2.3655993587
H         -3.1058764983       -5.0952019224        0.8109396339
H          0.7145699174       -4.5580595417        2.6444211216
H          1.0209144795       -2.5073134623        1.3719433873
C         -1.8627315159        0.6085642817        1.1811460231
C         -3.0897744019        0.9402846995        0.6093907210
S         -3.1756921833        2.2719159923       -0.5589741493
C         -1.9243317385        3.3063103522        0.1671591213
C         -0.8277846688        2.7310140395        0.8120838843
C         -1.8166719120       -0.4277545894        2.1089183358
C         -2.9564577256       -1.1473491365        2.4142629397
C         -4.1657531138       -0.8239399177        1.8207726433
C         -4.2347840990        0.2310675456        0.9280556565
H         -2.8970293195       -1.9666772898        3.1142174085
H         -0.8716899514       -0.6759371873        2.5684971493
H         -5.0543933133       -1.3910233216        2.0488681715
H         -5.1670699404        0.4973941229        0.4537051749
C          0.0845473745        3.5753220364        1.4378326939
C         -0.0436489517        4.9496159427        1.3435566280
C         -1.1064778507        5.5074929515        0.6539781847
C         -2.0610628406        4.6822619954        0.0867203179
H          0.6845249102        5.5851474225        1.8232300332
H          0.8831819613        3.1492405001        2.0208235300
H         -2.9138090994        5.0925980186       -0.4316017070
H         -1.2067022696        6.5783330817        0.5746386707
