63
-103.10076771
C          6.7565971430        0.1834468189        0.1684999000
C          6.0174842930        1.3589457996        0.2042009201
C          4.6409923510        1.3114980821        0.1115714864
C          3.9830125627        0.0913340719       -0.0247522901
C          4.7306508832       -1.0842547239       -0.0628537126
C          6.1054233966       -1.0379802377        0.0363342903
H          4.0750393214        2.2277625275        0.1654349285
H          4.2378180832       -2.0357703960       -0.1835448010
H          6.6833483272       -1.9487485668        0.0056970890
H          6.5121729346        2.3119832975        0.3126082747
S          8.5207714221        0.1850141551        0.2882811260
H          8.6556087539        1.5034283186        0.3931652805
N          2.5872433069        0.0446352658       -0.1151189425
C          1.7956985528       -0.9518045071        0.3617543852
C          1.7946973376        1.0078391526       -0.6814256030
C          0.4857962968       -0.6327436609        0.1077909383
C          0.4787685093        0.6272720979       -0.5728115697
H          2.1912966168       -1.8004661336        0.8819051292
H          2.2377806164        1.8759827843       -1.1173272650
N         -0.6538884983       -1.3711150787        0.4961941034
N         -0.6852600735        1.3114813864       -0.9173054116
C         -1.4235109992       -0.8335940936        1.5265671702
C         -2.6958844338       -1.3016780189        1.8599830379
S         -3.4694910478       -2.6516323673        1.0147016402
C         -2.1251755025       -3.2788451136        0.0446480851
C         -0.9282099714       -2.5807036291       -0.1365415812
C         -2.3497794799       -4.4924618706       -0.5836244201
C         -1.4038174496       -5.0389807659       -1.4323023193
C         -0.2269912524       -4.3478102178       -1.6493550686
C          0.0056317999       -3.1449316463       -1.0085868428
H         -1.5935797524       -5.9815697743       -1.9202821013
H         -3.2898516836       -4.9934421521       -0.4077504935
H          0.9271255057       -2.6203818141       -1.2003528482
H          0.5212576143       -4.7413111755       -2.3201322231
C         -3.4297500555       -0.7180047848        2.8787928071
C         -2.9223152666        0.3506691993        3.5955071995
C         -1.6563878509        0.8151147006        3.2938489774
C         -0.9194852677        0.2268983577        2.2829739506
H         -3.5104411358        0.8073711729        4.3752878109
H         -4.4128279883       -1.1105526113        3.0925227663
H         -1.2333402935        1.6430415790        3.8416283802
H          0.0691037061        0.6012042124        2.0698853317
C         -1.8442384535        0.5790105385       -1.2081597722
C         -3.0764902788        0.9289377195       -0.6586232747
S         -3.1754882723        2.2891526241        0.4749939237
C         -1.9031198351        3.2997130294       -0.2469506466
C         -0.8022258338        2.7091297789       -0.8710455479
C         -1.7906483787       -0.4918914764       -2.0959022265
C         -2.9277281200       -1.2217326989       -2.3867668614
C         -4.1433567217       -0.8743778385       -1.8208677765
C         -4.2192844727        0.2112411362       -0.9662155164
H         -2.8612811177       -2.0669955466       -3.0544374458
H         -0.8410785255       -0.7583144284       -2.5353694044
H         -5.0308894579       -1.4472388512       -2.0385882296
H         -5.1557046518        0.4945585083       -0.5100829723
C          0.1258803776        3.5430615013       -1.4878696118
C          0.0078810368        4.9191109437       -1.4067792880
C         -1.0609357741        5.4914633771       -0.7391706166
C         -2.0299253796        4.6774095894       -0.1804019912
H          0.7491505354        5.5443134537       -1.8799648199
H          0.9307158405        3.1083245665       -2.0547757215
H         -2.8873264424        5.0979377616        0.3219718102
H         -1.1542439037        6.5636273683       -0.6699638859
