63
-103.10017269
C          6.7394933065        0.2190855306        0.1657426352
C          6.0839040362        0.8822565568       -0.8635780973
C          4.7081194346        0.8187768970       -0.9589342392
C          3.9664671236        0.0991268489       -0.0250942937
C          4.6305433100       -0.5633299517        1.0058023143
C          6.0053543414       -0.5063002256        1.0975737882
H          4.2104646163        1.3190359479       -1.7740358428
H          4.0702051759       -1.1096815047        1.7475299170
H          6.5177679231       -1.0170430443        1.8982613933
H          6.6443218252        1.4433620725       -1.5955712069
S          8.4988074862        0.2653008378        0.3367300582
H          8.7243126190        1.0437924671       -0.7171085380
N          2.5711118828        0.0457562887       -0.1163988829
C          1.7857883121       -0.9860656926        0.2883378707
C          1.7714995958        1.0406976298       -0.6163904598
C          0.4736891261       -0.6644242935        0.0447457706
C          0.4573673059        0.6457106735       -0.5321735551
H          2.1891253457       -1.8945690170        0.6875118173
H          2.1968169834        1.9782328416       -0.9015289183
N         -0.6561292318       -1.4444756396        0.3800942876
N         -0.7010625454        1.3624511711       -0.8148925799
C         -1.4185836416       -1.0036209384        1.4605660276
C         -2.6747127875       -1.5239252652        1.7785750993
S         -3.4337532407       -2.8289857658        0.8535330567
C         -2.1069555760       -3.3314687479       -0.2088657189
C         -0.9272651899       -2.5962852779       -0.3531086053
C         -2.3277367484       -4.4843500161       -0.9439753056
C         -1.3949261340       -4.9308640219       -1.8628223626
C         -0.2347477927       -4.2012796033       -2.0406521446
C         -0.0060522785       -3.0591584990       -1.2957338237
H         -1.5818764562       -5.8265557010       -2.4332468064
H         -3.2545127804       -5.0173647378       -0.7933932466
H          0.9028252154       -2.5030906606       -1.4571949755
H          0.5034790317       -4.5167688584       -2.7618184989
C         -3.4042819866       -1.0326985911        2.8478845497
C         -2.9081347361       -0.0089062165        3.6347728374
C         -1.6571151969        0.5035880784        3.3501216324
C         -0.9251681271        0.0086976463        2.2868419609
H         -3.4927578127        0.3757546296        4.4550169233
H         -4.3749048878       -1.4623607562        3.0467477669
H         -1.2420581904        1.2976515586        3.9515213267
H          0.0508364447        0.4216593538        2.0879304961
C         -1.8974898208        0.6803620460       -1.0777638688
C         -3.0839100997        1.0492057993       -0.4463510650
S         -3.0663092900        2.3744485427        0.7325663480
C         -1.8206473289        3.3717584112       -0.0533858615
C         -0.7754262996        2.7627121010       -0.7501689124
C         -1.9315774882       -0.3450986484       -2.0179267838
C         -3.1094007736       -1.0202519314       -2.2766918349
C         -4.2770519687       -0.6624260035       -1.6225268589
C         -4.2669749741        0.3838337416       -0.7169882900
H         -3.1123113080       -1.8320794697       -2.9878310619
H         -1.0187381482       -0.6204526820       -2.5245489217
H         -5.1948355785       -1.1955697910       -1.8141830113
H         -5.1661539187        0.6773932962       -0.1970441479
C          0.1318446653        3.5772680552       -1.4209061518
C          0.0514325320        4.9548440026       -1.3226483368
C         -0.9587006787        5.5456745904       -0.5829906398
C         -1.9100783677        4.7512542453        0.0317125708
H          0.7749942749        5.5676176912       -1.8375432861
H          0.8876603002        3.1251138068       -2.0403355550
H         -2.7230977312        5.1884927770        0.5903183676
H         -1.0211704131        6.6191526512       -0.5005625161
