63
-103.09970594
C          6.4611421500       -1.4881858709        0.9938387926
C          6.0285975053       -0.1912030752        1.2463815783
C          4.7180160194        0.1630694462        1.0036075581
C          3.8151669129       -0.7768687359        0.5097025423
C          4.2547241693       -2.0749986899        0.2601839247
C          5.5679387846       -2.4285390874        0.4965696864
H          4.3991147997        1.1769126512        1.1838388925
H          3.5638061411       -2.8183298979       -0.1042806406
H          5.8915217283       -3.4394226466        0.3008362527
H          6.7269782456        0.5376594049        1.6277234851
S          8.1520433435       -1.8881192881        1.3224935610
H          8.0742254640       -3.1608082883        0.9465623993
N          2.4828430379       -0.4235970043        0.2717703457
C          1.6714469015       -0.9627629663       -0.6737744139
C          1.7773867440        0.5230401764        0.9683762558
C          0.4389551024       -0.3603669298       -0.5989965978
C          0.4996810706        0.5967463404        0.4635390334
H          2.0088411104       -1.7030259725       -1.3704447251
H          2.2051455484        0.9976654828        1.8250273686
N         -0.6838380853       -0.6953199844       -1.3907318127
N         -0.5690910007        1.3345241702        0.9569372251
C         -1.7214759083       -1.3716830513       -0.7519949069
C         -2.9647838015       -1.6112142013       -1.3411006523
S         -3.3473389798       -1.1514203196       -3.0072584991
C         -1.7978824659       -0.4995055697       -3.5695049651
C         -0.6938164076       -0.3199769389       -2.7316716901
C         -1.7537144917       -0.1290074468       -4.9036738803
C         -0.6196400888        0.4494013965       -5.4448318132
C          0.4724081910        0.6625552591       -4.6251974245
C          0.4334335110        0.2830496001       -3.2962139512
H         -0.5998671390        0.7351140053       -6.4842957913
H         -2.6330599122       -0.2924920955       -5.5085360865
H          1.2946362970        0.4687783791       -2.6754560916
H          1.3652029737        1.1274076262       -5.0143030141
C         -3.9786067470       -2.2448125989       -0.6429216747
C         -3.7856643146       -2.6718162835        0.6586656569
C         -2.5497357701       -2.4801994722        1.2451261029
C         -1.5370995273       -1.8474263670        0.5483227557
H         -4.5876784420       -3.1515297252        1.1964808014
H         -4.9260795087       -2.3946970884       -1.1390164470
H         -2.3652169824       -2.8159016422        2.2538941690
H         -0.5805609760       -1.7135353465        1.0275476028
C         -0.5748457431        1.8816634763        2.2507858128
C         -1.6683028033        1.6628005756        3.0892601985
S         -3.0471787773        0.7028962959        2.5040497174
C         -2.9888341545        1.2264340848        0.8105531897
C         -1.7531035885        1.4853439280        0.2205788458
C          0.4549085460        2.7008929235        2.7031664140
C          0.4320863087        3.2141386639        3.9875188002
C         -0.6349376261        2.9467976196        4.8289806011
C         -1.6974592234        2.1886132242        4.3703127470
H          1.2467465287        3.8348414702        4.3269916475
H          1.2630862527        2.9472383922        2.0341036157
H         -0.6519762428        3.3421544314        5.8322177570
H         -2.5511504536        1.9892275482        4.9991664717
C         -1.7211186351        1.9528269578       -1.0892924395
C         -2.8912258363        2.0842485912       -1.8130878693
C         -4.1108746689        1.7796655578       -1.2305663592
C         -4.1615455151        1.3673064567        0.0891395164
H         -2.8480431559        2.4212737392       -2.8376788586
H         -0.7684839906        2.1919984096       -1.5378232191
H         -5.1027786185        1.1357776511        0.5636467824
H         -5.0227177461        1.8674570326       -1.7999787042
