63
-103.10025674
C          6.7451181585        0.2436471118       -0.1458767184
C          6.0404587308        0.1441909683        1.0470493776
C          4.6601217142        0.1431845326        1.0345891835
C          3.9633748803        0.2482052816       -0.1669299564
C          4.6762782077        0.3544391302       -1.3596214584
C          6.0554587838        0.3487663269       -1.3485825792
H          4.1220302520        0.0421886422        1.9636147147
H          4.1521548635        0.4575012863       -2.2960573815
H          6.6068331145        0.4318064272       -2.2724099136
H          6.5653500914        0.0583522142        1.9861800680
S          8.5127686157        0.2401683074       -0.1896396161
H          8.6885425159        0.1221871982        1.1227450099
N          2.5638623812        0.2398192941       -0.1749502832
C          1.7816086325       -0.2713941573       -1.1775811405
C          1.7591055787        0.7144358051        0.8113252682
C          0.4588367514       -0.1264411940       -0.8327960342
C          0.4508491723        0.5171176081        0.4460697343
H          2.2334801651       -0.7732089180       -2.0053439220
H          2.1449094647        1.1919016983        1.6891226448
N         -0.6845321327       -0.5874631929       -1.4790399221
N         -0.6923677559        0.8136228997        1.2220489530
C         -0.7035000398       -1.7315447626       -2.2917832412
C         -1.6913113625       -2.7007533155       -2.1066677333
S         -2.9367590344       -2.4774328734       -0.8568132410
C         -3.0571141854       -0.7105379779       -0.9567328654
C         -1.9158559342        0.0382155793       -1.2385834634
C         -4.2747291796       -0.0905900732       -0.7362726806
C         -4.3651233022        1.2891960862       -0.7898885288
C         -3.2427528376        2.0427599936       -1.0924752735
C         -2.0308758267        1.4221666986       -1.3299390416
H         -5.3095963644        1.7716609150       -0.5936940012
H         -5.1371525975       -0.6951178955       -0.4999848640
H         -1.1531742348        2.0049516599       -1.5660829628
H         -3.3076689783        3.1190125267       -1.1393377445
C         -1.7242023680       -3.8421054727       -2.8905203153
C         -0.7726980735       -4.0326822861       -3.8766000564
C          0.1792000892       -3.0541318523       -4.1059493739
C          0.2022282356       -1.9064947453       -3.3337645331
H         -0.7904302621       -4.9305233012       -4.4737660396
H         -2.4934774308       -4.5770050276       -2.7105362278
H          0.9016024467       -3.1760340987       -4.8980822355
H          0.9114856714       -1.1265529798       -3.5521838442
C         -1.3576133787       -0.2718475649        1.7897921704
C         -2.6177625629       -0.1761696275        2.3834451132
S         -3.5087374577        1.3496944686        2.4988107202
C         -2.2798028276        2.5190983768        1.9851954681
C         -1.0715604225        2.1420673782        1.3928520916
C         -0.7554548712       -1.5321384616        1.7814909559
C         -1.3873634694       -2.6452743118        2.3037304890
C         -2.6433004831       -2.5339028621        2.8686222813
C         -3.2467395553       -1.2900116117        2.9134032501
H         -0.8904032998       -3.6021916635        2.2607617448
H          0.2264953972       -1.6433831176        1.3501053997
H         -3.1502952127       -3.3964384848        3.2705311745
H         -4.2249399213       -1.1654362085        3.3536718032
C         -0.2364443938        3.1709094956        0.9510141112
C         -0.5743720940        4.5026927514        1.1054934818
C         -1.7612081463        4.8558205821        1.7191807057
C         -2.6097080199        3.8535157484        2.1542613844
H          0.0996522786        5.2630852439        0.7420247107
H          0.6909740902        2.9200600849        0.4628589044
H         -3.5543219600        4.0920366481        2.6195484023
H         -2.0330160960        5.8909175759        1.8507665134
