65
-108.48364752
C          3.3164678621       -0.0351055485       -0.0577160003
C          3.9965689442        0.2221897972       -1.2530811134
C          5.3649430845        0.3372273796       -1.2643908881
C          6.1127114116        0.2010716664       -0.0858225647
C          5.4239712631       -0.0596698810        1.1068509014
C          4.0548834400       -0.1761643080        1.1220436664
C          7.5473230568        0.3327405408       -0.1192744945
S          8.4151986381        0.5953078829       -1.4980453626
S          8.3824223777        0.2044822541        1.4211013754
N          1.9333013025       -0.1409447922       -0.0391961758
C          1.1289426485        0.1482743622        1.0253180275
C         -0.1749698137       -0.0376210304        0.6555738178
C         -0.1725793132       -0.4825838169       -0.7129011598
C          1.1439141024       -0.5196436193       -1.0977489839
N         -1.3238438097        0.2310315845        1.4267971447
C         -2.0880706326        1.3311922153        1.0353583923
C         -3.3756256966        1.5799165315        1.5136133733
S         -4.1769454105        0.5274328276        2.6893956306
C         -2.8347194699       -0.5064324439        3.2089216971
C         -1.6167032689       -0.5725242451        2.5275236029
N         -1.3311595983       -0.7092243537       -1.4420407297
C         -1.4524581048       -0.4440681766       -2.8161226908
C         -2.5672562675        0.2486576893       -3.2931659375
S         -3.8515443389        0.7648588795       -2.1786892483
C         -3.7269014012       -0.5793210776       -1.0292291897
C         -2.4822158987       -1.1505362961       -0.7718298775
C         -3.0826414311       -1.3069359626        4.3119332017
C         -2.1394061501       -2.2158287791        4.7560895655
C         -0.9412994248       -2.3181941946        4.0748134103
C         -0.6854798020       -1.5070291891        2.9846336546
C         -1.5594241482        2.2492458491        0.1252689098
C         -2.2890368447        3.3365970177       -0.3177949121
C         -3.5708213422        3.5542558450        0.1506193209
C         -4.1016733285        2.6758201909        1.0775362776
C         -4.8614067851       -1.0334536729       -0.3785196976
C         -4.7629231661       -2.0581918987        0.5458956005
C         -3.5333075262       -2.6443674207        0.7978671264
C         -2.4040580030       -2.2052121224        0.1329437161
C         -0.5170331300       -0.8988697153       -3.7402006282
C         -0.6419401282       -0.5933443233       -5.0838361361
C         -1.7235453759        0.1423654245       -5.5363588236
C         -2.6992098150        0.5414294538       -4.6407920143
H          3.4472891378        0.3597090739       -2.1701133077
H          5.8822494961        0.5468435433       -2.1879232366
H          5.9757908005       -0.1799715508        2.0267373983
H          3.5534791489       -0.3977377009        2.0500352337
H          9.6064337023        0.3758137895        0.9295440569
H          1.5142883483        0.5147838067        1.9545298717
H          1.5889147124       -0.7949450029       -2.0278894506
H         -4.0382534462       -1.2158329587        4.8058386328
H         -2.3473542304       -2.8376216900        5.6120226850
H         -0.1947673986       -3.0314462512        4.3882984836
H          0.2518506117       -1.6129621937        2.4643337803
H         -0.5573472030        2.1067697482       -0.2463431173
H         -1.8471615062        4.0116442394       -1.0343206592
H         -4.1525720885        4.3939993409       -0.1940873703
H         -5.0970475756        2.8209962093        1.4700673622
H         -5.8094576026       -0.5607004402       -0.5845291902
H         -5.6446385527       -2.3935092114        1.0685752454
H         -3.4501874213       -3.4444923166        1.5169682178
H         -1.4439196640       -2.6606604974        0.3234877924
H          0.2986098661       -1.5167895047       -3.4074359606
H          0.1045893123       -0.9436154990       -5.7795524026
H         -1.8215458402        0.3867961724       -6.5820971568
H         -3.5668894732        1.0904708247       -4.9722209222
