65
-108.48678272
C          3.3954292150       -0.0285538894       -0.0071253608
C          4.0981604568       -1.1896429608       -0.3397020377
C          5.4726575836       -1.1932872595       -0.3420198221
C          6.1980396096       -0.0407816279       -0.0114086747
C          5.4852517608        1.1182202531        0.3208704438
C          4.1099170724        1.1259088703        0.3225255494
C          7.6421578760       -0.0664506387       -0.0188035634
S          8.5329604321       -1.3869094115       -0.4444385871
S          8.4523516767        1.4143956529        0.4605422988
N          2.0033590013       -0.0215780775       -0.0045637096
C          1.2139318452        0.7815713987        0.7747071640
C         -0.0968362051        0.5044577744        0.4970908719
C         -0.1039915570       -0.5239911928       -0.5000752003
C          1.2027830267       -0.8158990411       -0.7813798081
N         -1.2781439072        1.0621260563        1.0213120643
C         -1.6333086099        2.3662255270        0.6668241395
C         -2.9524975341        2.8236673796        0.6865740248
S         -4.3377139036        1.7867538122        1.0727809573
C         -3.5337689291        0.3400804211        1.7004476782
C         -2.1542106451        0.1514472026        1.6167378939
N         -1.2931907044       -1.0670734006       -1.0219983553
C         -2.1584207929       -0.1454534703       -1.6166745946
C         -3.5402942873       -0.3167014760       -1.6986917320
S         -4.3615686824       -1.7536355035       -1.0705955468
C         -2.9891401434       -2.8072508475       -0.6847261100
C         -1.6643015140       -2.3661589583       -0.6663807036
C         -4.3492437463       -0.6223632055        2.2739737665
C         -3.8154128442       -1.7956868335        2.7749519700
C         -2.4464050935       -1.9835911167        2.7312047622
C         -1.6307377737       -1.0177439196        2.1731768999
C         -0.6511857366        3.2725971947        0.2670458684
C         -0.9610660184        4.5718836131       -0.0895323794
C         -2.2698417241        5.0137931758       -0.0457876334
C         -3.2597118641        4.1305822770        0.3437717326
C         -3.3123473809       -4.1098988438       -0.3405608486
C         -2.3332819282       -5.0050277290        0.0491813293
C         -1.0190755374       -4.5794059917        0.0915448137
C         -0.6932748631       -3.2844100694       -0.2664867757
C         -1.6208951441        1.0170582588       -2.1736953498
C         -2.4250204821        1.9932342600       -2.7304906844
C         -3.7963703057        1.8227358270       -2.7722599602
C         -4.3443325267        0.6561149242       -2.2708777628
H          3.5662236174       -2.0966831824       -0.5761990614
H          6.0104243390       -2.0946742546       -0.5919948157
H          6.0195538038        2.0222253025        0.5701601848
H          3.5863300142        2.0374424355        0.5599440954
H          9.6903623998        0.9524626541        0.3071824092
H          1.6292261787        1.4438508593        1.5061276235
H          1.6085504899       -1.4836200467       -1.5132857065
H         -5.4137351681       -0.4436542356        2.3007883512
H         -4.4640948782       -2.5466466377        3.1966716297
H         -2.0052553111       -2.8846595116        3.1277325470
H         -0.5631280635       -1.1711226458        2.1571556345
H          0.3734105718        2.9463025368        0.2157498874
H         -0.1708954448        5.2374127246       -0.4005575994
H         -2.5242519934        6.0259104107       -0.3166893450
H         -4.2946154527        4.4368952519        0.3717335792
H         -4.3509787598       -4.4034709357       -0.3674889826
H         -2.5999582025       -6.0137091182        0.3211359654
H         -0.2369361642       -5.2544157454        0.4026241783
H          0.3354868962       -2.9710423129       -0.2163379867
H         -0.5513938952        1.1566173557       -2.1593468764
H         -1.9730242625        2.8885997341       -3.1276171836
H         -4.4361160227        2.5818944324       -3.1928974574
H         -5.4109983064        0.4907475415       -2.2962761616
