65
-108.48217932
C          3.3973804435       -0.0137101093        0.0016473000
C          4.1131407461        1.1379744486        0.3352392478
C          5.4888136632        1.1242230223        0.3381871836
C          6.1971254303       -0.0295181813       -0.0150227758
C          5.4745319615       -1.1815703098       -0.3427853402
C          4.0974197837       -1.1761762219       -0.3256484029
C          7.6470924782       -0.0046009592        0.0164234214
S          8.4910244883        0.9356625101        1.0721703514
S          8.5555525884       -1.0118509727       -1.0889564959
N          2.0039672621       -0.0061307071        0.0021925300
C          1.2133760517        0.7862189910        0.7900605456
C         -0.0969696438        0.5110364109        0.5069299105
C         -0.1017810599       -0.5041932325       -0.5025728262
C          1.2059428673       -0.7912608720       -0.7857361581
N         -1.2801381752        1.0612178723        1.0364816759
C         -1.6397611691        2.3657511917        0.6896954062
C         -2.9602044932        2.8195490477        0.7127754903
S         -4.3421472417        1.7767283530        1.0951256091
C         -3.5331911283        0.3272664259        1.7109362962
C         -2.1531029277        0.1434827999        1.6252121650
N         -1.2895075574       -1.0449112064       -1.0316086000
C         -2.1565023671       -0.1194800043       -1.6172391916
C         -3.5383135960       -0.2914182880       -1.6996041050
S         -4.3584517564       -1.7340993883       -1.0829948371
C         -2.9845817069       -2.7879286300       -0.7011181420
C         -1.6603025134       -2.3455496347       -0.6810591281
C         -4.3455869921       -0.6421270003        2.2769261489
C         -3.8081452649       -1.8178649215        2.7684229701
C         -2.4386482671       -2.0013296763        2.7226358762
C         -1.6261043139       -1.0287527946        2.1718027590
C         -0.6603920166        3.2774580349        0.2950944257
C         -0.9740797503        4.5778920560       -0.0538579592
C         -2.2841146611        5.0156663760       -0.0075893237
C         -3.2712968783        4.1273576702        0.3773905086
C         -3.3062667981       -4.0925132622       -0.3629803234
C         -2.3261066133       -4.9886749038        0.0216780318
C         -1.0122897283       -4.5620865352        0.0650598178
C         -0.6881258489       -3.2649825674       -0.2866470895
C         -1.6207908018        1.0482504124       -2.1649928302
C         -2.4262594487        2.0279074664       -2.7136511398
C         -3.7974120080        1.8563037497       -2.7559147298
C         -4.3437305761        0.6852012761       -2.2631775059
H          3.5924763654        2.0503592697        0.5757661917
H          6.0411310015        2.0155208275        0.5925283627
H          5.9920205470       -2.1041359912       -0.5572984978
H          3.5625951240       -2.0859230407       -0.5443122717
H          7.5380054874       -1.3972785110       -1.8629036450
H          1.6273111969        1.4412722721        1.5289121136
H          1.6135557234       -1.4497177499       -1.5249195137
H         -5.4106157195       -0.4666759537        2.3055162139
H         -4.4545818262       -2.5739585738        3.1844117485
H         -1.9947756389       -2.9041940723        3.1119180031
H         -0.5580636951       -1.1786364910        2.1540990419
H          0.3653427891        2.9546825787        0.2427049309
H         -0.1858399690        5.2477209354       -0.3607213113
H         -2.5415571065        6.0285923085       -0.2726620753
H         -4.3070577994        4.4307268830        0.4074975149
H         -4.3446830181       -4.3868845512       -0.3906437039
H         -2.5919374408       -5.9988353954        0.2890199675
H         -0.2295511248       -5.2381333196        0.3722200676
H          0.3401151779       -2.9503380606       -0.2355801885
H         -0.5515440165        1.1894445125       -2.1491912720
H         -1.9756684021        2.9271013817       -3.1037671620
H         -4.4383807652        2.6181431751       -3.1699193943
H         -5.4103637492        0.5192166016       -2.2888480617
