73
Coordinates from ORCA-job Combo10_Cf3Opt
  C   -0.02058309503885      3.86971388102772      0.63080580204103
  C   0.47068600653664      4.76746022038758     -0.30161549487589
  C   0.47875981854542      6.11757902013493     -0.01706674862992
  C   -0.00737339277062      6.58510074638537      1.20000942331120
  C   -0.50009484190582      5.67126108002328      2.12854277671327
  C   -0.50394212056318      4.32165394559891      1.84817678872513
  S   -0.03311855813553      8.28264185642870      1.63678548232379
  N   -0.02202160098414      2.47864589260391      0.34166919275918
  C   1.11662481228730      1.70171163666596      0.12581039284811
  C   0.72704274106495      0.37310648639734     -0.08336373072519
  C   -0.71919938155197      0.35252083357070      0.00908802997613
  C   -1.11941691881603      1.68614144602416      0.27958271620333
  C   1.67533611201543     -0.60039031127932     -0.30822902362849
  C   3.02076984393177     -0.23944909376113     -0.29747096989012
  C   3.38970533700142      1.09118632681281     -0.06904295957194
  C   2.44755464111095      2.07668091325380      0.13788094764479
  C   -2.46697608968126      2.02805048288657      0.42987988137990
  C   -3.39341165062620      1.02816586234827      0.34972239711119
  C   -3.01058649877658     -0.30859598361190      0.09845037325314
  C   -1.65686620008918     -0.63724721429084     -0.08756816630353
  N   3.99933618613140     -1.21092087633191     -0.50545960581437
  C   4.03028154648846     -2.47462553908243      0.08927851524624
  C   5.14595164738483     -3.17338299274884     -0.39007150166912
  C   5.82628396749388     -2.29842124474274     -1.31647931174047
  C   5.09845862884578     -1.10213115848605     -1.36278757602897
  N   -3.96937924834847     -1.29460777803705      0.03882363792302
  C   -4.00936295892936     -2.35389379852963     -0.88336494674637
  C   -5.13085900544754     -3.14579176521959     -0.61006908519840
  C   -5.80770193356477     -2.55227618395652      0.52802954596943
  C   -5.07479890396242     -1.41894485025942      0.89843724454335
  C   5.46512638740481     -0.06469632262038     -2.20610590168178
  C   6.59594739443802     -0.23720619009302     -2.98202441394537
  C   7.34201318157214     -1.41231569111117     -2.92859588575052
  C   6.95826772865204     -2.44958631620691     -2.10220794785130
  C   5.40904865095819     -4.45371701261579      0.07149869406593
  C   4.56428082610684     -5.01383824477615      1.00977434805404
  C   3.47342166636801     -4.29804871330914      1.49708436326994
  C   3.19303316645982     -3.02023791054091      1.05072126024103
  C   -5.41635738791498     -4.23382631815005     -1.40942977998262
  C   -4.58160838585592     -4.51158728194492     -2.48064692377585
  C   -3.49278191454265     -3.69611116606781     -2.76413860561444
  C   -3.19537532392034     -2.59720290903348     -1.97740830212513
  C   -5.40705045204703     -0.66941657593721      2.01484757882638
  C   -6.53324134625327     -1.04488205395592      2.72530959708749
  C   -7.29034116639742     -2.14677393479558      2.34613392273594
  C   -6.92495204067252     -2.91623191502449      1.25285023493909
  H   0.83605125495089      4.41035514308383     -1.25477377670678
  H   0.85942081348565      6.81106089964107     -0.75389381085157
  H   -0.87163886550944      6.01961458331343      3.08283527451221
  H   -0.86676987871673      3.61438745363906      2.58161260376078
  H   0.50948420174441      8.75097372924759      0.50718701111611
  H   1.39670726648112     -1.62558203125013     -0.50299379988287
  H   4.43967419531588      1.33957370002145     -0.02840517062892
  H   2.74703359827613      3.09658304974348      0.33039786500957
  H   -2.76812356053995      3.05435884274390      0.58106886881420
  H   -4.44412135689355      1.26385438202123      0.41796556401413
  H   -1.36978737554274     -1.66666878198124     -0.24120024035527
  H   4.89036490925905      0.84691731015364     -2.27375968913686
  H   6.90521823416695      0.55820824619480     -3.64627051792478
  H   8.22374189829942     -1.51254105757904     -3.54577525527267
  H   7.52853704900444     -3.36827353027635     -2.07233189628067
  H   6.26745875815151     -5.00255360138830     -0.29207132938473
  H   4.75606505248777     -6.01114830677632      1.38000441348700
  H   2.83638377938812     -4.74600031391232      2.24748618135357
  H   2.36046621146554     -2.46841701589386      1.46124781768660
  H   -6.28183660630201     -4.85195995035930     -1.21423972279301
  H   -4.79024003946718     -5.36043798156305     -3.11649160081984
  H   -2.87211690095190     -3.91332725545045     -3.62203771959521
  H   -2.37338733200535     -1.94840361603851     -2.23720186599896
  H   -4.80973929912323      0.16570670923467      2.34528097284430
  H   -6.82050751716500     -0.47451823775079      3.59736162900681
  H   -8.16398651930109     -2.41615542378131      2.92277099819359
  H   -7.49939045726075     -3.79172162986683      0.98302235919101
