73
Coordinates from ORCA-job Combo10_Cf4Opt
  C   -0.01440289492081      3.91883405581118     -0.22191699714998
  C   -0.51695244394299      4.54273690647525     -1.35110037075613
  C   -0.53558828811445      5.92040382332487     -1.42370612280500
  C   -0.04836731818445      6.68898584172101     -0.37128435271061
  C   0.45433825099930      6.04889169409494      0.75863407270652
  C   0.46765893244546      4.67265727687890      0.83558246389079
  S   -0.03575808346234      8.44187309494703     -0.38686875436221
  N   -0.00063132183461      2.50039356133593     -0.14355435198357
  C   1.10240560143929      1.72456619843790     -0.00666765748492
  C   0.71141808822385      0.36179021254304      0.04970171072749
  C   -0.73288939958633      0.34765786085186     -0.07075664996024
  C   -1.13161032699822      1.68448931716685     -0.18820565698114
  C   1.65695918343470     -0.61791952272997      0.16391462309801
  C   3.01318225074147     -0.25081102990486      0.20498117175586
  C   3.38654369911476      1.10975840938396      0.13488424054119
  C   2.44928666126479      2.09845341842898      0.03815507893605
  C   -2.46289468162238      2.04135517271917     -0.30001789986739
  C   -3.39683618609890      1.02673545463538     -0.29984380608638
  C   -3.01801075413951     -0.31592661952669     -0.19636320777269
  C   -1.67354723660915     -0.65899577804680     -0.08060747374900
  N   3.98114333319461     -1.22481841522941      0.30179875699096
  C   3.91825272673362     -2.36887552116595      1.11512747542956
  C   5.09151786758765     -3.11154157437792      0.93834146268377
  C   5.90764741560856     -2.39980313018255     -0.02750094865371
  C   5.20222340464535     -1.24813588812329     -0.39498206538474
  N   -3.98872340926014     -1.31814898865173     -0.20585606440585
  C   -4.07352211578277     -2.37678424608416      0.69878837360839
  C   -5.16341866045513     -3.18542540102966      0.34947560598310
  C   -5.77033673355359     -2.59263589316185     -0.82055836956109
  C   -5.02632479902157     -1.44698548383270     -1.13185329528666
  C   5.66968726885899     -0.39044910622730     -1.37702848963574
  C   6.89754510307072     -0.67908773125147     -1.94583810919209
  C   7.62430322559395     -1.80010091890816     -1.56321041611258
  C   7.12795657247307     -2.67591358537080     -0.61038610058171
  C   5.29215677977731     -4.26612554976361      1.66694520261427
  C   4.31876572058711     -4.66138170263690      2.57123978615631
  C   3.17433194052938     -3.89704443711891      2.76347190202036
  C   2.96041045743718     -2.73227070261546      2.04759152130463
  C   -5.47146626603775     -4.29486432841535      1.12136851971682
  C   -4.69679514180611     -4.57703880734424      2.22955047278469
  C   -3.63154883712803     -3.75046346034690      2.57804166082666
  C   -3.30649595668097     -2.63929021746827      1.82330749163505
  C   -5.32183259401949     -0.66799136789579     -2.23932160657527
  C   -6.39950868445139     -1.04304086110708     -3.01839874856992
  C   -7.16119653144735     -2.16775819105474     -2.71007954158881
  C   -6.84733281545975     -2.95074082397285     -1.61695947202894
  H   -0.88423321719289      3.95036327564591     -2.17804736532442
  H   -0.92572895541443      6.39775380013570     -2.31181112673719
  H   0.82663585712903      6.63371309674388      1.58896708937200
  H   0.83826825757657      4.18172340581247      1.72522907810864
  H   -0.58225642087248      8.59892518530945     -1.59790402676975
  H   1.38409904410022     -1.66259014465926      0.15491927084392
  H   4.43089677021929      1.36860234369602      0.21476969235385
  H   2.74149359941476      3.13779224647818      0.01181398545310
  H   -2.76927390704711      3.07556240459372     -0.35805023095452
  H   -4.44830945898549      1.26717401538274     -0.35455944231290
  H   -1.38987340383606     -1.69988382636178     -0.02110353662917
  H   5.10166929917902      0.46204159947670     -1.71488451318147
  H   7.29059051108509     -0.02403793169359     -2.71051534867181
  H   8.57918537382563     -1.99970159443923     -2.02878172317726
  H   7.68231775973475     -3.56415213774575     -0.34012182261981
  H   6.19644504792985     -4.84655229309282      1.54603948017546
  H   4.45938062793904     -5.56388216427964      3.14923022204058
  H   2.44176308376300     -4.20814505341550      3.49485588537703
  H   2.08837848365953     -2.12732098211465      2.24113688646398
  H   -6.31193564981846     -4.92617012656616      0.86597866540730
  H   -4.92567724615231     -5.43805627707123      2.84172471284893
  H   -3.05133964682665     -3.97538278739329      3.46266605644266
  H   -2.49564818443679     -1.99104668705259      2.12192293749057
  H   -4.73105088111870      0.19712791706400     -2.50154205201980
  H   -6.65299650051114     -0.45069796160905     -3.88693164667754
  H   -7.99977252615361     -2.43174465019117     -3.33898720883428
  H   -7.43054869653257     -3.83303815136395     -1.38973981573223
