65
-108.48206412
C          3.3984855893       -0.0166538412        0.0002837731
C          4.1025561602       -1.1850810604       -0.2944143055
C          5.4799643927       -1.1937451902       -0.2792998921
C          6.1979774415       -0.0308061318        0.0171390594
C          5.4857626653        1.1425920243        0.2873936586
C          4.1099521348        1.1494684505        0.2896397566
C          7.6484249847        0.0103653175        0.0065667745
S          8.4901477549        1.3518383853       -0.4428996067
S          8.5591212906       -1.4096449977        0.4708459403
N          2.0045589822       -0.0117136226       -0.0006937666
C          1.2138045779        0.8079678953        0.7584795198
C         -0.0965545515        0.5244010561        0.4837622117
C         -0.1011851317       -0.5244568982       -0.4903123079
C          1.2065563849       -0.8226385724       -0.7619151772
N         -1.2797784714        1.0937548354        0.9927670472
C         -1.6398482489        2.3837537569        0.5959974267
C         -2.9606430239        2.8371153104        0.5992634333
S         -4.3426563654        1.8083495697        1.0175437168
C         -3.5339160090        0.3833789742        1.6888146124
C         -2.1535524992        0.1977339383        1.6130920849
N         -1.2892376521       -1.0809788396       -1.0025245848
C         -1.6658645425       -2.3655380065       -0.6024005586
C         -2.9915635548       -2.8038661230       -0.6088913431
S         -4.3604599271       -1.7622291784       -1.0393948729
C         -3.5334084344       -0.3457623609       -1.7054104544
C         -2.1512907801       -0.1751278801       -1.6246192258
C         -4.3467260858       -0.5649898492        2.2888384918
C         -3.8092658498       -1.7208179050        2.8254766873
C         -2.4395097427       -1.9045550398        2.7896709112
C         -1.6266535288       -0.9526836801        2.2042472905
C         -0.6601796394        3.2807009049        0.1695736411
C         -0.9739346649        4.5668654192       -0.2286758580
C         -2.2843498641        5.0051156466       -0.2015521415
C         -3.2718171987        4.1311948226        0.2144230848
C         -4.3338810937        0.6119904478       -2.3070629028
C         -3.7823528304        1.7626972741       -2.8404235532
C         -2.4108549553        1.9316882284       -2.7996044478
C         -1.6102710145        0.9703893857       -2.2126459515
C         -0.6978332541       -3.2717826889       -0.1691684600
C         -1.0275431178       -4.5525374876        0.2335549269
C         -2.3428710813       -4.9756937609        0.2044722591
C         -3.3188153617       -4.0925202940       -0.2189690233
H          3.5715703185       -2.0951030280       -0.5210192048
H          6.0008571077       -2.1019548976       -0.5414689670
H          6.0345004246        2.0460769986        0.5034996086
H          3.5859310152        2.0685216434        0.4950970645
H          7.5418672529       -2.1312259414        0.9478940157
H          1.6274463726        1.4882746687        1.4742666415
H          1.6132864526       -1.5062878479       -1.4783636580
H         -5.4119807717       -0.3896630725        2.3082540444
H         -4.4560227756       -2.4612947299        3.2681895300
H         -1.9958565399       -2.7917090555        3.2136688138
H         -0.5584943346       -1.1020554317        2.1937927494
H          0.3658540753        2.9568037967        0.1310936388
H         -0.1854651642        5.2251803673       -0.5590603917
H         -2.5418346033        6.0071926304       -0.5050790867
H         -4.3078280805        4.4348332923        0.2308045900
H         -5.4009466586        0.4483558154       -2.3304432359
H         -4.4195064587        2.5107402049       -3.2844100616
H         -1.9560301720        2.8146495058       -3.2207224721
H         -0.5406329717        1.1090496037       -2.1985507435
H          0.3314580490       -2.9588694593       -0.1292887503
H         -0.2480212964       -5.2186722624        0.5691339769
H         -2.6131345095       -5.9732084021        0.5118306679
H         -4.3582008463       -4.3841436505       -0.2378544384
