65
-108.48300078
C          3.3076454725        0.0364725886       -0.0515109283
C          4.0882896073        0.6071706582        0.9596280335
C          5.4553227274        0.6613783410        0.8383426136
C          6.1021004740        0.1490627102       -0.2953112163
C          5.3134911477       -0.4237073917       -1.3024390131
C          3.9454807953       -0.4795098985       -1.1845800227
C          7.5376622527        0.2191908728       -0.4045991748
S          8.5127341352        0.9197499246        0.7269888881
S          8.2498425638       -0.4958773479       -1.8424651237
N          1.9257657927       -0.0132612947        0.0643648398
C          1.1571117885        0.8342518123        0.8265184582
C         -0.1641534145        0.4879545620        0.6917854906
C         -0.1904886909       -0.6424328861       -0.1976985858
C          1.1025909048       -0.9047085571       -0.5606476015
N         -1.3033192749        1.1042352412        1.1860602882
C         -1.3859891327        2.4794473597        1.4621551881
C         -2.4788766363        3.2128570217        0.9963634692
S         -3.7808021336        2.4050903809        0.0950355125
C         -3.7069746511        0.8399765262        0.9251519155
C         -2.4762309457        0.3539449085        1.3617620445
N         -1.3500948300       -1.2871616766       -0.6767580277
C         -2.1439307288       -0.5546977670       -1.5606463854
C         -3.4346635056       -0.9373180144       -1.9296626271
S         -4.2021501671       -2.4158051351       -1.3310048858
C         -2.8385466406       -3.2295010502       -0.5442578872
C         -1.6234657980       -2.5936178970       -0.2767145705
C         -4.8650921973        0.1060633083        1.1170619676
C         -4.8040207368       -1.1262475995        1.7431995343
C         -3.5887414128       -1.6092456481        2.2008292893
C         -2.4352100992       -0.8685555512        2.0252491727
C         -0.4368847766        3.1333248848        2.2412743274
C         -0.5257410620        4.4952893531        2.4677933507
C         -1.5837606915        5.2228812693        1.9503093460
C         -2.5742558666        4.5741172675        1.2352010596
C         -3.0648262398       -4.5373330581       -0.1478144543
C         -2.1016739709       -5.2452236873        0.5482917631
C         -0.9054968298       -4.6219840409        0.8495428602
C         -0.6716691678       -3.3222293618        0.4395950141
C         -1.6449854411        0.6220068197       -2.1235493770
C         -2.4049673323        1.3997150162       -2.9773462719
C         -3.6896415666        1.0167644871       -3.3122541090
C         -4.1919832812       -0.1622037714       -2.7920296475
H          3.6228744271        0.9874042562        1.8539497421
H          6.0513653437        1.0953614945        1.6262765404
H          5.7841375973       -0.8175912580       -2.1904303400
H          3.3641257586       -0.9030469846       -1.9869830140
H          9.5101888154       -0.2056205403       -1.5315441808
H          1.6043668481        1.6683129743        1.3207199582
H          1.4712365606       -1.6899618404       -1.1881079768
H         -5.8021737215        0.4978805391        0.7523302332
H         -5.7041104753       -1.7064111336        1.8710367407
H         -3.5358613880       -2.5680832463        2.6929724126
H         -1.4858671036       -1.2393392320        2.3815291194
H          0.3592497479        2.5658307613        2.6916152777
H          0.2301056777        4.9856582106        3.0612389247
H         -1.6524414399        6.2856475178        2.1198489450
H         -3.4247016857        5.1135834905        0.8481841921
H         -4.0191268895       -4.9849562690       -0.3811524916
H         -2.2927683198       -6.2605857938        0.8565934901
H         -0.1430281147       -5.1442962134        1.4065301955
H          0.2655017732       -2.8558419826        0.6946397895
H         -0.6425534554        0.9385466352       -1.8840723815
H         -1.9847174246        2.3101488457       -3.3758330734
H         -4.2954058287        1.6200287253       -3.9691736529
H         -5.1886718371       -0.4955928957       -3.0399094853
