65
-108.48189496
C          3.3848792032       -0.0154649206        0.0058225855
C          4.0897308387       -1.1728077634       -0.3322113204
C          5.4653803505       -1.1739209844       -0.3321680321
C          6.1853952035       -0.0169000678       -0.0150857749
C          5.4742154050        1.1367149207        0.3307719727
C          4.0970173957        1.1355174375        0.3475042530
C          7.6351144982       -0.0668612405       -0.0100023152
S          8.4708636731       -1.4328503835        0.3727609684
S          8.5540018300        1.3682445813       -0.4082220313
N          1.9916920663       -0.0114184929        0.0076457369
C          1.1988086964        0.7857939103        0.7884279673
C         -0.1119534298        0.5098982384        0.5055489373
C         -0.1149199449       -0.5187048560       -0.4917177943
C          1.1941895921       -0.8035301399       -0.7733628764
N         -1.2893514824        1.0884330706        1.0148587570
C         -1.5928156859        2.4159332846        0.6989358059
C         -2.8951859722        2.9200943080        0.7234497044
S         -4.3217552537        1.9166221173        1.0415172202
C         -3.5774615546        0.4299943942        1.6475445620
C         -2.2037611996        0.1961766470        1.5790011226
N         -1.2959871928       -1.0874990660       -1.0037518949
C         -2.2008318016       -0.1875376388       -1.5714827038
C         -3.5760829707       -0.4098357527       -1.6451866991
S         -4.3351589838       -1.8905137014       -1.0419335869
C         -2.9185342168       -2.9048814353       -0.7157878022
C         -1.6119827077       -2.4115812566       -0.6870601482
C         -4.4340462476       -0.5152009202        2.1884006715
C         -3.9486721229       -1.7177078210        2.6690935354
C         -2.5864066144       -1.9519821381        2.6397836682
C         -1.7294261391       -1.0020791939        2.1171267056
C         -0.5776585951        3.3019121742        0.3370355808
C         -0.8376948178        4.6249700107        0.0312171903
C         -2.1289784048        5.1136690004        0.0890317434
C         -3.1525864370        4.2505703390        0.4340787490
C         -3.1884194165       -4.2324041357       -0.4245205960
C         -2.1735905685       -5.1034561604       -0.0734944051
C         -0.8783975326       -4.6256955555       -0.0118498644
C         -0.6058593225       -3.3055666641       -0.3194851106
C         -1.7143609311        1.0066370132       -2.1078209078
C         -2.5613021716        1.9636439287       -2.6338182157
C         -3.9253631442        1.7408251057       -2.6682870551
C         -4.4226562278        0.5425019959       -2.1893584508
H          3.5607902692       -2.0799247871       -0.5746176452
H          6.0083840142       -2.0708636752       -0.5866526751
H          6.0004717379        2.0302626803        0.6299978609
H          3.5725975704        2.0389347378        0.6123876194
H          7.5409573003        2.1175470778       -0.8501194523
H          1.6105684879        1.4403153024        1.5287168616
H          1.6029920482       -1.4629885527       -1.5110305060
H         -5.4920240837       -0.2999051414        2.2047619249
H         -4.6293282416       -2.4554409892        3.0629271498
H         -2.1825082014       -2.8773990308        3.0199537239
H         -0.6675190047       -1.1924088073        2.1135803660
H          0.4346067657        2.9425393479        0.2725771155
H         -0.0217474371        5.2722347511       -0.2504279792
H         -2.3443013031        6.1452428199       -0.1389858768
H         -4.1762634757        4.5920319466        0.4670178623
H         -4.2147924147       -4.5654559375       -0.4606632600
H         -2.3983872028       -6.1326627737        0.1561579995
H         -0.0688124180       -5.2790965056        0.2743460854
H          0.4095640722       -2.9554106264       -0.2518505080
H         -0.6509077133        1.1874682718       -2.1003421834
H         -2.1483452657        2.8855023649       -3.0126775886
H         -4.5984027885        2.4840442619       -3.0648015063
H         -5.4822462572        0.3357849369       -2.2097252294
