65
-108.48161173
C          3.4026691431       -0.0093940034       -0.0004401141
C          4.1117282101        0.2878465850        1.1639174884
C          5.4894647975        0.2678211048        1.1670327220
C          6.2011399257       -0.0365934795        0.0026058403
C          5.4838507007       -0.3094502589       -1.1666882452
C          4.1076035622       -0.3064261379       -1.1681684169
C          7.6522965465       -0.0314858171       -0.0436925109
S          8.4898029176        0.4209735129       -1.3861751774
S          8.5644712225       -0.5064234514        1.3713566838
N          2.0073603988       -0.0037206963        0.0004488395
C          1.2153119807        0.7623990240        0.8122976634
C         -0.0943224347        0.5034270869        0.5117183427
C         -0.0974303145       -0.4946933225       -0.5136155555
C          1.2105980744       -0.7635041862       -0.8125199070
N         -1.2791343549        1.0517986559        1.0429868360
C         -1.6506977970        2.3458054824        0.6702468425
C         -2.9742467585        2.7904544281        0.6845495297
S         -4.3486086053        1.7480175502        1.0945340937
C         -3.5296116194        0.3058980069        1.7152676675
C         -2.1482962369        0.1305348294        1.6322112522
N         -1.2859156105       -1.0345085142       -1.0454159576
C         -2.1471043203       -0.1077441217       -1.6371443864
C         -3.5295884330       -0.2734072582       -1.7225410685
S         -4.3596509853       -1.7094416660       -1.1030299634
C         -2.9933447035       -2.7614769253       -0.6898206524
C         -1.6667571086       -2.3261960953       -0.6738135588
C         -4.3365335863       -0.6663618154        2.2841756025
C         -3.7923869623       -1.8360193037        2.7827934888
C         -2.4218122353       -2.0110760207        2.7394022428
C         -1.6149542866       -1.0364323177        2.1838728365
C         -0.6772357480        3.2569313963        0.2594934113
C         -1.0003756460        4.5478393183       -0.1152903036
C         -2.3138707190        4.9761366770       -0.0805928903
C         -3.2948046131        4.0885359272        0.3216233778
C         -3.3235812877       -4.0570022903       -0.3264260962
C         -2.3494510039       -4.9511659017        0.0777970112
C         -1.0329626690       -4.5322717568        0.1135845555
C         -0.7001940438       -3.2439091046       -0.2615466736
C         -1.6047099096        1.0553563028       -2.1881992319
C         -2.4038176384        2.0354903988       -2.7453264290
C         -3.7755185683        1.8700956557       -2.7908841899
C         -4.3286930243        0.7043537966       -2.2929506851
H          3.5847032181        0.5182696737        2.0752799521
H          6.0151886888        0.5314172448        2.0720562459
H          6.0281059548       -0.5314423054       -2.0714530048
H          3.5786528056       -0.5121037308       -2.0843364673
H          7.5458666325       -0.9771765724        2.0952801552
H          1.6270652631        1.4535839788        1.5185390906
H          1.6188973527       -1.4560934326       -1.5195041986
H         -5.4027483310       -0.4976370949        2.3099355174
H         -4.4347112902       -2.5939419878        3.2018330029
H         -1.9728435339       -2.9093873616        3.1332485031
H         -0.5463561522       -1.1812617665        2.1651166826
H          0.3515597244        2.9422046817        0.2155962170
H         -0.2164269817        5.2173211975       -0.4338051631
H         -2.5787419033        5.9812786644       -0.3672235131
H         -4.3328475322        4.3848027778        0.3446763902
H         -4.3636486167       -4.3458408009       -0.3509740698
H         -2.6218994659       -5.9541747742        0.3647203277
H         -0.2542234799       -5.2073058447        0.4329448854
H          0.3307412814       -2.9363596693       -0.2178345544
H         -0.5350621479        1.1927947374       -2.1683637996
H         -1.9476505592        2.9303946358       -3.1388274384
H         -4.4116812699        2.6324974060       -3.2112396989
H         -5.3960673029        0.5432925138       -2.3205951510
