65
-108.48270838
C          3.2661821328       -0.0773482342        0.0634910639
C          4.0316506455       -0.7603073892       -0.8884450680
C          5.3957898424       -0.8453466005       -0.7560697830
C          6.0560568628       -0.2538197193        0.3305569930
C          5.2831945889        0.4328866637        1.2771067333
C          3.9180999723        0.5201520215        1.1478723224
C          7.4873950256       -0.3611858926        0.4548342880
S          8.4439598096       -1.1858192425       -0.6072540649
S          8.2176679880        0.4472772622        1.8334438844
N          1.8874635821        0.0005319261       -0.0619010304
C          1.0848924199        0.9547306229        0.4918373185
C         -0.2152280092        0.7014537803        0.1440398409
C         -0.2156260988       -0.4897758891       -0.6622040247
C          1.0976425450       -0.8800704953       -0.7624216265
N         -1.3429153932        1.4311898713        0.5776754712
C         -1.5560295952        2.7128845992        0.0731969700
C         -2.7108591731        3.4537597361        0.3380702007
S         -4.0798981645        2.8194564122        1.2674447162
C         -3.4247641045        1.2932207308        1.8783667623
C         -2.1735339761        0.7996257609        1.5041991005
N         -1.3427901636       -1.1480885818       -1.1190783332
C         -2.5871396527       -0.5013784109       -1.1866155150
C         -3.7232091599       -1.1056178833       -0.6525671313
S         -3.5781428147       -2.6966725544        0.1165569197
C         -2.3200707259       -3.3552053296       -0.9539388711
C         -1.3388698669       -2.5095314434       -1.4721634113
C         -4.2288601237        0.6036816139        2.7703122727
C         -3.8110874118       -0.5928359450        3.3244854262
C         -2.5600852554       -1.0779493919        2.9957522291
C         -1.7553489923       -0.3883891703        2.1076674929
C         -0.6004268292        3.3073758923       -0.7544258680
C         -0.7684546816        4.5803063621       -1.2677150615
C         -1.9025046740        5.3107179618       -0.9669448050
C         -2.8716110684        4.7344215934       -0.1658789197
C         -2.3333618528       -4.7035397416       -1.2721293368
C         -1.3717230003       -5.2214352647       -2.1210215360
C         -0.4282713866       -4.3796363147       -2.6863355433
C         -0.4212126537       -3.0310013197       -2.3781191360
C         -2.7179798780        0.7202200680       -1.8388441478
C         -3.9450326341        1.3537321588       -1.8930982392
C         -5.0610158544        0.7641841216       -1.3207938401
C         -4.9539371970       -0.4743960816       -0.7140533404
H          3.5565190703       -1.2064355213       -1.7463806227
H          5.9797078083       -1.3672248240       -1.4984750113
H          5.7640899292        0.8915748577        2.1277520252
H          3.3491511268        1.0331830614        1.9056406865
H          9.4685077823        0.0894369074        1.5565360538
H          1.4689616036        1.7778620239        1.0584392632
H          1.5134284566       -1.7673988340       -1.1872427147
H         -5.1933644182        1.0208853407        3.0187141407
H         -4.4527862125       -1.1278286179        4.0059960840
H         -2.2017140432       -2.0010132534        3.4242909134
H         -0.7807090893       -0.7856416414        1.8740864152
H          0.2883309908        2.7556038913       -1.0127491446
H         -0.0039974542        4.9963661621       -1.9055797463
H         -2.0418776524        6.3069473854       -1.3549419413
H         -3.7803989617        5.2666559303        0.0717096835
H         -3.0956555840       -5.3353780818       -0.8437709122
H         -1.3745713295       -6.2740670881       -2.3554528015
H          0.3002202396       -4.7709744998       -3.3792239498
H          0.2830973604       -2.3695590777       -2.8550424824
H         -1.8455151131        1.1739464860       -2.2846252212
H         -4.0274623740        2.3136423718       -2.3794214742
H         -6.0156947194        1.2650537460       -1.3504826633
H         -5.8139385607       -0.9531418509       -0.2718136780
