63
-102.02928638
C          3.0935365206        0.0256981312        0.0016215706
C          3.8105671748       -1.1737999194        0.0305419374
C          5.1855651746       -1.1650737151        0.0292474473
C          5.8980870408        0.0406441333        0.0002575346
C          5.1712447390        1.2386458669       -0.0281807955
C          3.7970959092        1.2333836115       -0.0280734442
C          7.3415389581        0.0684149329       -0.0000790285
S          8.2320780926        1.4560302692        0.0064079023
S          8.1534688078       -1.4873680078       -0.0088772565
N          1.7034754930        0.0175700717        0.0023744978
C          0.9119186781       -0.9901273400       -0.4794491770
C         -0.4008592972       -0.6345466279       -0.3183108792
C         -0.4077962109        0.6472876495        0.3220091354
C          0.9010760186        1.0167002050        0.4838440338
N         -1.5319570868       -1.3643109790       -0.6746476814
C         -2.6508486427       -0.8382626607       -1.2891480973
C         -3.6991664306       -1.7845152937       -1.2448510980
C         -3.1757286470       -2.9406486068       -0.5720030906
C         -1.8375689396       -2.6370824945       -0.2331719292
N         -1.5465848301        1.3658159642        0.6767458362
C         -2.6616805758        0.8291307089        1.2890250280
C         -3.7188453555        1.7653700933        1.2425938262
C         -3.2049260366        2.9266489001        0.5713020551
C         -1.8633058948        2.6356583230        0.2349614787
C         -4.9346680607       -1.4738356942       -1.7962378081
C         -5.1034443872       -0.2371633683       -2.3869400395
C         -4.0520602481        0.6738643267       -2.4578690633
C         -2.8117554324        0.3840953826       -1.9241592823
C         -1.0482010411       -3.5398314733        0.4628224479
C         -1.6071362323       -4.7576734399        0.8008428142
C         -2.9203897183       -5.0732072100        0.4588844731
C         -3.7143840441       -4.1719123934       -0.2228413916
C         -4.9526794547        1.4426680533        1.7908677305
C         -5.1109497985        0.2043119072        2.3809174931
C         -4.0509724991       -0.6965234970        2.4543526840
C         -2.8122805185       -0.3948108437        1.9235470592
C         -1.0811601667        3.5458288478       -0.4595523223
C         -1.6506701117        4.7585488011       -0.7982568953
C         -2.9673278839        5.0618849368       -0.4583635769
C         -3.7541892949        4.1530507997        0.2216238631
H          3.2879704165       -2.1150723191        0.0757215565
H          5.7204986165       -2.1020247721        0.0604631187
H          5.7081981484        2.1740796554       -0.0592045049
H          3.2649044821        2.1694136458       -0.0725719542
H          9.3908831709       -0.9989080191       -0.0007694244
H          1.3184099294       -1.8601268771       -0.9515131164
H          1.2982487508        1.8912169833        0.9556319004
H         -5.7446989568       -2.1867562330       -1.7610730006
H         -6.0600177903        0.0275525677       -2.8123837525
H         -4.2075031661        1.6263643900       -2.9425539096
H         -1.9987779114        1.0892091476       -2.0053306025
H         -0.0349291711       -3.2954130441        0.7420959023
H         -1.0151294344       -5.4799062987        1.3431029716
H         -3.3211878913       -6.0362810691        0.7380844246
H         -4.7352024680       -4.4136966043       -0.4778549987
H         -5.7693284924        2.1479207610        1.7540446772
H         -6.0659700891       -0.0695643028        2.8040240769
H         -4.1984630067       -1.6504682902        2.9386010422
H         -1.9926925004       -1.0919593917        2.0064093129
H         -0.0650168941        3.3110819684       -0.7369534522
H         -1.0642707800        5.4863281609       -1.3392936254
H         -3.3763898253        6.0213358168       -0.7380784762
H         -4.7776820044        4.3854249654        0.4746439694
