64
-111.20532054
C          2.6166339515       -0.0048978108        0.2485720008
C          3.3207354179       -1.2085422544        0.2206151035
C          4.6962486285       -1.2043312589        0.1823176023
C          5.4065798790        0.0032383056        0.1702720862
C          4.6908994956        1.2067332208        0.1949018796
C          3.3146862544        1.2022701665        0.2332823860
C          6.8557338894       -0.0119909074        0.1315398280
S          7.7515602577       -1.3921840771        0.0863997376
S          7.6521018095        1.5467438961        0.1354534175
C          1.1511752481       -0.0089483738        0.3030765353
N          0.5359562778        1.1640125839        0.3678266471
C         -0.7973254252        1.1051199663        0.4620656746
N         -1.5109195763       -0.0209587762        0.4660049459
C         -0.7964368519       -1.1381336189        0.3484296058
N          0.5406809433       -1.1845989320        0.2875052533
N         -1.4565782765       -2.3154233191        0.2352261480
C         -0.7456154087       -3.5238380097        0.0516977525
C         -1.0841416574       -4.3765877493       -0.9948511710
S         -2.4104576848       -3.9539819301       -2.0923628714
C         -3.4372309885       -3.0897602936       -0.9332335200
C         -2.8636424848       -2.3709112472        0.1125661473
N         -1.4724546709        2.2768861009        0.5132752102
C         -0.8289269565        3.5141159656        0.2814538396
C         -1.3604879692        4.3927881465       -0.6593827338
S         -2.8377569107        3.9655926196       -1.5454449337
C         -3.6419226160        3.0416934612       -0.2636432731
C         -2.8795776715        2.3055617189        0.6376972515
C         -4.8152043046       -3.1393116045       -1.0814846601
C         -5.6273231343       -2.4739672498       -0.1821787615
C         -5.0639870920       -1.7861463857        0.8799925740
C         -3.6902786047       -1.7444465061        1.0344249667
C          0.2742217893       -3.8906389241        0.9202043207
C          0.9772859346       -5.0636522226        0.7132905177
C          0.6532529957       -5.8944192035       -0.3476594737
C         -0.3862422840       -5.5587330054       -1.1945551243
C         -5.0243910802        3.0694739085       -0.1565645401
C         -5.6472693447        2.3743273085        0.8631431365
C         -4.8899209631        1.6785703448        1.7918487970
C         -3.5117062166        1.6508365829        1.6851276694
C          0.3073491736        3.8834976346        0.9884700073
C          0.9316162238        5.0887520263        0.7199508544
C          0.4138801965        5.9463925691       -0.2373712521
C         -0.7399627259        5.6057225495       -0.9185586492
H          2.7682791671       -2.1349825488        0.2278905235
H          5.2430419439       -2.1347060825        0.1615107610
H          5.2203480338        2.1477099238        0.1830693688
H          2.7569350686        2.1251949983        0.2489723476
H          8.8942910804        1.0686778620        0.0961317833
H         -5.2327569777       -3.6948721552       -1.9064015195
H         -6.6980125542       -2.5041581181       -0.3057458575
H         -5.6950514030       -1.2827662826        1.5940787990
H         -3.2439047246       -1.2150419798        1.8584071281
H          0.5210515516       -3.2385580163        1.7424095310
H          1.7781747858       -5.3292940959        1.3851485614
H          1.2027649846       -6.8076363486       -0.5114660365
H         -0.6626273203       -6.1969005862       -2.0190170804
H         -5.5947756785        3.6357789756       -0.8757692199
H         -6.7225633797        2.3911975826        0.9408110388
H         -5.3711441238        1.1647768671        2.6086786181
H         -2.9090617644        1.1218423426        2.4058792027
H          0.7028105138        3.2104059386        1.7312352298
H          1.8228980483        5.3584579620        1.2640912824
H          0.9014754979        6.8846636413       -0.4486413125
H         -1.1661759541        6.2644572074       -1.6586868436
