75
-122.29479781
C          0.0050653850        4.0119286585       -1.0359574214
C          0.7578698618        4.9293314186       -0.3043255343
C          0.7650593637        6.2625292637       -0.6576970199
C          0.0118798228        6.7018689732       -1.7403469616
C         -0.7457271334        5.7954034939       -2.4703484661
C         -0.7436231325        4.4593949963       -2.1225658320
S          0.0523778906        8.4246349652       -2.1464619795
N          0.0020041580        2.6596005384       -0.6849088058
C         -1.1143921583        1.8488123424       -0.5766147624
C         -0.7163806019        0.5470351612       -0.2050686818
C          0.7133823373        0.5757793071       -0.0840777312
C          1.1156472333        1.8940313652       -0.3865377197
C         -1.6490182403       -0.4576244174       -0.0060892283
C         -2.9995772856       -0.1796159573       -0.1956346375
C         -3.3834322137        1.1390703470       -0.4955890830
C         -2.4634415242        2.1500121969       -0.6847724768
C          2.4656189461        2.2063630744       -0.4348746361
C          3.3821890340        1.2271328681       -0.1108022302
C          2.9941076253       -0.0715935756        0.2620997883
C          1.6427552677       -0.4029220860        0.2278490821
N         -3.9664853275       -1.1656038462        0.0037577773
C         -3.6458190835       -2.4599760503        0.4556640884
C         -4.2930016291       -2.9829436753        1.5741801754
S         -5.5375513895       -2.0076750284        2.3851607101
C         -6.2091669963       -1.2647364893        0.9170912152
C         -5.3458129308       -0.9204004535       -0.1218564405
N          3.9586008973       -1.0333624505        0.5647390078
C          3.6368725512       -2.3856899153        0.7885747414
C          4.2881668455       -3.3813063086        0.0618486521
S          5.5380377616       -2.9147985124       -1.1120752874
C          6.2050954069       -1.5581747856       -0.1780310185
C          5.3379469214       -0.7579297737        0.5641985082
C         -2.7398797582       -3.2689194527       -0.2258678254
C         -2.4270131443       -4.5280881197        0.2527434180
C         -3.0391393253       -5.0146525541        1.3969766796
C         -3.9914857326       -4.2499890018        2.0460550012
C         -7.5729811258       -1.0457682449        0.8136976247
C         -8.0913839619       -0.4823145974       -0.3381604167
C         -7.2491827142       -0.1738396455       -1.3949407283
C         -5.8895207958       -0.4039151142       -1.2954435737
C          7.5687964756       -1.3155331022       -0.1863539961
C          8.0831433296       -0.2681346382        0.5562153159
C          7.2370089593        0.5089805144        1.3317436130
C          5.8774141676        0.2586205412        1.3485832572
C          2.7265448032       -2.7684699782        1.7706021291
C          2.4137063447       -4.1030018247        1.9541464399
C          3.0302667629       -5.0790150932        1.1873825600
C          3.9868232978       -4.7194770100        0.2553338964
H          1.3241744916        4.5951871402        0.5509988533
H          1.3471324913        6.9732626804       -0.0908016748
H         -1.3294178308        6.1275736232       -3.3157080766
H         -1.3129145444        3.7520328016       -2.7053195301
H         -0.7717455817        8.3460551058       -3.1864967042
H         -1.3146361399       -1.4278978285        0.3222589804
H         -4.4316209100        1.3864900682       -0.5485472768
H         -2.8023101625        3.1539006767       -0.8891351745
H          2.8078676279        3.1835643189       -0.7390115467
H          4.4311805161        1.4668036730       -0.1812818400
H          1.3053286924       -1.4102673377        0.4079417827
H         -2.2820787274       -2.8991738959       -1.1305880653
H         -1.7062856133       -5.1331190402       -0.2752792819
H         -2.7908310611       -5.9943060361        1.7735648834
H         -4.5000181017       -4.6195784302        2.9229981190
H         -8.2129660692       -1.3110015830        1.6409130482
H         -9.1514537793       -0.2990632491       -0.4145791266
H         -7.6532765858        0.2414609170       -2.3050822110
H         -5.2330975214       -0.1812564160       -2.1227794578
H          8.2118997630       -1.9445575334       -0.7821301626
H          9.1431101506       -0.0697312925        0.5399301522
H          7.6378000614        1.3104044441        1.9327697477
H          5.2176618120        0.8510078571        1.9640812402
H          2.2657884684       -2.0100540998        2.3848612173
H          1.6896772883       -4.3804655991        2.7045590385
H          2.7822923935       -6.1193334761        1.3267887958
H          4.4989647796       -5.4645201664       -0.3335911137
