75
-122.30309268
C          0.0081998052        4.0967259315        0.1731731331
C          0.7330610208        4.8316247181       -0.7609892459
C          0.7351554989        6.2102701215       -0.7053692911
C          0.0057251650        6.8703072027        0.2776709670
C         -0.7224589350        6.1404891835        1.2088676837
C         -0.7162335143        4.7603217173        1.1584184431
S          0.0385197653        8.6384233883        0.2974508406
N          0.0067318785        2.6920668182        0.1209645376
C         -1.1123641505        1.8887206989        0.1153045573
C         -0.7144309209        0.5316125557        0.0475955072
C          0.7199105290        0.5301597233        0.0201978673
C          1.1228163617        1.8869551874        0.0605842531
C         -1.6671534085       -0.4759297720        0.0016337934
C         -3.0042694000       -0.1153436586        0.0277261830
C         -3.3903998827        1.2267304249        0.0816316973
C         -2.4555443123        2.2413409970        0.1193902214
C          2.4673220542        2.2339830472        0.0812183266
C          3.3984670122        1.2163558852        0.0329255445
C          3.0072965713       -0.1242752156       -0.0212610177
C          1.6689451428       -0.4810928763       -0.0186765593
N         -4.0265369977       -1.1119700709       -0.0245869481
C         -4.5277663949       -1.4426461177       -1.2793864219
C         -5.6287005991       -2.2838108579       -1.4612866429
S         -6.5392956577       -2.9607525674       -0.0972002767
C         -5.3965193813       -2.7014239680        1.2358404783
C         -4.3298001267       -1.8024472288        1.1437229562
N          4.0247750813       -1.1265335988       -0.0599686392
C          4.5329417065       -1.5648562738        1.1584080528
C          5.6247508533       -2.4310220027        1.2607367707
S          6.5149294557       -3.0077996942       -0.1616413807
C          5.3730558607       -2.6136602761       -1.4618293474
C          4.3178914171       -1.7134960033       -1.2860299946
C         -3.9230913641       -0.9265179377       -2.4282026449
C         -4.3949632424       -1.2278072056       -3.6928079534
C         -5.4791161991       -2.0700722874       -3.8532382593
C         -6.0880964354       -2.5991590192       -2.7286761022
C         -5.6487962598       -3.3972544625        2.4057722701
C         -4.8664227876       -3.1979448743        3.5298796981
C         -3.8289620048       -2.2868043779        3.4684145430
C         -3.5632172243       -1.6050368322        2.2947286765
C          5.6141909020       -3.2046976133       -2.6903053205
C          4.8319972806       -2.8961849544       -3.7895671645
C          3.8060411212       -1.9817398250       -3.6433317296
C          3.5515172294       -1.4046098235       -2.4124654711
C          3.9445349622       -1.1373417043        2.3512460836
C          4.4231868495       -1.5463943484        3.5826012749
C          5.4982794607       -2.4113188187        3.6635980867
C          6.0910502421       -2.8537796957        2.4938816539
H          1.2828862302        4.3214588681       -1.5364542295
H          1.2950482184        6.7840214694       -1.4278006066
H         -1.2876909277        6.6453206280        1.9773507060
H         -1.2654491397        4.1929226602        1.8935949677
H         -0.7593780565        8.7846069870        1.3507297857
H         -1.3805508740       -1.5147647511       -0.0573013245
H         -4.4438070435        1.4609527263        0.0835013588
H         -2.7642261416        3.2741437287        0.1391781744
H          2.7798511162        3.2640830975        0.1426260451
H          4.4527408393        1.4464328664        0.0451412204
H          1.3788004428       -1.5202905495       -0.0441694959
H         -3.0713517729       -0.2732971988       -2.3263463840
H         -3.9042577838       -0.8005180541       -4.5536489988
H         -5.8526846906       -2.3134152191       -4.8349894758
H         -6.9412492288       -3.2546706463       -2.8186187595
H         -6.4802710591       -4.0856917764        2.4259086529
H         -5.0764156904       -3.7404645459        4.4377258589
H         -3.2143087422       -2.1012409391        4.3357301041
H         -2.7493138318       -0.8985411425        2.2710447268
H          6.4369042495       -3.8987881430       -2.7746248748
H          5.0332217654       -3.3578190948       -4.7429732229
H          3.1917482977       -1.7116208955       -4.4884204640
H          2.7465495457       -0.6931218769       -2.3233314052
H          3.1001476084       -0.4680814254        2.3108284847
H          3.9450472133       -1.1852391087        4.4800044909
H          5.8772062746       -2.7384372766        4.6186029976
H          6.9366625202       -3.5244805755        2.5218753447
