75
-122.30317763
C          0.0247366289        4.0608753164        0.0128110149
C          0.7713864207        4.7457969295        0.9662884529
C          0.7918932272        6.1267316672        0.9755548337
C          0.0561711631        6.8360338545        0.0344676009
C         -0.6941410257        6.1546976801       -0.9178832393
C         -0.7066476409        4.7750697035       -0.9322329144
S          0.0392866869        8.6041679854        0.0033644107
N          0.0078151022        2.6552504525        0.0047464344
C         -1.1199569387        1.8647247297       -0.0058139146
C         -0.7364465553        0.5015948984       -0.0084379794
C          0.6980495256        0.4834976190       -0.0065454688
C          1.1148493437        1.8361014103        0.0055933101
C         -1.7012471187       -0.4957853157        0.0021683606
C         -3.0338404007       -0.1185190757        0.0164033191
C         -3.4047355662        1.2287893129        0.0364781269
C         -2.4583338103        2.2331225233        0.0311738797
C          2.4628343351        2.1717354420       -0.0262256157
C          3.3832974025        1.1449582741       -0.0430829556
C          2.9775698415       -0.1948947864       -0.0384126852
C          1.6381692003       -0.5383491305       -0.0262728133
N         -4.0684648270       -1.1040246123        0.0290533715
C         -4.5306216107       -1.5298823821        1.2696275477
C         -5.6402952015       -2.3655711185        1.4218465982
S         -6.6154447710       -2.9082220362        0.0421897512
C         -5.5243100266       -2.5466167708       -1.3100736588
C         -4.4337717303       -1.6814756568       -1.1817909890
N          3.9633902170       -1.2300857657       -0.0555876136
C          4.4659405390       -1.6538618158        1.1696918081
C          5.3845081254       -2.6995985815        1.2963807460
S          5.9487218225       -3.6466824628       -0.0942247775
C          5.4248382696       -2.6220976276       -1.4451472071
C          4.4971012589       -1.5883189945       -1.2886066305
C         -3.8766806586       -1.1197141891        2.4339816200
C         -4.3073178601       -1.5199957865        3.6858046453
C         -5.3993921812       -2.3572160521        3.8158914830
C         -6.0590531916       -2.7794883432        2.6748385104
C         -5.8399603032       -3.1264304205       -2.5269297972
C         -5.0976987878       -2.8415164175       -3.6598077292
C         -4.0342193611       -1.9645474712       -3.5586214054
C         -3.7056337044       -1.3989417597       -2.3399772332
C          5.9522416915       -2.9292892786       -2.6878477188
C          5.5543000915       -2.2350595725       -3.8170825845
C          4.6174353734       -1.2274778987       -3.6858840256
C          4.1023838489       -0.9072810298       -2.4428657447
C          4.0482600761       -1.0271362733        2.3463841730
C          4.5253983251       -1.4170225907        3.5845559858
C          5.4479013584       -2.4409511102        3.6883161657
C          5.8739420466       -3.0768941825        2.5352919931
H          1.3262182235        4.1947798263        1.7096700005
H          1.3736263446        6.6483415422        1.7201370913
H         -1.2593471987        6.7124985837       -1.6486115722
H         -1.2737065424        4.2475239253       -1.6832799631
H          0.8484047460        8.7733606891        1.0445657648
H         -1.4271351600       -1.5395997411        0.0027325382
H         -4.4551403440        1.4747368150        0.0634918161
H         -2.7540736824        3.2694468533        0.0649624418
H          2.7840664107        3.2007307228       -0.0488530231
H          4.4399356202        1.3648624856       -0.0657175281
H          1.3390563873       -1.5747517471       -0.0353826320
H         -3.0190884174       -0.4710542398        2.3547759786
H         -3.7783757366       -1.1738371983        4.5602940262
H         -5.7409803922       -2.6775143373        4.7871500771
H         -6.9208161971       -3.4264235149        2.7417938345
H         -6.6883070015       -3.7925245725       -2.5749418244
H         -5.3573543134       -3.2932424090       -4.6037966511
H         -3.4481171581       -1.7154778822       -4.4297787517
H         -2.8716296105       -0.7180152565       -2.2846715713
H          6.6705674750       -3.7323793067       -2.7574168957
H          5.9672683892       -2.4879271706       -4.7804631689
H          4.2812363082       -0.6790309170       -4.5522492243
H          3.3736270231       -0.1166316137       -2.3643015381
H          3.3314726191       -0.2239064367        2.2879948177
H          4.1712793235       -0.9104755898        4.4690862207
H          5.8301568011       -2.7493826470        4.6481858070
H          6.5853040278       -3.8877724623        2.5819527871
