75
-122.29423667
C          0.0056969386        4.1445031246       -0.0044143061
C         -0.9662867001        4.8439889594       -0.7162551511
C         -0.9689436462        6.2246095961       -0.7280021119
C          0.0103668733        6.9243888464       -0.0352704445
C          0.9859980523        6.2333638513        0.6740477199
C          0.9807468495        4.8541123951        0.6945908449
S          0.0605693060        8.6938482991       -0.0236981469
N          0.0042812102        2.7459444089        0.0065101269
C         -1.0882032520        1.9343143434        0.2569492241
C         -0.6973780058        0.5810803342        0.1740336759
C          0.6993183899        0.5784489562       -0.1549341934
C          1.0943583258        1.9302438252       -0.2415165639
C         -1.6037418377       -0.4419635061        0.3987175785
C         -2.9137667466       -0.1266756301        0.7467634789
C         -3.2903200744        1.2258817175        0.8132799519
C         -2.3977825061        2.2528802713        0.5816044215
C          2.4049514312        2.2440455599       -0.5666095003
C          3.2940348428        1.2137454171       -0.7967643813
C          2.9127740649       -0.1374069087       -0.7288008258
C          1.6021778195       -0.4479284288       -0.3785542851
N         -3.8578331344       -1.1335016519        0.9548030474
C         -5.2098928731       -0.8681947512        1.2388031868
C         -6.2093186197       -1.4367425981        0.4505416689
S         -5.7449911198       -2.4919917563       -0.9018991237
C         -4.3554158483       -3.2582330457       -0.1023088914
C         -3.5637810547       -2.4961755898        0.7553918974
N          3.8528406894       -1.1475902569       -0.9375512591
C          3.5531281306       -2.5097109801       -0.7428298318
C          4.3432677446       -3.2780661478        0.1106005990
S          5.7372874067       -2.5194440796        0.9099907601
C          6.2039255045       -1.4647794628       -0.4421601697
C          5.2051834660       -0.8886047179       -1.2257891214
C         -5.5854053940       -0.1028787868        2.3400734273
C         -6.9211729200        0.1445608115        2.5976593903
C         -7.9035692448       -0.3913548186        1.7798231770
C         -7.5481008446       -1.1991027233        0.7148266159
C         -4.0825193381       -4.5982349744       -0.3236972638
C         -3.0131194459       -5.1952175107        0.3189256629
C         -2.2504513284       -4.4627341426        1.2147838376
C         -2.5333493705       -3.1289846607        1.4462084121
C          7.5432040413       -1.2359258761       -0.7113988676
C          7.8998582253       -0.4291243635       -1.7767231225
C          6.9178377425        0.1149013899       -2.5896403432
C          5.5814512832       -0.1238737875       -2.3271909538
C          2.5195863759       -3.1359009329       -1.4350024428
C          2.2328556293       -4.4698065455       -1.2093113203
C          2.9941491905       -5.2086971568       -0.3175190270
C          4.0660908182       -4.6180264632        0.3267306931
H         -1.7124515491        4.3007720815       -1.2752219758
H         -1.7274305527        6.7537032705       -1.2851534873
H          1.7408174238        6.7835163089        1.2152547236
H          1.7244001367        4.3203064234        1.2657010835
H         -1.0075942284        8.8726003239       -0.7945497861
H         -1.2823423625       -1.4634698285        0.2799602978
H         -4.3156100116        1.4810684380        1.0280368304
H         -2.7269400086        3.2774948441        0.6594790973
H          2.7378175181        3.2674581787       -0.6453978288
H          4.3202718133        1.4652932119       -1.0113612384
H          1.2779032255       -1.4683063573       -0.2577143083
H         -4.8185672822        0.2976348171        2.9855226826
H         -7.1955737090        0.7528701794        3.4454975590
H         -8.9451868068       -0.1945149861        1.9784554022
H         -8.2973874392       -1.6425519508        0.0775439775
H         -4.7054999840       -5.1565836105       -1.0051585783
H         -2.7887748691       -6.2338023571        0.1339185004
H         -1.4341605962       -4.9319486555        1.7418933390
H         -1.9556706207       -2.5638033959        2.1616077694
H          8.2920330250       -1.6856125598       -0.0779461423
H          8.9420000748       -0.2394459513       -1.9795595770
H          7.1929942298        0.7227362566       -3.4375678682
H          4.8148940703        0.2828332294       -2.9690878681
H          1.9428646045       -2.5655358324       -2.1470354909
H          1.4148022168       -4.9342104785       -1.7379259465
H          2.7669712737       -6.2474849981       -0.1372351278
H          4.6881190942       -5.1813566476        1.0049248817
