75
-122.29895678
C         -0.0577913666        4.0583421428       -0.5546981874
C         -0.8732092960        4.6062472360       -1.5413420544
C         -0.8923315860        5.9703697702       -1.7548916682
C         -0.0854429158        6.8020771808       -0.9891348982
C          0.7351802713        6.2599011104       -0.0063381291
C          0.7457775302        4.8980003511        0.2132621158
S         -0.0641940311        8.5556931419       -1.2243487110
N         -0.0411537342        2.6735982199       -0.3393385978
C         -1.1426911260        1.8618246207       -0.1954317605
C         -0.7191795704        0.5219797677       -0.0140687692
C          0.7156346435        0.5411565159       -0.0388946319
C          1.0926004609        1.8851304115       -0.2417353832
C         -1.6533104431       -0.4880819384        0.1664194594
C         -2.9940535951       -0.1473900532        0.1890844082
C         -3.4045345142        1.1830786003        0.0492901901
C         -2.4903222136        2.1973866378       -0.1461361965
C          2.4314223157        2.2149862980       -0.3853417351
C          3.3725032180        1.2179726932       -0.2398209045
C          3.0192977655       -0.1129143537        0.0491225113
C          1.6704267759       -0.4549515440        0.0972668061
N         -3.9712271326       -1.1720748139        0.3856648230
C         -4.2458022647       -1.5453798652        1.6967963391
C         -5.1110578133       -2.5913717072        2.0294498280
S         -5.9257098224       -3.5830780352        0.8044259108
C         -5.6405502947       -2.6278564945       -0.6634859582
C         -4.6964642046       -1.5981153944       -0.7209564243
N          4.0087413681       -1.0822303013        0.1919364942
C          3.7196438122       -2.4500393004        0.3618787119
C          4.3219883089       -3.3896662960       -0.4733558449
S          5.4603873890       -2.8303035653       -1.7181029447
C          6.1939882525       -1.5316628630       -0.7510396587
C          5.3838949035       -0.7927482795        0.1094554077
C         -3.6437683620       -0.8583596990        2.7543984393
C         -3.8792832779       -1.2038301451        4.0726085848
C         -4.7395413045       -2.2405888759        4.3815911253
C         -5.3575303600       -2.9258520667        3.3502818580
C         -6.3713056899       -2.9943415012       -1.7808533033
C         -6.1658252942       -2.3688676615       -2.9981753459
C         -5.2077374329       -1.3765505208       -3.0843755938
C         -4.4888613221       -0.9973516517       -1.9654086473
C          7.5524084669       -1.2774691458       -0.8453205927
C          8.1185325594       -0.2818872414       -0.0698937519
C          7.3320592958        0.4293854978        0.8227914698
C          5.9782181226        0.1676865554        0.9240120166
C          2.9028807428       -2.9039748350        1.3941384132
C          2.6330761068       -4.2534127981        1.5307588136
C          3.1984703837       -5.1728729985        0.6613744018
C          4.0617130673       -4.7426132638       -0.3298884883
H         -1.4822341663        3.9585604349       -2.1527245793
H         -1.5282308404        6.3827364802       -2.5235856317
H          1.3564626423        6.9126843712        0.5875866029
H          1.3675476531        4.4808761293        0.9899019043
H         -0.9535372646        8.5787935529       -2.2121151569
H         -1.3479542877       -1.5145076969        0.2998826392
H         -4.4596260657        1.4074014036        0.0972060021
H         -2.8171688211        3.2210298961       -0.2381339508
H          2.7415799668        3.2208515676       -0.6217898035
H          4.4108772455        1.4703069083       -0.3820730739
H          1.3542614324       -1.4784281244        0.2129729847
H         -2.9757305773       -0.0405346361        2.5365360302
H         -3.3858481899       -0.6516747996        4.8575467274
H         -4.9312107073       -2.5173361228        5.4059145755
H         -6.0345314732       -3.7414286872        3.5559010343
H         -7.0949049794       -3.7897926945       -1.6834406407
H         -6.7386789957       -2.6653238560       -3.8621741540
H         -5.0128428607       -0.8867704565       -4.0259959412
H         -3.7434363039       -0.2240786545       -2.0577355160
H          8.1504379814       -1.8577214345       -1.5306822060
H          9.1737127527       -0.0743694709       -0.1515366426
H          7.7757139215        1.1872270552        1.4495834133
H          5.3666752469        0.7071006599        1.6310371467
H          2.4823251487       -2.1900282829        2.0856015762
H          1.9839757165       -4.5881202259        2.3250899090
H          2.9833841320       -6.2246508424        0.7651927185
H          4.5329987560       -5.4438309680       -1.0009682930
