63
-104.76878230
C         -3.9343466724        0.0058844216        0.0009341576
C         -4.6387184061       -1.1721640153        0.2399648073
C         -6.0179231858       -1.1691912901        0.2419264455
C         -6.7153600382        0.0090770358       -0.0007960145
C         -6.0184424731        1.1861107539       -0.2427264074
C         -4.6378837814        1.1833503346       -0.2385154370
S         -8.4822337843       -0.0454382407        0.0097848783
N         -2.5327603571        0.0056946052        0.0013745486
C         -1.7419538809       -0.7930686042        0.7753747440
C         -0.4299277682       -0.5077352963        0.4999675609
C         -0.4290011626        0.5136618253       -0.4993386269
C         -1.7405459379        0.8024450241       -0.7734784334
N          0.7327374562        1.0879003400       -1.0451558041
C          1.1244533442        2.3802176841       -0.6764959653
C          2.4752130367        2.7408699211       -0.7464943935
O          3.4606811318        1.8598651160       -1.1362389251
C          3.0567601410        0.6113120309       -1.5502149038
C          1.7135472029        0.2192802783       -1.5322644726
N          0.7305385138       -1.0858604938        1.0442870138
C          1.7143850675       -0.2211570455        1.5320813401
C          3.0559392380       -0.6187429525        1.5511484753
O          3.4550318741       -1.8691162101        1.1377647203
C          2.4663948246       -2.7457880633        0.7463917632
C          1.1171789088       -2.3795045108        0.6752344921
C          2.8680307593       -4.0220162842        0.3997231711
C          1.9378875301       -4.9556197219       -0.0327943522
C          0.6066493983       -4.6012140329       -0.1166934446
C          0.1997973678       -3.3242099771        0.2360822263
C          1.3873473837        1.0347193462        2.0272432629
C          2.3726894589        1.8983266076        2.4781746826
C          3.6977159576        1.5127767897        2.4529099542
C          4.0364567322        0.2454062598        2.0004808528
C          4.0340305987       -0.2568090197       -1.9989815608
C          3.6904056170       -1.5227130557       -2.4518164779
C          2.3638161483       -1.9027827824       -2.4781548509
C          1.3817145744       -1.0351390191       -2.0279129653
C          0.2104093281        3.3290826508       -0.2394009939
C          0.6220980715        4.6047482703        0.1126071871
C          1.9549119590        4.9535574431        0.0300767209
C          2.8817287164        4.0157373605       -0.4004153056
H         -8.6667878909        1.2431951037       -0.2599875457
H         -6.5495655689        2.1071319908       -0.4277084310
H         -4.1062890288        2.1060577041       -0.4074264273
H         -4.1087940719       -2.0956460267        0.4094466657
H         -6.5630287379       -2.0822096380        0.4249569802
H         -2.1510603505        1.4804222182       -1.4932710718
H         -2.1536288542       -1.4705209555        1.4950681050
H         -0.8291992106        3.0576997008       -0.1580291691
H         -0.1084520767        5.3216261940        0.4533131597
H          2.2837087602        5.9437683632        0.3020110124
H          3.9328571293        4.2490486583       -0.4607308727
H          5.0607047037        0.0729329904       -1.9759789423
H          4.4620581625       -2.1980579381       -2.7850519955
H          2.0817104489       -2.8799398671       -2.8373546624
H          0.3453103027       -1.3344202527       -2.0482987797
H          0.3521251658        1.3380429797        2.0470067808
H          2.0943928381        2.8766134438        2.8372337151
H          4.4719144991        2.1849159430        2.7867089360
H          5.0617443185       -0.0886742441        1.9783542705
H          3.9180809057       -4.2598238031        0.4612131507
H          2.2628165947       -5.9469886614       -0.3051490052
H         -0.1265926037       -5.3146017305       -0.4590129679
H         -0.8387285971       -3.0488184093        0.1537536982
