65
-110.15090127
C          3.2214614138        0.0285090360       -0.0056221333
C          3.9377115433       -1.1424013207        0.2584192621
C          5.3126092132       -1.1342997062        0.2565430142
C          6.0257140531        0.0418319519       -0.0099153322
C          5.2991619808        1.2109794706       -0.2746988066
C          3.9251087503        1.2066556237       -0.2725848429
C          7.4686030489        0.0683043348       -0.0161562069
S          8.3605272561        1.4114794547       -0.3632112225
S          8.2802840910       -1.4382372653        0.3754357538
N          1.8311389845        0.0210260148       -0.0030518901
C          1.0408563901       -0.8330560387        0.7192992087
C         -0.2707415421       -0.5358843663        0.4672728476
C         -0.2783839606        0.5533703403       -0.4671611461
C          1.0289245199        0.8658489583       -0.7229477738
C         -2.1152026544        0.9328739153        2.0320131068
C         -3.1150339471        1.7680746686        2.5039526174
C         -4.4343872296        1.3640953648        2.4605175519
C         -4.7527209738        0.1060059103        1.9699253534
C         -2.4227239207       -0.3105741154        1.4946997538
C         -3.7576948504       -0.7294116157        1.4976553980
N         -1.4245007198       -1.1448980679        0.9809732270
C         -4.4185850331       -1.3978405551       -2.4604560100
C         -2.5678340816       -5.0146450643       -0.1685931158
C         -3.5653363043        4.0799125846       -0.2757011012
C         -2.6318687257        5.0029251461        0.1711068848
C         -1.3013024283        4.6432457242        0.2456503247
C         -0.8984402057        3.3722309605       -0.1325190218
C         -3.1679819145        2.8088555889       -0.6470555261
C         -1.8190852532        2.4388022100       -0.5882855382
N         -1.4407480781        1.1478402942       -0.9786392108
C         -2.1051893502       -0.9387655791       -2.0294654554
C         -3.0944771832       -1.7860982366       -2.5020291437
C         -4.7524276478       -0.1432836687       -1.9710832880
C         -3.5130007424       -4.1025344356        0.2759242186
C         -1.2414505695       -4.6393187404       -0.2408563538
C         -0.8544058589       -3.3633817808        0.1371844397
C         -2.4281226260        0.3012654403       -1.4933173928
C         -3.7679554208        0.7041531303       -1.4981620475
O         -4.1607206633        1.9422832140       -1.0473322357
O         -4.1350897542       -1.9716367222        1.0454753295
C         -3.1313742083       -2.8266276444        0.6473013395
C         -1.7869320161       -2.4406969788        0.5905939903
H          3.4148042927       -2.0661236420        0.4442811861
H          5.8473835839       -2.0508143453        0.4540063692
H          5.8366919722        2.1252680009       -0.4732531948
H          3.3931582554        2.1254933922       -0.4575747045
H          9.5176793681       -0.9667242792        0.2486507713
H          1.4532690214       -1.5471280866        1.4014825144
H          1.4310560296        1.5854675071       -1.4055375383
H         -1.0847741982        1.2505676972        2.0690822223
H         -2.8526253144        2.7386378668        2.8945383070
H         -5.2194407680        2.0147419123        2.8109972514
H         -5.7726276684       -0.2427072728        1.9347614255
H         -5.1954642172       -2.0579409762       -2.8114287863
H         -2.8769985202       -6.0056566801       -0.4597511897
H         -4.6149248931        4.3211430440       -0.3299068307
H         -2.9531887330        5.9900647192        0.4622827834
H         -0.5655292576        5.3478562329        0.6002402645
H          0.1395144996        3.0944841401       -0.0552629183
H         -1.0710147891       -1.2440645477       -2.0654133900
H         -2.8200265058       -2.7536648958       -2.8916935566
H         -5.7763778469        0.1935177563       -1.9374530473
H         -4.5597810958       -4.3560676906        0.3282979009
H         -0.4968316609       -5.3354325546       -0.5935892533
H          0.1801448165       -3.0731293380        0.0614240007
