84
-140.95079846
C         -1.2381761750       -6.1562965018       -1.0783193782
C         -1.2275578721       -4.8040395353       -0.8201681506
C         -0.0175675600       -4.1243470501       -0.6773158252
C          1.1826993989       -4.8258800572       -0.7968551347
C          1.1725025127       -6.1774659679       -1.0546350264
C         -0.0380061007       -6.8672666591       -1.2004387125
C         -0.0074490897       -2.6865105288       -0.4006872301
N          1.1718473651       -2.0790617541       -0.3039029886
C          1.1357954008       -0.7779265513       -0.0191958122
N          0.0117265080       -0.0883421324        0.1584656287
C         -1.1233277177       -0.7662828548        0.0063023855
N         -1.1779480252       -2.0692822776       -0.2669888724
C         -2.3811492565       -0.0341194320        0.1321277271
C         -2.3720165809        1.3151660585        0.4871342940
C         -3.5558328206        2.0165979807        0.5802719531
C         -4.7648174022        1.3785461125        0.3121605215
C         -4.7800296974        0.0294923862       -0.0282908465
C         -3.5956250389       -0.6728406443       -0.1169938156
C          2.4035799415       -0.0614087989        0.0918176229
C          3.5883475599       -0.6608333510       -0.3352549021
C          4.7821429387        0.0259098683       -0.2563796186
C          4.8087779973        1.3174845067        0.2655115802
C          3.6286735797        1.9174569074        0.6964704705
C          2.4338179615        1.2347099335        0.6062677199
C         -0.0290507191       -8.2924981468       -1.4716154455
S          1.3483579166       -9.1825949328       -1.6142915027
S         -1.5913570405       -9.0614677478       -1.6486239420
N          6.0221309438        2.0524274987        0.3449531066
C          7.0100839018        1.6331224337        1.2354586938
C          8.1693498501        2.3776193277        1.4739380712
S          8.4246819452        3.9966611074        0.7964421146
C          7.2331999621        4.0073926900       -0.5148687051
C          6.1968455507        3.0744964418       -0.5891621420
C          7.3680657671        5.0055823354       -1.4661284104
C          6.4692197117        5.1110162874       -2.5122459082
C          5.4462856451        4.1861784379       -2.6112462101
C          5.3209724344        3.1783218246       -1.6726113488
C          6.8587794228        0.4471817018        1.9574437440
C          7.8368334171       -0.0037092949        2.8255306427
C          9.0038576823        0.7155788443        3.0017772805
C          9.1564209731        1.9140902369        2.3280948841
N         -5.9954844399        2.0879197404        0.3868630246
C         -6.7733451343        1.8860163013        1.5261598605
C         -8.0728685298        2.3797201113        1.6597865097
S         -8.8804124810        3.2888523008        0.3703185782
C         -7.5062370310        3.6958999428       -0.6746657847
C         -6.2750014771        3.0386414418       -0.5938647748
C         -6.2446504831        1.1766581721        2.6071808643
C         -6.9851369846        0.9435519639        3.7517959814
C         -8.2734773360        1.4325079939        3.8629714233
C         -8.8064686142        2.1604575384        2.8141613879
C         -7.7402144627        4.6637530970       -1.6375600613
C         -6.7705427918        4.9825287631       -2.5713932947
C         -5.5661337925        4.3053934337       -2.5391845224
C         -5.3231961605        3.3519160207       -1.5668808151
H         -2.1810964848       -6.6709138295       -1.1863450640
H         -2.1492275715       -4.2535899342       -0.7244267542
H          2.1127390511       -4.2932381457       -0.6817927841
H          2.0999663084       -6.7215808642       -1.1471038602
H         -1.4281133121        1.7955317461        0.6873155663
H         -3.5555845925        3.0593199648        0.8598297405
H         -5.7237660774       -0.4565345490       -0.2226017821
H         -3.5909948718       -1.7157400432       -0.3889349420
H          3.5518493618       -1.6583211404       -0.7426614295
H          5.6977059245       -0.4259014069       -0.6071264287
H          3.6601480840        2.9209270124        1.0924631176
H          1.5128405042        1.6871616208        0.9360490664
H         -1.1197012595      -10.2862914303       -1.8722497471
H          8.1834734174        5.7055586512       -1.3644709281
H          6.5750271033        5.9007410525       -3.2385088029
H          4.7401245368        4.2381509092       -3.4252845085
H          4.5259493127        2.4578514909       -1.7805027852
H          5.9534562956       -0.1278105555        1.8520956774
H          7.6772154398       -0.9251403781        3.3637070789
H          9.7773917328        0.3656137920        3.6661878582
H         10.0383365723        2.5200895965        2.4707038776
H         -5.2361572356        0.7993255228        2.5485062441
H         -6.5432203060        0.3809838303        4.5594417613
H         -8.8584880883        1.2572373171        4.7514460712
H         -9.8074336348        2.5606321755        2.8708479753
H         -8.7038748759        5.1500356559       -1.6534919489
H         -6.9652348640        5.7347427188       -3.3187738731
H         -4.8027910178        4.5140000878       -3.2726423581
H         -4.3792751728        2.8318443586       -1.5739703885
