84
-140.95096083
C          1.1617250377       -6.1229072282       -1.1866793660
C          1.1725062853       -4.7686462966       -0.9433918610
C         -0.0249051900       -4.0820687563       -0.7389989801
C         -1.2326981469       -4.7790203265       -0.7831529907
C         -1.2438358582       -6.1341198114       -1.0260071124
C         -0.0465171547       -6.8303365795       -1.2322260507
C         -0.0142591894       -2.6409492581       -0.4803158415
N          1.1651663941       -2.0356300811       -0.3747253762
C          1.1294148165       -0.7226569931       -0.1502490777
N          0.0052393565       -0.0239530895       -0.0138447489
C         -1.1294272257       -0.7108378997       -0.1222894390
N         -1.1846353872       -2.0198029780       -0.3653049180
C         -2.3886098660        0.0117788079        0.0380580329
C         -2.3861448177        1.3337128311        0.4828884975
C         -3.5760078564        2.0120474871        0.6480887688
C         -4.7830441674        1.3788580166        0.3671256453
C         -4.7898116651        0.0633466165       -0.0914085669
C         -3.6002091114       -0.6166503282       -0.2500506995
C          2.3996340644       -0.0084856562       -0.0502895600
C          2.4197107873        1.3857851257       -0.0196599953
C          3.6202778248        2.0604502466        0.0618051093
C          4.8156671467        1.3499369070        0.1185135639
C          4.7996604947       -0.0430680833        0.1033255099
C          3.5994848910       -0.7170022302        0.0140830222
C         -0.0381699053       -8.2580173955       -1.4901513466
S          1.3329384609       -9.1223262976       -1.7781165264
S         -1.5941124449       -9.0595401902       -1.4840461449
N          6.0410104494        2.0657975416        0.2052000379
C          6.3607977354        2.6188992082        1.4451002406
C          7.4319415270        3.4942058864        1.6365571401
S          8.4798141775        4.0159015143        0.3060592446
C          8.0668113077        2.8244230585       -0.9411205150
C          6.9053099427        2.0479540773       -0.8888933566
C          8.9281780576        2.7541641638       -2.0236190750
C          8.6426906653        1.9383208953       -3.1037364359
C          7.4703349515        1.2063850824       -3.0943219946
C          6.6183906617        1.2600113776       -2.0058417747
C          5.6027520083        2.2814791426        2.5689321234
C          5.8763478632        2.8170799460        3.8143236107
C          6.9340923418        3.6912484219        3.9827431202
C          7.7155578078        4.0155866560        2.8882803522
N         -5.9967803832        2.0984689689        0.5428922626
C         -6.8497840730        1.7287222442        1.5820372614
C         -7.9924810201        2.4633102184        1.9125545056
S         -8.3912374864        4.0116259000        1.1444240566
C         -7.3731491337        3.9449874426       -0.3046160829
C         -6.3189577226        3.0384962859       -0.4356278511
C         -6.5696846885        0.6051640715        2.3629257160
C         -7.4108208836        0.2042800129        3.3853101499
C         -8.5651860422        0.9123057741        3.6617615809
C         -8.8434704602        2.0489114415        2.9238492223
C         -7.6608859887        4.8578595094       -1.3060310761
C         -6.8999128050        4.9038258705       -2.4604411625
C         -5.8587066833        4.0069989544       -2.6120064018
C         -5.5814077386        3.0828637250       -1.6211506967
H          2.0870043329       -6.6555541521       -1.3446071055
H          2.1006874927       -4.2216160428       -0.9096825905
H         -2.1519302167       -4.2397198120       -0.6221948415
H         -2.1849517600       -6.6621670392       -1.0586201263
H         -1.4438471869        1.8080646056        0.7042167656
H         -3.5829453970        3.0344031216        0.9936856861
H         -5.7296807556       -0.4138615739       -0.3244142842
H         -3.5891286734       -1.6339423923       -0.6064037101
H          1.4863156043        1.9224146295       -0.0718942144
H          3.6447168931        3.1391554522        0.0838481829
H          5.7303195183       -0.5865162080        0.1664009677
H          3.5710922576       -1.7946064577        0.0035949981
H         -1.1252724771      -10.2770150848       -1.7495961923
H          9.8176979023        3.3657068196       -2.0127243622
H          9.3186079241        1.8941001050       -3.9424638731
H          7.2078610761        0.5852534750       -3.9366290220
H          5.7052007756        0.6883497009       -2.0328316062
H          4.7830254664        1.5886662102        2.4645068458
H          5.2584793098        2.5395411761        4.6541174948
H          7.1559599461        4.1136301028        4.9495405985
H          8.5528496151        4.6897706995        2.9865388715
H         -5.6701965808        0.0408112299        2.1789305557
H         -7.1542461694       -0.6689512528        3.9647694164
H         -9.2326153785        0.6013193735        4.4492411682
H         -9.7185243328        2.6447012578        3.1352175608
H         -8.4844443582        5.5400059389       -1.1587533510
H         -7.1244867496        5.6275707356       -3.2273311724
H         -5.2569026113        4.0155925611       -3.5074537144
H         -4.7748412125        2.3822904020       -1.7678406285
