84
-140.95377525
C         -1.2597815086       -6.2002491995       -0.5071473680
C         -1.2494252435       -4.8271346027       -0.4184928611
C         -0.0392435790       -4.1347366474       -0.3741504475
C          1.1600051113       -4.8455639616       -0.4198139596
C          1.1507700778       -6.2192666178       -0.5087770517
C         -0.0598666495       -6.9216294606       -0.5545014655
C         -0.0274151941       -2.6711720098       -0.2864383033
N          1.1487822552       -2.0592462092       -0.2971236352
C          1.1196238694       -0.7224905540       -0.2335864741
N         -0.0147457612       -0.0154670409       -0.1872927716
C         -1.1418068329       -0.7143837928       -0.1636593298
N         -1.2009369545       -2.0464924577       -0.2016704456
C         -2.4039634052        0.0224965286       -0.0872700203
C         -3.5851840271       -0.6402033851        0.2413415175
C         -4.7717366491        0.0587462858        0.3296156941
C         -4.7938204130        1.4271377500        0.0784847943
C         -3.6191546737        2.0900734742       -0.2687698500
C         -2.4308910562        1.3928562300       -0.3420015876
C          2.3767405413       -0.0079977402       -0.2084290181
C          2.4065080190        1.3860540189       -0.1034326864
C          3.5976502944        2.0673565194       -0.0744868219
C          4.8221397015        1.3842028021       -0.1612751485
C          4.7882589163       -0.0190202315       -0.2185189859
C          3.5939554747       -0.6948317007       -0.2473023680
C         -0.0901170030       -8.3681876913       -0.6505114270
S         -1.4801138485       -9.2486861648       -0.7027281401
S          1.4605506323       -9.1776163210       -0.7124402603
N          6.0159287160        2.0632480150       -0.1239116830
C          7.2699465918        1.4125460866       -0.0932969922
C          8.1573464938        1.6864119918        0.9451304500
S          7.7030700608        2.8766124633        2.1824444862
C          6.8441970250        3.9868245123        1.0945730604
C          6.0979924943        3.4642802261        0.0405753584
C          6.9363840346        5.3566810859        1.2854228946
C          6.2943813377        6.2145058601        0.4113451082
C          5.5916904573        5.7050603702       -0.6696711869
C          5.5026454130        4.3383943835       -0.8627971380
C          7.6672528638        0.5508783439       -1.1102767612
C          8.8965088864       -0.0799318435       -1.0465688214
C          9.7515662129        0.1598541756        0.0179674871
C          9.3907990406        1.0569472458        1.0064537236
N         -6.0292234320        2.1261589244        0.1681698857
C         -6.2092246463        3.0373744293        1.2080271872
C         -7.4325095639        3.6697466021        1.4499465187
S         -8.9129666933        3.2647374194        0.5610576500
C         -8.2469814813        2.4143753916       -0.8436679614
C         -6.9312332208        1.9476290387       -0.8803252525
C         -5.1586214746        3.3357982313        2.0787280531
C         -5.3024227334        4.2560924707        3.1014288472
C         -6.5034265715        4.9137434512        3.2892082708
C         -7.5686730152        4.6053574945        2.4622209981
C         -9.1078222718        2.2150188664       -1.9105225793
C         -8.6882090612        1.5353653182       -3.0400015228
C         -7.3849768557        1.0778609568       -3.0998033356
C         -6.5190792598        1.2914676415       -2.0427725358
H         -2.1957378727       -6.7366724840       -0.5425502514
H         -2.1710937883       -4.2688745234       -0.3853459878
H          2.0890930108       -4.3001398880       -0.3846023010
H          2.0861423751       -6.7574814449       -0.5437306298
H         -3.5524531640       -1.7000593262        0.4363082533
H         -5.6894688466       -0.4468391258        0.5887564287
H         -3.6480715749        3.1481556830       -0.4813742047
H         -1.5124077406        1.8916045428       -0.6068542856
H          1.4722590956        1.9203131019       -0.0349783783
H          3.5862872968        3.1391253614        0.0412650822
H          5.7085506041       -0.5803797598       -0.2160947422
H          3.5800996610       -1.7720551461       -0.2935509618
H          0.9698910026      -10.4127804674       -0.7934845401
H          7.5078975390        5.7350457607        2.1183551506
H          6.3580009895        7.2800075745        0.5649875464
H          5.1140448870        6.3736396901       -1.3684010360
H          4.9683649278        3.9361929901       -1.7097487276
H          7.0033360929        0.3787446892       -1.9434105664
H          9.1884446986       -0.7575118715       -1.8333312416
H         10.7070386463       -0.3373783606        0.0704793668
H         10.0529778581        1.2751208447        1.8295469641
H         -4.2142361978        2.8291243627        1.9650600257
H         -4.4639169641        4.4541879221        3.7509141445
H         -6.6215132565        5.6413825427        4.0758663435
H         -8.5311322711        5.0737231793        2.6022915835
H        -10.1165355366        2.5917348654       -1.8341612834
H         -9.3710036939        1.3733397290       -3.8584501220
H         -7.0293563199        0.5548054120       -3.9739238503
H         -5.5024720065        0.9395540777       -2.1179217661
