84
-140.95103656
C          1.1953964446       -6.2146544689        0.0547299499
C          1.1998191743       -4.8386412029        0.0502122698
C         -0.0033869535       -4.1322206913        0.0633784780
C         -1.2104216849       -4.8317447982        0.0832577322
C         -1.2152583480       -6.2084057324        0.0887197664
C         -0.0120703579       -6.9245635645        0.0735296243
C         -0.0009310723       -2.6681655173        0.0551079951
N          1.1740619165       -2.0453936895        0.0919359048
C          1.1293790855       -0.7141741527        0.0798081473
N          0.0014634086       -0.0102276285        0.0419980502
C         -1.1287604179       -0.7126506468        0.0079928023
N         -1.1741734756       -2.0442096167        0.0094650981
C         -2.3923734701        0.0181845366       -0.0351023567
C         -2.4051625867        1.4066113175        0.0983334284
C         -3.5992683466        2.0963314821        0.0595529823
C         -4.7956764768        1.4071102575       -0.1151730927
C         -4.7874762603        0.0213089617       -0.2577101116
C         -3.5937075904       -0.6681858562       -0.2143843089
C          2.3953646988        0.0172375442        0.1060159833
C          2.4018942279        1.4077608235        0.0056955508
C          3.5968841433        2.0990844010        0.0224928838
C          4.7956486576        1.4059117675        0.1423465825
C          4.7959661234        0.0174845194        0.2453999016
C          3.6016208386       -0.6729265761        0.2261946565
C          0.0028594914       -8.3753876239        0.0755843414
S          1.3826409018       -9.2708292713        0.0092133554
S         -1.5548104876       -9.1698668322        0.1515306567
N          6.0229957600        2.1324269820        0.1527646431
C          6.6404985663        2.3576402752       -1.0746197339
C          7.7972618194        3.1287118394       -1.2134690193
S          8.5652480760        3.9548538057        0.1554344304
C          7.7553907285        3.1813923423        1.5313104520
C          6.5978594734        2.4115519535        1.3895342367
C          8.3071277386        3.4189507084        2.7790692060
C          7.7111798857        2.9190384065        3.9236536183
C          6.5507473623        2.1779473747        3.8041051978
C          6.0063924306        1.9255302294        2.5576404301
C          6.0999821630        1.8003724467       -2.2356704030
C          6.6823925695        2.0012585878       -3.4742351446
C          7.8340427009        2.7563699773       -3.5912837787
C          8.3873921665        3.3148244406       -2.4523983379
N         -6.0147568524        2.1377214637       -0.1606062487
C         -6.9074715285        2.0128736004        0.9029803777
C         -8.0736942400        2.7776291372        1.0004607590
S         -8.4648703656        4.0809430866       -0.1371606383
C         -7.3632488172        3.7118596617       -1.4753468269
C         -6.2943269513        2.8229211688       -1.3426804192
C         -6.6448870839        1.1203244042        1.9447308316
C         -7.5231106146        0.9593782844        3.0012327154
C         -8.6983068659        1.6850094920        3.0524204204
C         -8.9608206395        2.6010139245        2.0495283249
C         -7.6044506964        4.3678365418       -2.6714480208
C         -6.7829366859        4.1674310462       -3.7662850555
C         -5.7274223611        3.2813424231       -3.6572311009
C         -5.4952502891        2.6126035225       -2.4691373834
H          2.1251572666       -6.7625844718        0.0445676452
H          2.1277141865       -4.2904249970        0.0346089627
H         -2.1343534955       -4.2769255856        0.0957334425
H         -2.1558443561       -6.7381791588        0.1027407662
H         -1.4713646740        1.9260830115        0.2391597751
H         -3.6176160183        3.1706108223        0.1607917589
H         -5.7190379277       -0.5032780287       -0.4070485158
H         -3.5708420715       -1.7398128821       -0.3280347473
H          1.4630395986        1.9287288867       -0.0879353892
H          3.6124639773        3.1749682851       -0.0583453868
H          5.7344697933       -0.5077404249        0.3382419776
H          3.5832853323       -1.7479087462        0.3032201983
H         -1.0791140102      -10.4131541745        0.1282782802
H          9.2051167314        4.0151480392        2.8389739858
H          8.1465543497        3.1165808419        4.8899830975
H          6.0591494477        1.7879268653        4.6818430353
H          5.0995978768        1.3461887929        2.4894663288
H          5.2047006552        1.2031994934       -2.1678357452
H          6.2286472129        1.5584357670       -4.3472914379
H          8.2980944591        2.9154686290       -4.5513466798
H          9.2821362350        3.9160366915       -2.5105107548
H         -5.7302940282        0.5502596598        1.9380573982
H         -7.2790449428        0.2596893526        3.7854752637
H         -9.3946167511        1.5584133742        3.8656915278
H         -9.8529380958        3.2083479235        2.0753628053
H         -8.4416073871        5.0472367320       -2.7251143233
H         -6.9726092865        4.6935277147       -4.6879800353
H         -5.0787805902        3.0984840460       -4.4997638308
H         -4.6758938568        1.9138841089       -2.4127675636
