84
-140.95591707
C          1.1754130476       -6.1811198179       -0.0515173214
C          1.1836404353       -4.8052772903       -0.0507416381
C         -0.0152202176       -4.0944458230        0.0007670364
C         -1.2226580956       -4.7903872869        0.0516342376
C         -1.2327267958       -6.1669408725        0.0513586526
C         -0.0332192304       -6.8877415118       -0.0003160340
C         -0.0068563678       -2.6265921223        0.0014533746
N          1.1690042243       -2.0164748619       -0.0919166517
C          1.1340430604       -0.6776224980       -0.0737139812
N          0.0075321940        0.0307016892        0.0019722236
C         -1.1267163103       -0.6654203175        0.0777111139
N         -1.1759883919       -2.0038273492        0.0953706659
C         -2.3803429598        0.0608416148        0.1424283341
C         -2.4159695731        1.4484800337       -0.0138893333
C         -3.6032149963        2.1371120270        0.0447933611
C         -4.8133563479        1.4678319179        0.2860454642
C         -4.7779340718        0.0687510271        0.3979776828
C         -3.5889409926       -0.6146373749        0.3286944674
C          2.3954818302        0.0353388037       -0.1382266509
C          3.5970199367       -0.6531208975       -0.3221599418
C          4.7931963002        0.0176354021       -0.3919381020
C          4.8431863222        1.4165091542       -0.2833086346
C          3.6400463202        2.0988706554       -0.0438063592
C          2.4456347793        1.4227718355        0.0157052862
C         -0.0229768704       -8.3370713076       -0.0016547177
S          1.3528007479       -9.2388154530       -0.0648210850
S         -1.5830309976       -9.1279894081        0.0690616845
N          6.0442511080        2.0854319567       -0.3427124171
C          7.2794335470        1.4228744134       -0.5175273694
C          8.2993925404        1.6159886910        0.4112529181
S          8.0257823001        2.7157359383        1.7783596296
C          7.0539904205        3.9087409920        0.8910898498
C          6.1713159027        3.4701816315       -0.0938874558
C          7.1957107407        5.2599353634        1.1651234029
C          6.4651879512        6.1853598028        0.4426151420
C          5.6247007644        5.7622868248       -0.5752386701
C          5.4868543941        4.4140886316       -0.8523938254
C          7.5252957870        0.6294284917       -1.6333615704
C          8.7419790879       -0.0123648979       -1.7761246496
C          9.7341287087        0.1485752174       -0.8212551034
C          9.5204290316        0.9763663317        0.2655748120
N         -6.0073221541        2.1493996951        0.3441749194
C         -7.2494243750        1.4999663297        0.5196680008
C         -8.2664712655        1.7006742459       -0.4106623906
S         -7.9804500460        2.7931740197       -1.7812038515
C         -6.9964211793        3.9786675234       -0.8976905102
C         -6.1197110321        3.5344275836        0.0900881243
C         -7.5042076542        0.7121911392        1.6375114957
C         -8.7274759534        0.0832078473        1.7810538799
C         -9.7171215835        0.2515144455        0.8248585622
C         -9.4940755315        1.0739035455       -0.2641977883
C         -7.1225304191        5.3302060598       -1.1776368851
C         -6.3824589399        6.2504286406       -0.4582239579
C         -5.5481663188        5.8223050060        0.5626085283
C         -5.4258068421        4.4738255531        0.8455899006
H          2.1032372974       -6.7313315821       -0.0912313499
H          2.1116277085       -4.2577960985       -0.0885655333
H         -2.1430626754       -4.2304332574        0.0898144587
H         -2.1749517006       -6.6929544778        0.0908714178
H         -1.4908412088        1.9727904009       -0.1946737677
H         -3.5993747611        3.2024569861       -0.1200325871
H         -5.6951974446       -0.4855616075        0.5158866700
H         -3.5739684742       -1.6893784868        0.4165829457
H          3.5710906482       -1.7279267595       -0.4077614824
H          5.7046374703       -0.5467148554       -0.5077964407
H          3.6474178512        3.1645103626        0.1189501121
H          1.5259441628        1.9570329775        0.1950444750
H         -1.1087182710      -10.3721323119        0.0468899329
H          7.8749442019        5.5705965954        1.9433891043
H          6.5673220298        7.2361705286        0.6623243979
H          5.0771503873        6.4842193844       -1.1603914527
H          4.8472994917        4.0808411207       -1.6551321230
H          6.7527033600        0.5170297401       -2.3785020060
H          8.9163370526       -0.6366983603       -2.6382686969
H         10.6803915925       -0.3570488435       -0.9302966330
H         10.2881333930        1.1313911113        1.0073075439
H         -6.7333626199        0.5941555173        2.3835695934
H         -8.9089154155       -0.5368111819        2.6448226782
H        -10.6686152238       -0.2440470096        0.9344797506
H        -10.2594828147        1.2346034358       -1.0070844925
H         -7.7971568297        5.6452667115       -1.9581585082
H         -6.4722607035        7.3013617147       -0.6827313437
H         -4.9932379082        6.5405458570        1.1453603580
H         -4.7908861573        4.1368630469        1.6504617936
