84
-140.95599646
C          1.1619990838       -6.2006761545        0.0286577437
C          1.1674496922       -4.8241131230        0.0288107049
C         -0.0329229182       -4.1145061053        0.0083179571
C         -1.2406329348       -4.8117766347       -0.0129603424
C         -1.2479531609       -6.1876401920       -0.0136790883
C         -0.0464841888       -6.9078863486        0.0073904766
C         -0.0243816226       -2.6466086576        0.0088840999
N          1.1547851795       -2.0376715675        0.0586142129
C          1.1204055187       -0.6987377284        0.0457851078
N         -0.0077111584        0.0102356017        0.0089276377
C         -1.1444534792       -0.6845563402       -0.0281709278
N         -1.1958759576       -2.0229741995       -0.0408195082
C         -2.3975912789        0.0450669009       -0.0565614807
C         -2.4209609020        1.4361708186        0.0686623028
C         -3.6059692533        2.1300766026        0.0359679990
C         -4.8273509525        1.4622115071       -0.1452389595
C         -4.8031488365        0.0604865749       -0.2206378188
C         -3.6155616195       -0.6278707647       -0.1795603688
C          2.3827336012        0.0146333890        0.0717741702
C          2.4239903165        1.4049266868       -0.0580715295
C          3.6181179517        2.0832143987       -0.0309693657
C          4.8311538529        1.3998639135        0.1488320527
C          4.7886776341       -0.0010790295        0.2307751290
C          3.5920367357       -0.6738248034        0.1951968232
C         -0.0730366317       -8.3570041325        0.0066886923
S         -1.4596308302       -9.2432656829       -0.0354043361
S          1.4789605022       -9.1653269191        0.0543483329
N          6.0310454524        2.0726372081        0.1763054196
C          6.1405723760        3.4645333012       -0.0384687107
C          6.9789690790        3.9363763759       -1.0463905028
S          7.9188906092        2.7748097897       -2.0064327963
C          8.2551141200        1.6392132432       -0.6830458111
C          7.2759346098        1.4135074544        0.2816544833
C          9.4849673386        1.0046066261       -0.6059300121
C          9.7488683824        0.1491114650        0.4479247978
C          8.7985240641       -0.0446828360        1.4385171814
C          7.5730460499        0.5920052295        1.3642002953
C          5.4827978737        4.3820236941        0.7741543686
C          5.6015691825        5.7383457175        0.5300215543
C          6.3966463967        6.1954497004       -0.5094215679
C          7.1015111738        5.2956866249       -1.2876807487
N         -6.0182476220        2.1506309014       -0.1805670660
C         -6.1105928562        3.5447353429        0.0280453861
C         -6.9484606580        4.0317240548        1.0291632633
S         -7.9094564354        2.8867609276        1.9884839765
C         -8.2522707308        1.7491904934        0.6687385649
C         -7.2707821911        1.5069457476       -0.2895894144
C         -5.4360222948        4.4502170944       -0.7843182509
C         -5.5378383635        5.8089491275       -0.5459637205
C         -6.3326608780        6.2807255281        0.4870910519
C         -7.0541673175        5.3935078004        1.2645029027
C         -9.4891288393        1.1287295523        0.5883171623
C         -9.7576212615        0.2709007593       -0.4624705876
C         -8.8046190379        0.0611003141       -1.4472305825
C         -7.5721973722        0.6838286509       -1.3697411053
H          2.0989421709       -6.7372823428        0.0439891467
H          2.0947616617       -4.2745691332        0.0436939203
H         -2.1630581754       -4.2538954858       -0.0277368415
H         -2.1826303009       -6.7273596551       -0.0297163958
H         -1.4872766515        1.9592983187        0.2024703220
H         -3.5910394014        3.1991549844        0.1738352890
H         -5.7268642734       -0.4915409225       -0.2886592964
H         -3.6094013871       -1.7046463106       -0.2406223689
H          1.4969250014        1.9398165800       -0.1915044568
H          3.6168597610        3.1519290649       -0.1725479153
H          5.7052810898       -0.5647056193        0.2991617307
H          3.5715331777       -1.7500692270        0.2608032086
H          0.9905310846      -10.4041055526        0.0396667051
H         10.2201242964        1.1855566999       -1.3742765499
H         10.7020127703       -0.3522328560        0.5036438649
H          9.0126924828       -0.6905615719        2.2754258371
H          6.8334658880        0.4546770213        2.1380687455
H          4.8782291946        4.0217869110        1.5922326658
H          5.0747280376        6.4398553900        1.1575142825
H          6.4835559402        7.2527011918       -0.7033119868
H          7.7457044150        5.6328465055       -2.0844985332
H         -4.8318768717        4.0787630916       -1.5976694982
H         -4.9979246568        6.5008327921       -1.1730165336
H         -6.4063628214        7.3397686254        0.6765669915
H         -7.6984959392        5.7422768826        2.0561788188
H        -10.2260759523        1.3220967634        1.3519174136
H        -10.7161129560       -0.2199041251       -0.5204584443
H         -9.0219420023       -0.5866467007       -2.2819065298
H         -6.8303064755        0.5337596938       -2.1390439837
