75
-121.22901971
C          3.2854578118        0.3242541980        0.1887905900
C          4.1169395992       -0.4157856978       -0.6543545399
C          5.4837462456       -0.2824723754       -0.5711769215
C          6.0652443203        0.5752968156        0.3696799877
C          5.2260284018        1.3183872991        1.2068348512
C          3.8567136174        1.2005676389        1.1126984632
C          7.5097798350        0.6984918367        0.4116163401
S          8.4531925583        0.5218522697       -0.9262341358
S          8.3074933218        1.0588379895        1.9274983164
N          1.9006056849        0.1928049762        0.1036842271
C          0.9858618584        1.2304401062        0.0611990249
C         -0.3198786039        0.6978388074       -0.0357290084
C         -0.1801010213       -0.7318527594       -0.0421454878
C          1.2045936942       -1.0014682143        0.0400669237
C         -1.4192027135        1.5379134647       -0.1226108377
C         -1.2063541535        2.9088378555       -0.1048967828
C          0.0918079331        3.4280981898       -0.0312788462
C          1.1956065775        2.6023290381        0.0379641435
C          1.6704153942       -2.3067677867        0.1190029958
C          0.7454803426       -3.3300172082        0.0788011542
C         -0.6256218472       -3.0724751727       -0.0420895482
C         -1.0982484762       -1.7694234694       -0.0979385660
N         -2.3005940421        3.7874107955       -0.1657038173
C         -3.4142728379        3.7395151352        0.6473972554
C         -4.2945962763        4.7900194190        0.2982864684
C         -3.6736230122        5.4980788131       -0.7854130086
C         -2.4441847349        4.8458724088       -1.0386319517
N         -1.5269762690       -4.1489591549       -0.0873059355
C         -2.6428081834       -4.3019568297        0.7094576208
C         -3.2929821919       -5.5133084954        0.3767159461
C         -2.5248317368       -6.1112025677       -0.6786723410
C         -1.4426134028       -5.2363299671       -0.9317579389
C         -5.4864586683        4.9572097641        0.9917239902
C         -5.7805374759        4.0863681329        2.0217889474
C         -4.8973766446        3.0667533307        2.3721529858
C         -3.7061772024        2.8803487404        1.6977836003
C         -1.6120606589        5.2628569309       -2.0685019956
C         -2.0079676492        6.3549883111       -2.8162292794
C         -3.2061779184        7.0184007587       -2.5584411414
C         -4.0495507324        6.5942084198       -1.5511268835
C         -4.4409667057       -5.8959562857        1.0586351969
C         -4.9189810777       -5.0766797732        2.0616879423
C         -4.2597164936       -3.8954872466        2.3969924881
C         -3.1165701511       -3.4935263178        1.7335345877
C         -0.5230200532       -5.5068613879       -1.9356954452
C         -0.6816648762       -6.6730922237       -2.6590082968
C         -1.7323744460       -7.5519581058       -2.4020315910
C         -2.6629337834       -7.2778086703       -1.4197479795
H          3.6836720360       -1.0727396534       -1.3916904618
H          6.1275034794       -0.8447428652       -1.2299873738
H          5.6448842182        2.0230924598        1.9092527748
H          3.2218204420        1.7707542974        1.7719865089
H          7.2548050082        0.8947652514        2.7322732199
H         -2.4167424741        1.1389687972       -0.2182307263
H          0.2231752807        4.4989587251       -0.0207460812
H          2.1878745650        3.0229578771        0.0665336004
H          2.7199957311       -2.5257412233        0.2329062315
H          1.0758207511       -4.3541744908        0.1580119807
H         -2.1547459883       -1.5717355894       -0.1873615310
H         -6.1641225299        5.7557361504        0.7292290413
H         -6.7032761219        4.1976810905        2.5716126240
H         -5.1494190700        2.4095490156        3.1912607754
H         -3.0219045410        2.0974593176        1.9870899574
H         -0.6906256624        4.7456155121       -2.2882357910
H         -1.3766709661        6.7007618080       -3.6214352220
H         -3.4789107468        7.8700507131       -3.1638218613
H         -4.9854319412        7.0982433857       -1.3616427291
H         -4.9433900020       -6.8182899860        0.8083581141
H         -5.8115073067       -5.3549191513        2.6021766470
H         -4.6504193592       -3.2823863018        3.1956472720
H         -2.6042488796       -2.5854560705        2.0123786699
H          0.2846084094       -4.8247886969       -2.1531829976
H          0.0219865767       -6.9080382357       -3.4439315882
H         -1.8206439490       -8.4547697063       -2.9879805455
H         -3.4852693759       -7.9514767568       -1.2306300531
